11

N    1.78713430360000e+00   2.71801799000000e-02   0.00000000000000e+00
H    1.39006112590000e+00   9.96785976500000e-01   0.00000000000000e+00
H    2.37021920150000e+00  -1.00264571200000e-01  -8.26861861700000e-01
H    2.37021920150000e+00  -1.00264571200000e-01   8.26861861700000e-01
C    5.73538511500000e-01  -8.45974250200000e-01   0.00000000000000e+00
H    5.69810463900000e-01  -1.47354450860000e+00  -8.87906670100000e-01
H    5.69810463900000e-01  -1.47354450860000e+00   8.87906670100000e-01
C   -6.09028061400000e-01   1.30465277000000e-01   0.00000000000000e+00
O   -3.86631256000000e-01   1.32022947480000e+00   0.00000000000000e+00
O   -1.82858668480000e+00  -3.71063038800000e-01   0.00000000000000e+00
H   -1.84537975640000e+00  -1.33970672560000e+00   0.00000000000000e+00
