17
-3.46273709e+01
N    1.70436388e-02      4.75962784e-03      -1.71016203e-02     
H    -5.53446942e-01     -8.67483533e-01     7.49620760e-02      
H    -5.74415293e-01     6.72133324e-01      -5.12779373e-01     
H    2.90266099e-01      3.93840839e-01      9.10619422e-01      
C    1.22349907e+00      -2.87820002e-01     -8.24602687e-01     
H    1.88134653e+00      5.78682597e-01      -8.35355612e-01     
H    1.75594038e+00      -1.12570607e+00     -3.82286311e-01     
C    7.67343481e-01      -6.28431961e-01     -2.22520521e+00     
O    -3.93819066e-01     -5.95734936e-01     -2.57178494e+00     
O    1.80950149e+00      -9.50444861e-01     -2.98769341e+00     
H    1.47348228e+00      -1.14208555e+00     -3.88284785e+00     
O    -1.29058379e+00     -2.38277043e+00     -1.89864995e-01     
H    -1.75127808e+00     -2.97919744e+00     4.06964916e-01      
H    -1.72823857e+00     -2.47294160e+00     -1.04175917e+00     
O    1.01187703e+00      1.11585415e+00      2.30766706e+00      
H    1.38682310e+00      6.44021555e-01      3.05550220e+00      
H    8.53947940e-01      2.00829531e+00      2.62600493e+00      
