11
671.896223
N    -1.48834503e-01     -1.94017582e+00     6.72149010e-01      
H    6.93758662e-01      -2.45254602e+00     1.00829267e+00      
H    -5.49720199e-01     -2.44677610e+00     -1.16880951e-01     
H    -8.45910795e-01     -1.91464853e+00     1.41617348e+00      
C    3.54466895e-01      -5.86519458e-01     2.84888700e-01      
H    2.03133215e-01      -4.26833561e-01     -7.81373288e-01     
H    -1.65043995e-01     1.92809043e-01      8.37906460e-01      
C    1.84562533e+00      -6.14357424e-01     5.80178372e-01      
O    2.37759456e+00      -1.62098034e+00     1.00554263e+00      
O    2.42677820e+00      5.18696753e-01      2.35400158e-01      
H    3.34586266e+00      5.20974696e-01      6.25953431e-01      
11
671.896223
N    -1.48788058e-01     -1.94026727e+00     6.71894863e-01      
H    6.93718174e-01      -2.45246630e+00     1.00851422e+00      
H    -5.52100646e-01     -2.44847498e+00     -1.14817070e-01     
H    -8.44123619e-01     -1.91178146e+00     1.41735597e+00      
C    3.54822398e-01      -5.87219465e-01     2.82943391e-01      
H    1.93941223e-01      -4.21898962e-01     -7.80497280e-01     
H    -1.57213413e-01     1.90555141e-01      8.44480066e-01      
C    1.84648232e+00      -6.16044889e-01     5.75488934e-01      
O    2.37711263e+00      -1.62003140e+00     1.00817971e+00      
O    2.42593556e+00      5.20355964e-01      2.40011080e-01      
H    3.35379737e+00      5.05350795e-01      5.82534857e-01      
11
671.896223
N    -1.48764835e-01     -1.94031300e+00     6.71767789e-01      
H    6.93697930e-01      -2.45242644e+00     1.00862500e+00      
H    -5.53290870e-01     -2.44932442e+00     -1.13785130e-01     
H    -8.43230030e-01     -1.91034793e+00     1.41794721e+00      
C    3.55000150e-01      -5.87569469e-01     2.81970736e-01      
H    1.89345227e-01      -4.19431663e-01     -7.80059276e-01     
H    -1.53298123e-01     1.89428190e-01      8.47766869e-01      
C    1.84691081e+00      -6.16888621e-01     5.73144214e-01      
O    2.37687167e+00      -1.61955693e+00     1.00949825e+00      
O    2.42551424e+00      5.21185570e-01      2.42316541e-01      
H    3.35776472e+00      4.97538845e-01      5.60825570e-01      
11
671.896223
N    -1.48741612e-01     -1.94035872e+00     6.71640715e-01      
H    6.93677687e-01      -2.45238658e+00     1.00873577e+00      
H    -5.54481093e-01     -2.45017386e+00     -1.12753189e-01     
H    -8.42336442e-01     -1.90891440e+00     1.41853846e+00      
C    3.55177902e-01      -5.87919472e-01     2.80998081e-01      
H    1.84749231e-01      -4.16964363e-01     -7.79621271e-01     
H    -1.49382832e-01     1.88301239e-01      8.51053671e-01      
C    1.84733931e+00      -6.17732354e-01     5.70799495e-01      
O    2.37663071e+00      -1.61908246e+00     1.01081679e+00      
O    2.42509291e+00      5.22015175e-01      2.44622003e-01      
H    3.36173208e+00      4.89726895e-01      5.39116283e-01      
11
671.896223
N    -1.48718390e-01     -1.94040445e+00     6.71513641e-01      
H    6.93657443e-01      -2.45234671e+00     1.00884655e+00      
H    -5.55671317e-01     -2.45102330e+00     -1.11721249e-01     
H    -8.41442854e-01     -1.90748087e+00     1.41912970e+00      
C    3.55355654e-01      -5.88269476e-01     2.80025427e-01      
H    1.80153235e-01      -4.14497064e-01     -7.79183267e-01     
H    -1.45467541e-01     1.87174288e-01      8.54340474e-01      
C    1.84776780e+00      -6.18576086e-01     5.68454775e-01      
O    2.37638975e+00      -1.61860800e+00     1.01213533e+00      
O    2.42467159e+00      5.22844781e-01      2.46927464e-01      
H    3.36569943e+00      4.81914944e-01      5.17406995e-01      
11
671.896223
N    -1.48695167e-01     -1.94045018e+00     6.71386568e-01      
H    6.93637199e-01      -2.45230685e+00     1.00895732e+00      
H    -5.56861540e-01     -2.45187273e+00     -1.10689309e-01     
H    -8.40549266e-01     -1.90604734e+00     1.41972094e+00      
C    3.55533405e-01      -5.88619480e-01     2.79052772e-01      
H    1.75557239e-01      -4.12029765e-01     -7.78745263e-01     
H    -1.41552250e-01     1.86047337e-01      8.57627277e-01      
C    1.84819630e+00      -6.19419819e-01     5.66110056e-01      
O    2.37614878e+00      -1.61813353e+00     1.01345387e+00      
O    2.42425027e+00      5.23674387e-01      2.49232925e-01      
H    3.36966678e+00      4.74102994e-01      4.95697708e-01      
11
671.896223
N    -1.48683556e-01     -1.94047304e+00     6.71323031e-01      
H    6.93627077e-01      -2.45228692e+00     1.00901271e+00      
H    -5.57456652e-01     -2.45229745e+00     -1.10173339e-01     
H    -8.40102472e-01     -1.90533058e+00     1.42001657e+00      
C    3.55622281e-01      -5.88794482e-01     2.78566445e-01      
H    1.73259241e-01      -4.10796115e-01     -7.78526261e-01     
H    -1.39594605e-01     1.85483861e-01      8.59270679e-01      
C    1.84841055e+00      -6.19841685e-01     5.64937696e-01      
O    2.37602830e+00      -1.61789629e+00     1.01411314e+00      
O    2.42403961e+00      5.24089190e-01      2.50385655e-01      
H    3.37165046e+00      4.70197019e-01      4.84843065e-01      
11
671.896223
N    -1.48671945e-01     -1.94049590e+00     6.71259494e-01      
H    6.93616955e-01      -2.45226699e+00     1.00906810e+00      
H    -5.58051764e-01     -2.45272217e+00     -1.09657368e-01     
H    -8.39655678e-01     -1.90461381e+00     1.42031219e+00      
C    3.55711157e-01      -5.88969483e-01     2.78080118e-01      
H    1.70961243e-01      -4.09562465e-01     -7.78307259e-01     
H    -1.37636960e-01     1.84920386e-01      8.60914080e-01      
C    1.84862479e+00      -6.20263551e-01     5.63765336e-01      
O    2.37590782e+00      -1.61765906e+00     1.01477241e+00      
O    2.42382895e+00      5.24503992e-01      2.51538386e-01      
H    3.37363414e+00      4.66291043e-01      4.73988421e-01      
11
671.896223
N    -1.48625499e-01     -1.94058736e+00     6.71005346e-01      
H    6.93576467e-01      -2.45218727e+00     1.00928964e+00      
H    -5.60432210e-01     -2.45442105e+00     -1.07593488e-01     
H    -8.37868502e-01     -1.90174675e+00     1.42149467e+00      
C    3.56066661e-01      -5.89669491e-01     2.76134808e-01      
H    1.61769251e-01      -4.04627867e-01     -7.77431251e-01     
H    -1.29806378e-01     1.82666484e-01      8.67487686e-01      
C    1.84948179e+00      -6.21951017e-01     5.59075898e-01      
O    2.37542590e+00      -1.61671012e+00     1.01740949e+00      
O    2.42298631e+00      5.26163204e-01      2.56149308e-01      
H    3.38156884e+00      4.50667143e-01      4.30569847e-01      
11
671.896223
N    -1.48613888e-01     -1.94061022e+00     6.70941809e-01      
H    6.93566345e-01      -2.45216734e+00     1.00934503e+00      
H    -5.61027322e-01     -2.45484577e+00     -1.07077517e-01     
H    -8.37421708e-01     -1.90102998e+00     1.42179029e+00      
C    3.56155537e-01      -5.89844492e-01     2.75648481e-01      
H    1.59471253e-01      -4.03394217e-01     -7.77212249e-01     
H    -1.27848733e-01     1.82103009e-01      8.69131087e-01      
C    1.84969603e+00      -6.22372883e-01     5.57903538e-01      
O    2.37530542e+00      -1.61647289e+00     1.01806876e+00      
O    2.42277565e+00      5.26578006e-01      2.57302039e-01      
H    3.38355252e+00      4.46761167e-01      4.19715203e-01      
11
671.896223
N    -1.48602277e-01     -1.94063308e+00     6.70878272e-01      
H    6.93556223e-01      -2.45214741e+00     1.00940042e+00      
H    -5.61622434e-01     -2.45527049e+00     -1.06561547e-01     
H    -8.36974914e-01     -1.90031322e+00     1.42208592e+00      
C    3.56244413e-01      -5.90019494e-01     2.75162154e-01      
H    1.57173255e-01      -4.02160567e-01     -7.76993247e-01     
H    -1.25891088e-01     1.81539533e-01      8.70774489e-01      
C    1.84991028e+00      -6.22794749e-01     5.56731178e-01      
O    2.37518494e+00      -1.61623565e+00     1.01872803e+00      
O    2.42256499e+00      5.26992809e-01      2.58454769e-01      
H    3.38553620e+00      4.42855192e-01      4.08860560e-01      
11
671.896223
N    -1.48579054e-01     -1.94067881e+00     6.70751199e-01      
H    6.93535979e-01      -2.45210755e+00     1.00951119e+00      
H    -5.62812657e-01     -2.45611992e+00     -1.05529607e-01     
H    -8.36081326e-01     -1.89887969e+00     1.42267716e+00      
C    3.56422164e-01      -5.90369498e-01     2.74189499e-01      
H    1.52577259e-01      -3.99693268e-01     -7.76555243e-01     
H    -1.21975797e-01     1.80412582e-01      8.74061292e-01      
C    1.85033878e+00      -6.23638482e-01     5.54386459e-01      
O    2.37494397e+00      -1.61576118e+00     1.02004657e+00      
O    2.42214367e+00      5.27822415e-01      2.60760230e-01      
H    3.38950355e+00      4.35043242e-01      3.87151273e-01      
11
671.896223
N    -1.48555832e-01     -1.94072454e+00     6.70624125e-01      
H    6.93515735e-01      -2.45206768e+00     1.00962197e+00      
H    -5.64002881e-01     -2.45696936e+00     -1.04497667e-01     
H    -8.35187738e-01     -1.89744616e+00     1.42326840e+00      
C    3.56599916e-01      -5.90719502e-01     2.73216845e-01      
H    1.47981263e-01      -3.97225969e-01     -7.76117239e-01     
H    -1.18060506e-01     1.79285631e-01      8.77348095e-01      
C    1.85076727e+00      -6.24482214e-01     5.52041739e-01      
O    2.37470301e+00      -1.61528672e+00     1.02136511e+00      
O    2.42172235e+00      5.28652021e-01      2.63065691e-01      
H    3.39347090e+00      4.27231291e-01      3.65441985e-01      
11
671.896223
N    -1.48532609e-01     -1.94077026e+00     6.70497051e-01      
H    6.93495492e-01      -2.45202782e+00     1.00973274e+00      
H    -5.65193104e-01     -2.45781880e+00     -1.03465726e-01     
H    -8.34294150e-01     -1.89601263e+00     1.42385965e+00      
C    3.56777668e-01      -5.91069505e-01     2.72244190e-01      
H    1.43385267e-01      -3.94758669e-01     -7.75679234e-01     
H    -1.14145215e-01     1.78158680e-01      8.80634897e-01      
C    1.85119577e+00      -6.25325947e-01     5.49697020e-01      
O    2.37446205e+00      -1.61481225e+00     1.02268365e+00      
O    2.42130102e+00      5.29481626e-01      2.65371153e-01      
H    3.39743826e+00      4.19419341e-01      3.43732698e-01      
11
671.896223
N    -1.48509386e-01     -1.94081599e+00     6.70369977e-01      
H    6.93475248e-01      -2.45198796e+00     1.00984352e+00      
H    -5.66383328e-01     -2.45866824e+00     -1.02433786e-01     
H    -8.33400561e-01     -1.89457910e+00     1.42445089e+00      
C    3.56955420e-01      -5.91419509e-01     2.71271535e-01      
H    1.38789271e-01      -3.92291370e-01     -7.75241230e-01     
H    -1.10229925e-01     1.77031729e-01      8.83921700e-01      
C    1.85162426e+00      -6.26169679e-01     5.47352300e-01      
O    2.37422109e+00      -1.61433778e+00     1.02400219e+00      
O    2.42087970e+00      5.30311232e-01      2.67676614e-01      
H    3.40140561e+00      4.11607391e-01      3.22023411e-01      
11
671.896223
N    -1.48462941e-01     -1.94090744e+00     6.70115830e-01      
H    6.93434760e-01      -2.45190824e+00     1.01006507e+00      
H    -5.68763775e-01     -2.46036712e+00     -1.00369905e-01     
H    -8.31613385e-01     -1.89171203e+00     1.42563338e+00      
C    3.57310923e-01      -5.92119516e-01     2.69326226e-01      
H    1.29597279e-01      -3.87356771e-01     -7.74365222e-01     
H    -1.02399343e-01     1.74777827e-01      8.90495306e-01      
C    1.85248125e+00      -6.27857144e-01     5.42662862e-01      
O    2.37373916e+00      -1.61338884e+00     1.02663927e+00      
O    2.42003706e+00      5.31970443e-01      2.72287536e-01      
H    3.40934032e+00      3.95983490e-01      2.78604837e-01      
