11
921.968003
N    -1.49719103e-01     -1.93843399e+00     6.76989527e-01      
H    6.99706351e-01      -2.46425737e+00     9.75747034e-01      
H    -5.26089656e-01     -2.38226566e+00     -1.65689993e-01     
H    -8.60139328e-01     -1.99767207e+00     1.41353490e+00      
C    3.52181563e-01      -5.82019508e-01     2.97393988e-01      
H    1.98839401e-01      -4.96829856e-01     -7.82061891e-01     
H    -1.52863802e-01     2.47276598e-01      7.95440934e-01      
C    1.85431154e+00      -6.31461080e-01     5.32647580e-01      
O    2.37435462e+00      -1.61460072e+00     1.02327150e+00      
O    2.42251067e+00      5.27099770e-01      2.58752011e-01      
H    3.37785229e+00      4.57985258e-01      4.50906772e-01      
11
921.968003
N    -1.49451508e-01     -1.93896090e+00     6.75525250e-01      
H    6.98178941e-01      -2.46124981e+00     9.84104993e-01      
H    -5.34377739e-01     -2.40009215e+00     -1.51423852e-01     
H    -8.54795019e-01     -1.97404912e+00     1.41537704e+00      
C    3.53108400e-01      -5.83844503e-01     2.92322357e-01      
H    1.90720862e-01      -4.74396184e-01     -7.81013732e-01     
H    -1.48078268e-01     2.31405807e-01      8.12630921e-01      
C    1.85299698e+00      -6.28872631e-01     5.39840839e-01      
O    2.37468268e+00      -1.61524668e+00     1.02147636e+00      
O    2.42273491e+00      5.26658227e-01      2.57524970e-01      
H    3.37778959e+00      4.58108717e-01      4.51249862e-01      
11
921.968003
N    -1.49317710e-01     -1.93922435e+00     6.74793112e-01      
H    6.97415236e-01      -2.45974603e+00     9.88283973e-01      
H    -5.38521780e-01     -2.40900539e+00     -1.44290781e-01     
H    -8.52122864e-01     -1.96223765e+00     1.41629810e+00      
C    3.53571818e-01      -5.84757000e-01     2.89786541e-01      
H    1.86661593e-01      -4.63179347e-01     -7.80489653e-01     
H    -1.45685502e-01     2.23470412e-01      8.21225915e-01      
C    1.85233970e+00      -6.27578407e-01     5.43437469e-01      
O    2.37484671e+00      -1.61556967e+00     1.02057879e+00      
O    2.42284703e+00      5.26437456e-01      2.56911449e-01      
H    3.37775824e+00      4.58170446e-01      4.51421408e-01      
11
921.968003
N    -1.49183913e-01     -1.93948781e+00     6.74060973e-01      
H    6.96651531e-01      -2.45824225e+00     9.92462952e-01      
H    -5.42665821e-01     -2.41791864e+00     -1.37157710e-01     
H    -8.49450709e-01     -1.95042617e+00     1.41721917e+00      
C    3.54035236e-01      -5.85669498e-01     2.87250725e-01      
H    1.82602324e-01      -4.51962511e-01     -7.79965573e-01     
H    -1.43292735e-01     2.15535017e-01      8.29820908e-01      
C    1.85168241e+00      -6.26284182e-01     5.47034098e-01      
O    2.37501074e+00      -1.61589265e+00     1.01968122e+00      
O    2.42295915e+00      5.26216684e-01      2.56297929e-01      
H    3.37772689e+00      4.58232175e-01      4.51592953e-01      
11
921.968003
N    -1.49050115e-01     -1.93975126e+00     6.73328835e-01      
H    6.95887826e-01      -2.45673847e+00     9.96641932e-01      
H    -5.46809863e-01     -2.42683188e+00     -1.30024640e-01     
H    -8.46778554e-01     -1.93861470e+00     1.41814023e+00      
C    3.54498654e-01      -5.86581995e-01     2.84714910e-01      
H    1.78543055e-01      -4.40745675e-01     -7.79441494e-01     
H    -1.40899969e-01     2.07599621e-01      8.38415902e-01      
C    1.85102513e+00      -6.24989958e-01     5.50630728e-01      
O    2.37517477e+00      -1.61621564e+00     1.01878366e+00      
O    2.42307127e+00      5.25995913e-01      2.55684408e-01      
H    3.37769554e+00      4.58293905e-01      4.51764498e-01      
11
921.968003
N    -1.48916317e-01     -1.94001472e+00     6.72596697e-01      
H    6.95124121e-01      -2.45523469e+00     1.00082091e+00      
H    -5.50953904e-01     -2.43574512e+00     -1.22891569e-01     
H    -8.44106400e-01     -1.92680323e+00     1.41906130e+00      
C    3.54962073e-01      -5.87494492e-01     2.82179094e-01      
H    1.74483785e-01      -4.29528839e-01     -7.78917414e-01     
H    -1.38507202e-01     1.99664226e-01      8.47010896e-01      
C    1.85036785e+00      -6.23695733e-01     5.54227358e-01      
O    2.37533880e+00      -1.61653862e+00     1.01788609e+00      
O    2.42318339e+00      5.25775141e-01      2.55070888e-01      
H    3.37766419e+00      4.58355634e-01      4.51936043e-01      
11
921.968003
N    -1.48849418e-01     -1.94014645e+00     6.72230628e-01      
H    6.94742269e-01      -2.45448280e+00     1.00291040e+00      
H    -5.53025925e-01     -2.44020174e+00     -1.19325034e-01     
H    -8.42770322e-01     -1.92089749e+00     1.41952183e+00      
C    3.55193782e-01      -5.87950741e-01     2.80911186e-01      
H    1.72454151e-01      -4.23920420e-01     -7.78655374e-01     
H    -1.37310819e-01     1.95696528e-01      8.51308392e-01      
C    1.85003921e+00      -6.23048621e-01     5.56025673e-01      
O    2.37542082e+00      -1.61670011e+00     1.01743730e+00      
O    2.42323945e+00      5.25664755e-01      2.54764128e-01      
H    3.37764851e+00      4.58386499e-01      4.52021816e-01      
11
921.968003
N    -1.48782520e-01     -1.94027817e+00     6.71864558e-01      
H    6.94360416e-01      -2.45373091e+00     1.00499989e+00      
H    -5.55097946e-01     -2.44465837e+00     -1.15758499e-01     
H    -8.41434245e-01     -1.91499175e+00     1.41998236e+00      
C    3.55425491e-01      -5.88406990e-01     2.79643279e-01      
H    1.70424516e-01      -4.18312002e-01     -7.78393335e-01     
H    -1.36114436e-01     1.91728830e-01      8.55605889e-01      
C    1.84971057e+00      -6.22401509e-01     5.57823987e-01      
O    2.37550283e+00      -1.61686161e+00     1.01698852e+00      
O    2.42329551e+00      5.25554370e-01      2.54457367e-01      
H    3.37763284e+00      4.58417364e-01      4.52107589e-01      
11
921.968003
N    -1.48514924e-01     -1.94080509e+00     6.70400282e-01      
H    6.92833006e-01      -2.45072335e+00     1.01335785e+00      
H    -5.63386028e-01     -2.46248485e+00     -1.01492357e-01     
H    -8.36089935e-01     -1.89136881e+00     1.42182450e+00      
C    3.56352327e-01      -5.90231984e-01     2.74571647e-01      
H    1.62305978e-01      -3.95878330e-01     -7.77345175e-01     
H    -1.31328902e-01     1.75858040e-01      8.72795877e-01      
C    1.84839601e+00      -6.19813059e-01     5.65017247e-01      
O    2.37583089e+00      -1.61750757e+00     1.01519338e+00      
O    2.42351975e+00      5.25112826e-01      2.53230327e-01      
H    3.37757014e+00      4.58540822e-01      4.52450679e-01      
11
921.968003
N    -1.48448026e-01     -1.94093681e+00     6.70034212e-01      
H    6.92451153e-01      -2.44997146e+00     1.01544734e+00      
H    -5.65458049e-01     -2.46694148e+00     -9.79258221e-02     
H    -8.34753858e-01     -1.88546307e+00     1.42228503e+00      
C    3.56584036e-01      -5.90688233e-01     2.73303740e-01      
H    1.60276343e-01      -3.90269912e-01     -7.77083136e-01     
H    -1.30132519e-01     1.71890342e-01      8.77093374e-01      
C    1.84806737e+00      -6.19165947e-01     5.66815561e-01      
O    2.37591290e+00      -1.61766907e+00     1.01474460e+00      
O    2.42357581e+00      5.25002441e-01      2.52923566e-01      
H    3.37755447e+00      4.58571687e-01      4.52536452e-01      
11
921.968003
N    -1.48381127e-01     -1.94106854e+00     6.69668143e-01      
H    6.92069301e-01      -2.44921957e+00     1.01753683e+00      
H    -5.67530070e-01     -2.47139810e+00     -9.43592868e-02     
H    -8.33417780e-01     -1.87955733e+00     1.42274556e+00      
C    3.56815745e-01      -5.91144482e-01     2.72035832e-01      
H    1.58246709e-01      -3.84661493e-01     -7.76821096e-01     
H    -1.28936136e-01     1.67922644e-01      8.81390870e-01      
C    1.84773873e+00      -6.18518835e-01     5.68613876e-01      
O    2.37599492e+00      -1.61783056e+00     1.01429581e+00      
O    2.42363187e+00      5.24892055e-01      2.52616806e-01      
H    3.37753879e+00      4.58602552e-01      4.52622225e-01      
11
921.968003
N    -1.48247329e-01     -1.94133200e+00     6.68936005e-01      
H    6.91305596e-01      -2.44771579e+00     1.02171581e+00      
H    -5.71674111e-01     -2.48031134e+00     -8.72262162e-02     
H    -8.30745626e-01     -1.86774586e+00     1.42366663e+00      
C    3.57279164e-01      -5.92056979e-01     2.69500016e-01      
H    1.54187439e-01      -3.73444657e-01     -7.76297016e-01     
H    -1.26543369e-01     1.59987249e-01      8.89985864e-01      
C    1.84708145e+00      -6.17224610e-01     5.72210506e-01      
O    2.37615895e+00      -1.61815354e+00     1.01339824e+00      
O    2.42374399e+00      5.24671283e-01      2.52003286e-01      
H    3.37750744e+00      4.58664281e-01      4.52793770e-01      
11
921.968003
N    -1.48113531e-01     -1.94159545e+00     6.68203867e-01      
H    6.90541891e-01      -2.44621201e+00     1.02589479e+00      
H    -5.75818153e-01     -2.48922458e+00     -8.00931456e-02     
H    -8.28073471e-01     -1.85593439e+00     1.42458769e+00      
C    3.57742582e-01      -5.92969476e-01     2.66964201e-01      
H    1.50128170e-01      -3.62227821e-01     -7.75772937e-01     
H    -1.24150603e-01     1.52051853e-01      8.98580858e-01      
C    1.84642417e+00      -6.15930386e-01     5.75807136e-01      
O    2.37632298e+00      -1.61847653e+00     1.01250068e+00      
O    2.42385611e+00      5.24450512e-01      2.51389765e-01      
H    3.37747609e+00      4.58726011e-01      4.52965315e-01      
11
921.968003
N    -1.47979734e-01     -1.94185891e+00     6.67471728e-01      
H    6.89778186e-01      -2.44470823e+00     1.03007377e+00      
H    -5.79962194e-01     -2.49813783e+00     -7.29600750e-02     
H    -8.25401316e-01     -1.84412291e+00     1.42550876e+00      
C    3.58206000e-01      -5.93881974e-01     2.64428385e-01      
H    1.46068901e-01      -3.51010985e-01     -7.75248857e-01     
H    -1.21757836e-01     1.44116458e-01      9.07175851e-01      
C    1.84576688e+00      -6.14636161e-01     5.79403765e-01      
O    2.37648701e+00      -1.61879951e+00     1.01160311e+00      
O    2.42396823e+00      5.24229740e-01      2.50776245e-01      
H    3.37744474e+00      4.58787740e-01      4.53136860e-01      
11
921.968003
N    -1.47845936e-01     -1.94212236e+00     6.66739590e-01      
H    6.89014481e-01      -2.44320445e+00     1.03425275e+00      
H    -5.84106235e-01     -2.50705107e+00     -6.58270044e-02     
H    -8.22729161e-01     -1.83231144e+00     1.42642982e+00      
C    3.58669418e-01      -5.94794471e-01     2.61892569e-01      
H    1.42009632e-01      -3.39794148e-01     -7.74724778e-01     
H    -1.19365070e-01     1.36181063e-01      9.15770845e-01      
C    1.84510960e+00      -6.13341937e-01     5.83000395e-01      
O    2.37665104e+00      -1.61912250e+00     1.01070554e+00      
O    2.42408035e+00      5.24008969e-01      2.50162724e-01      
H    3.37741339e+00      4.58849469e-01      4.53308406e-01      
11
921.968003
N    -1.47578341e-01     -1.94264927e+00     6.65275313e-01      
H    6.87487071e-01      -2.44019689e+00     1.04261071e+00      
H    -5.92394318e-01     -2.52487756e+00     -5.15608632e-02     
H    -8.17384852e-01     -1.80868849e+00     1.42827196e+00      
C    3.59596255e-01      -5.96619466e-01     2.56820938e-01      
H    1.33891093e-01      -3.17360476e-01     -7.73676619e-01     
H    -1.14579536e-01     1.20310272e-01      9.32960832e-01      
C    1.84379504e+00      -6.10753488e-01     5.90193654e-01      
O    2.37697910e+00      -1.61976846e+00     1.00891040e+00      
O    2.42430459e+00      5.23567426e-01      2.48935683e-01      
H    3.37735069e+00      4.58972928e-01      4.53651496e-01      
