11
1308.540921
N    -1.51571116e-01     -1.93478727e+00     6.87123701e-01      
H    6.96148395e-01      -2.45725154e+00     9.95216108e-01      
H    -5.38370180e-01     -2.40314746e+00     -1.33747106e-01     
H    -8.56242197e-01     -1.96028288e+00     1.42746580e+00      
C    3.58309204e-01      -5.94085186e-01     2.63863659e-01      
H    2.45426095e-01      -3.09073132e-01     -7.89863189e-01     
H    -2.15557939e-01     9.12363479e-02      8.91381835e-01      
C    1.85014880e+00      -6.23264402e-01     5.55426020e-01      
O    2.37550227e+00      -1.61686050e+00     1.01699159e+00      
O    2.42327118e+00      5.25602277e-01      2.54590502e-01      
H    3.37795399e+00      4.57784995e-01      4.50350258e-01      
11
1308.540921
N    -1.50840517e-01     -1.93622586e+00     6.83125881e-01      
H    6.95510474e-01      -2.45599544e+00     9.98706799e-01      
H    -5.43588132e-01     -2.41575350e+00     -1.27466686e-01     
H    -8.51872171e-01     -1.94600723e+00     1.42582521e+00      
C    3.57704130e-01      -5.92893761e-01     2.67174610e-01      
H    2.25660883e-01      -3.33578641e-01     -7.86864705e-01     
H    -1.95098872e-01     1.14375620e-01      8.84586597e-01      
C    1.84987492e+00      -6.22725122e-01     5.56924669e-01      
O    2.37554342e+00      -1.61694152e+00     1.01676643e+00      
O    2.42330529e+00      5.25535107e-01      2.54403838e-01      
H    3.37786586e+00      4.57958519e-01      4.50832477e-01      
11
1308.540921
N    -1.50475218e-01     -1.93694515e+00     6.81126971e-01      
H    6.95191513e-01      -2.45536739e+00     1.00045214e+00      
H    -5.46197107e-01     -2.42205652e+00     -1.24326477e-01     
H    -8.49687157e-01     -1.93886941e+00     1.42500491e+00      
C    3.57401593e-01      -5.92298049e-01     2.68830085e-01      
H    2.15778277e-01      -3.45831395e-01     -7.85365464e-01     
H    -1.84869338e-01     1.25945256e-01      8.81188978e-01      
C    1.84973798e+00      -6.22455482e-01     5.57673994e-01      
O    2.37556399e+00      -1.61698203e+00     1.01665385e+00      
O    2.42332235e+00      5.25501522e-01      2.54310506e-01      
H    3.37782180e+00      4.58045281e-01      4.51073587e-01      
11
1308.540921
N    -1.50109919e-01     -1.93766445e+00     6.79128061e-01      
H    6.94872553e-01      -2.45473933e+00     1.00219749e+00      
H    -5.48806083e-01     -2.42835954e+00     -1.21186267e-01     
H    -8.47502144e-01     -1.93173158e+00     1.42418461e+00      
C    3.57099057e-01      -5.91702337e-01     2.70485561e-01      
H    2.05895671e-01      -3.58084149e-01     -7.83866222e-01     
H    -1.74639804e-01     1.37514891e-01      8.77791359e-01      
C    1.84960104e+00      -6.22185843e-01     5.58423319e-01      
O    2.37558456e+00      -1.61702254e+00     1.01654127e+00      
O    2.42333940e+00      5.25467938e-01      2.54217174e-01      
H    3.37777774e+00      4.58132044e-01      4.51314696e-01      
11
1308.540921
N    -1.49744620e-01     -1.93838374e+00     6.77129150e-01      
H    6.94553592e-01      -2.45411128e+00     1.00394283e+00      
H    -5.51415059e-01     -2.43466255e+00     -1.18046057e-01     
H    -8.45317130e-01     -1.92459376e+00     1.42336432e+00      
C    3.56796520e-01      -5.91106624e-01     2.72141036e-01      
H    1.96013065e-01      -3.70336903e-01     -7.82366980e-01     
H    -1.64410270e-01     1.49084527e-01      8.74393740e-01      
C    1.84946411e+00      -6.21916203e-01     5.59172643e-01      
O    2.37560514e+00      -1.61706306e+00     1.01642869e+00      
O    2.42335646e+00      5.25434353e-01      2.54123843e-01      
H    3.37773368e+00      4.58218806e-01      4.51555806e-01      
11
1308.540921
N    -1.49379320e-01     -1.93910304e+00     6.75130240e-01      
H    6.94234632e-01      -2.45348323e+00     1.00568818e+00      
H    -5.54024035e-01     -2.44096557e+00     -1.14905847e-01     
H    -8.43132117e-01     -1.91745593e+00     1.42254402e+00      
C    3.56493983e-01      -5.90510912e-01     2.73796512e-01      
H    1.86130459e-01      -3.82589658e-01     -7.80867738e-01     
H    -1.54180737e-01     1.60654163e-01      8.70996121e-01      
C    1.84932717e+00      -6.21646563e-01     5.59921968e-01      
O    2.37562571e+00      -1.61710357e+00     1.01631611e+00      
O    2.42337352e+00      5.25400768e-01      2.54030511e-01      
H    3.37768961e+00      4.58305568e-01      4.51796915e-01      
11
1308.540921
N    -1.49196671e-01     -1.93946269e+00     6.74130785e-01      
H    6.94075152e-01      -2.45316921e+00     1.00656085e+00      
H    -5.55328523e-01     -2.44411708e+00     -1.13335743e-01     
H    -8.42039610e-01     -1.91388702e+00     1.42213387e+00      
C    3.56342714e-01      -5.90213056e-01     2.74624250e-01      
H    1.81189156e-01      -3.88716035e-01     -7.80118118e-01     
H    -1.49065970e-01     1.66438981e-01      8.69297311e-01      
C    1.84925870e+00      -6.21511744e-01     5.60296630e-01      
O    2.37563600e+00      -1.61712382e+00     1.01625982e+00      
O    2.42338205e+00      5.25383975e-01      2.53983845e-01      
H    3.37766758e+00      4.58348950e-01      4.51917470e-01      
11
1308.540921
N    -1.49014021e-01     -1.93982233e+00     6.73131330e-01      
H    6.93915671e-01      -2.45285518e+00     1.00743352e+00      
H    -5.56633011e-01     -2.44726859e+00     -1.11765638e-01     
H    -8.40947103e-01     -1.91031811e+00     1.42172373e+00      
C    3.56191446e-01      -5.89915199e-01     2.75451987e-01      
H    1.76247853e-01      -3.94842412e-01     -7.79368497e-01     
H    -1.43951203e-01     1.72223799e-01      8.67598502e-01      
C    1.84919023e+00      -6.21376924e-01     5.60671292e-01      
O    2.37564629e+00      -1.61714408e+00     1.01620353e+00      
O    2.42339057e+00      5.25367183e-01      2.53937179e-01      
H    3.37764555e+00      4.58392331e-01      4.52038025e-01      
11
1308.540921
N    -1.48283423e-01     -1.94126093e+00     6.69133510e-01      
H    6.93277751e-01      -2.45159908e+00     1.01092422e+00      
H    -5.61850963e-01     -2.45987463e+00     -1.05485218e-01     
H    -8.36577077e-01     -1.89604245e+00     1.42008313e+00      
C    3.55586372e-01      -5.88723775e-01     2.78762939e-01      
H    1.56482641e-01      -4.19347920e-01     -7.76370013e-01     
H    -1.23492135e-01     1.95363071e-01      8.60803264e-01      
C    1.84891635e+00      -6.20837644e-01     5.62169942e-01      
O    2.37568743e+00      -1.61722510e+00     1.01597837e+00      
O    2.42342469e+00      5.25300013e-01      2.53750515e-01      
H    3.37755743e+00      4.58565855e-01      4.52520243e-01      
11
1308.540921
N    -1.48100773e-01     -1.94162057e+00     6.68134055e-01      
H    6.93118270e-01      -2.45128505e+00     1.01179689e+00      
H    -5.63155451e-01     -2.46302614e+00     -1.03915113e-01     
H    -8.35484570e-01     -1.89247354e+00     1.41967299e+00      
C    3.55435104e-01      -5.88425918e-01     2.79590676e-01      
H    1.51541338e-01      -4.25474297e-01     -7.75620392e-01     
H    -1.18377368e-01     2.01147889e-01      8.59104455e-01      
C    1.84884788e+00      -6.20702824e-01     5.62544604e-01      
O    2.37569772e+00      -1.61724536e+00     1.01592208e+00      
O    2.42343321e+00      5.25283221e-01      2.53703849e-01      
H    3.37753540e+00      4.58609236e-01      4.52640798e-01      
11
1308.540921
N    -1.47918124e-01     -1.94198022e+00     6.67134600e-01      
H    6.92958790e-01      -2.45097103e+00     1.01266956e+00      
H    -5.64459939e-01     -2.46617765e+00     -1.02345009e-01     
H    -8.34392063e-01     -1.88890463e+00     1.41926284e+00      
C    3.55283835e-01      -5.88128062e-01     2.80418414e-01      
H    1.46600035e-01      -4.31600674e-01     -7.74870772e-01     
H    -1.13262601e-01     2.06932707e-01      8.57405645e-01      
C    1.84877941e+00      -6.20568005e-01     5.62919266e-01      
O    2.37570801e+00      -1.61726561e+00     1.01586579e+00      
O    2.42344174e+00      5.25266428e-01      2.53657183e-01      
H    3.37751337e+00      4.58652618e-01      4.52761353e-01      
11
1308.540921
N    -1.47552824e-01     -1.94269952e+00     6.65135690e-01      
H    6.92639830e-01      -2.45034298e+00     1.01441491e+00      
H    -5.67068915e-01     -2.47248067e+00     -9.92047988e-02     
H    -8.32207050e-01     -1.88176680e+00     1.41844254e+00      
C    3.54981298e-01      -5.87532350e-01     2.82073890e-01      
H    1.36717429e-01      -4.43853429e-01     -7.73371530e-01     
H    -1.03033068e-01     2.18502343e-01      8.54008026e-01      
C    1.84864247e+00      -6.20298365e-01     5.63668591e-01      
O    2.37572858e+00      -1.61730612e+00     1.01575321e+00      
O    2.42345880e+00      5.25232843e-01      2.53563851e-01      
H    3.37746930e+00      4.58739380e-01      4.53002462e-01      
11
1308.540921
N    -1.47187525e-01     -1.94341881e+00     6.63136779e-01      
H    6.92320869e-01      -2.44971493e+00     1.01616025e+00      
H    -5.69677891e-01     -2.47878368e+00     -9.60645890e-02     
H    -8.30022036e-01     -1.87462898e+00     1.41762225e+00      
C    3.54678761e-01      -5.86936637e-01     2.83729365e-01      
H    1.26834823e-01      -4.56106183e-01     -7.71872288e-01     
H    -9.28035339e-02     2.30071979e-01      8.50610407e-01      
C    1.84850554e+00      -6.20028725e-01     5.64417915e-01      
O    2.37574916e+00      -1.61734664e+00     1.01564063e+00      
O    2.42347586e+00      5.25199258e-01      2.53470520e-01      
H    3.37742524e+00      4.58826142e-01      4.53243572e-01      
11
1308.540921
N    -1.46822226e-01     -1.94413811e+00     6.61137869e-01      
H    6.92001909e-01      -2.44908687e+00     1.01790560e+00      
H    -5.72286867e-01     -2.48508670e+00     -9.29243793e-02     
H    -8.27837023e-01     -1.86749115e+00     1.41680195e+00      
C    3.54376225e-01      -5.86340925e-01     2.85384841e-01      
H    1.16952217e-01      -4.68358937e-01     -7.70373046e-01     
H    -8.25740002e-02     2.41641614e-01      8.47212788e-01      
C    1.84836860e+00      -6.19759086e-01     5.65167240e-01      
O    2.37576973e+00      -1.61738715e+00     1.01552805e+00      
O    2.42349291e+00      5.25165674e-01      2.53377188e-01      
H    3.37738118e+00      4.58912905e-01      4.53484681e-01      
11
1308.540921
N    -1.46456927e-01     -1.94485740e+00     6.59138959e-01      
H    6.91682948e-01      -2.44845882e+00     1.01965094e+00      
H    -5.74895842e-01     -2.49138972e+00     -8.97841695e-02     
H    -8.25652009e-01     -1.86035333e+00     1.41598165e+00      
C    3.54073688e-01      -5.85745213e-01     2.87040316e-01      
H    1.07069611e-01      -4.80611691e-01     -7.68873805e-01     
H    -7.23444664e-02     2.53211250e-01      8.43815169e-01      
C    1.84823166e+00      -6.19489446e-01     5.65916565e-01      
O    2.37579030e+00      -1.61742766e+00     1.01541547e+00      
O    2.42350997e+00      5.25132089e-01      2.53283856e-01      
H    3.37733712e+00      4.58999667e-01      4.53725791e-01      
11
1308.540921
N    -1.45726328e-01     -1.94629599e+00     6.55141139e-01      
H    6.91045027e-01      -2.44720272e+00     1.02314163e+00      
H    -5.80113794e-01     -2.50399576e+00     -8.35037500e-02     
H    -8.21281983e-01     -1.84607768e+00     1.41434106e+00      
C    3.53468614e-01      -5.84553788e-01     2.90351267e-01      
H    8.73043993e-02      -5.05117200e-01     -7.65875321e-01     
H    -5.18853988e-02     2.76350522e-01      8.37019931e-01      
C    1.84795778e+00      -6.18950166e-01     5.67415214e-01      
O    2.37583145e+00      -1.61750868e+00     1.01519031e+00      
O    2.42354408e+00      5.25064919e-01      2.53097192e-01      
H    3.37724899e+00      4.59173191e-01      4.54208010e-01      
