11
1656.985554
N    -1.39150786e-01     -1.93656399e+00     6.71436829e-01      
H    7.26729592e-01      -2.41901135e+00     1.00328141e+00      
H    -6.74542986e-01     -2.46553424e+00     -3.58566519e-02     
H    -9.25921866e-01     -1.97055461e+00     1.33968402e+00      
C    3.61396295e-01      -5.89713808e-01     2.78255827e-01      
H    1.59733952e-01      -4.08471564e-01     -7.73423711e-01     
H    -1.38730493e-01     1.79222299e-01      8.59768301e-01      
C    1.84535011e+00      -6.22394839e-01     5.61207183e-01      
O    2.37637920e+00      -1.61717944e+00     1.01621928e+00      
O    2.42434919e+00      5.26194128e-01      2.53706259e-01      
H    3.37887087e+00      4.61567947e-01      4.51399608e-01      
11
1656.985554
N    -1.41525270e-01     -1.93755840e+00     6.71360727e-01      
H    7.18446372e-01      -2.42731529e+00     1.00475577e+00      
H    -6.45717736e-01     -2.46254358e+00     -5.40488459e-02     
H    -9.04131922e-01     -1.95371102e+00     1.35998888e+00      
C    3.60019448e-01      -5.89615228e-01     2.77968736e-01      
H    1.61391776e-01      -4.08127465e-01     -7.74535097e-01     
H    -1.37478287e-01     1.80365083e-01      8.60876446e-01      
C    1.84627591e+00      -6.22072950e-01     5.61260542e-01      
O    2.37620112e+00      -1.61718073e+00     1.01618720e+00      
O    2.42411380e+00      5.25978995e-01      2.53740656e-01      
H    3.37855353e+00      4.60795733e-01      4.51619490e-01      
11
1656.985554
N    -1.42712512e-01     -1.93805560e+00     6.71322676e-01      
H    7.14304761e-01      -2.43146727e+00     1.00549296e+00      
H    -6.31305111e-01     -2.46104825e+00     -6.31449429e-02     
H    -8.93236950e-01     -1.94528923e+00     1.37014130e+00      
C    3.59331025e-01      -5.89565938e-01     2.77825190e-01      
H    1.62220688e-01      -4.07955415e-01     -7.75090790e-01     
H    -1.36852184e-01     1.80936475e-01      8.61430519e-01      
C    1.84673880e+00      -6.21912006e-01     5.61287221e-01      
O    2.37611207e+00      -1.61718137e+00     1.01617115e+00      
O    2.42399610e+00      5.25871429e-01      2.53757855e-01      
H    3.37839486e+00      4.60409627e-01      4.51729431e-01      
11
1656.985554
N    -1.43899754e-01     -1.93855281e+00     6.71284624e-01      
H    7.10163151e-01      -2.43561924e+00     1.00623014e+00      
H    -6.16892487e-01     -2.45955292e+00     -7.22410399e-02     
H    -8.82341978e-01     -1.93686744e+00     1.38029373e+00      
C    3.58642602e-01      -5.89516648e-01     2.77681645e-01      
H    1.63049600e-01      -4.07783365e-01     -7.75646483e-01     
H    -1.36226081e-01     1.81507867e-01      8.61984592e-01      
C    1.84720170e+00      -6.21751061e-01     5.61313900e-01      
O    2.37602303e+00      -1.61718202e+00     1.01615511e+00      
O    2.42387841e+00      5.25763863e-01      2.53775053e-01      
H    3.37823618e+00      4.60023520e-01      4.51839371e-01      
11
1656.985554
N    -1.45086996e-01     -1.93905001e+00     6.71246573e-01      
H    7.06021541e-01      -2.43977121e+00     1.00696732e+00      
H    -6.02479862e-01     -2.45805760e+00     -8.13371370e-02     
H    -8.71447006e-01     -1.92844565e+00     1.39044615e+00      
C    3.57954179e-01      -5.89467357e-01     2.77538099e-01      
H    1.63878511e-01      -4.07611315e-01     -7.76202176e-01     
H    -1.35599978e-01     1.82079259e-01      8.62538665e-01      
C    1.84766460e+00      -6.21590117e-01     5.61340579e-01      
O    2.37593399e+00      -1.61718266e+00     1.01613907e+00      
O    2.42376071e+00      5.25656297e-01      2.53792252e-01      
H    3.37807751e+00      4.59637413e-01      4.51949312e-01      
11
1656.985554
N    -1.46274238e-01     -1.93954722e+00     6.71208522e-01      
H    7.01879931e-01      -2.44392318e+00     1.00770450e+00      
H    -5.88067237e-01     -2.45656227e+00     -9.04332340e-02     
H    -8.60552034e-01     -1.92002386e+00     1.40059858e+00      
C    3.57265755e-01      -5.89418067e-01     2.77394554e-01      
H    1.64707423e-01      -4.07439266e-01     -7.76757869e-01     
H    -1.34973875e-01     1.82650651e-01      8.63092737e-01      
C    1.84812750e+00      -6.21429173e-01     5.61367259e-01      
O    2.37584495e+00      -1.61718330e+00     1.01612303e+00      
O    2.42364302e+00      5.25548730e-01      2.53809450e-01      
H    3.37791884e+00      4.59251306e-01      4.52059253e-01      
11
1656.985554
N    -1.46867859e-01     -1.93979582e+00     6.71189497e-01      
H    6.99809126e-01      -2.44599917e+00     1.00807310e+00      
H    -5.80860924e-01     -2.45581460e+00     -9.49812825e-02     
H    -8.55104548e-01     -1.91581297e+00     1.40567479e+00      
C    3.56921544e-01      -5.89393422e-01     2.77322781e-01      
H    1.65121879e-01      -4.07353241e-01     -7.77035716e-01     
H    -1.34660823e-01     1.82936347e-01      8.63369774e-01      
C    1.84835894e+00      -6.21348701e-01     5.61380598e-01      
O    2.37580042e+00      -1.61718363e+00     1.01611501e+00      
O    2.42358417e+00      5.25494947e-01      2.53818049e-01      
H    3.37783950e+00      4.59058253e-01      4.52114223e-01      
11
1656.985554
N    -1.47461480e-01     -1.94004442e+00     6.71170471e-01      
H    6.97738321e-01      -2.44807516e+00     1.00844169e+00      
H    -5.73654612e-01     -2.45506694e+00     -9.95293310e-02     
H    -8.49657062e-01     -1.91160207e+00     1.41075100e+00      
C    3.56577332e-01      -5.89368777e-01     2.77251008e-01      
H    1.65536335e-01      -4.07267216e-01     -7.77313562e-01     
H    -1.34347772e-01     1.83222043e-01      8.63646810e-01      
C    1.84859039e+00      -6.21268228e-01     5.61393938e-01      
O    2.37575590e+00      -1.61718395e+00     1.01610699e+00      
O    2.42352532e+00      5.25441164e-01      2.53826649e-01      
H    3.37776016e+00      4.58865200e-01      4.52169193e-01      
11
1656.985554
N    -1.49835964e-01     -1.94103884e+00     6.71094369e-01      
H    6.89455101e-01      -2.45637910e+00     1.00991605e+00      
H    -5.44829362e-01     -2.45207628e+00     -1.17721525e-01     
H    -8.27867118e-01     -1.89475849e+00     1.43105586e+00      
C    3.55200486e-01      -5.89270197e-01     2.76963918e-01      
H    1.67194159e-01      -4.06923116e-01     -7.78424948e-01     
H    -1.33095566e-01     1.84364827e-01      8.64754956e-01      
C    1.84951619e+00      -6.20946340e-01     5.61447296e-01      
O    2.37557782e+00      -1.61718523e+00     1.01607491e+00      
O    2.42328994e+00      5.25226032e-01      2.53861045e-01      
H    3.37744282e+00      4.58092986e-01      4.52389075e-01      
11
1656.985554
N    -1.50429585e-01     -1.94128744e+00     6.71075343e-01      
H    6.87384296e-01      -2.45845509e+00     1.01028464e+00      
H    -5.37623050e-01     -2.45132862e+00     -1.22269574e-01     
H    -8.22419632e-01     -1.89054759e+00     1.43613207e+00      
C    3.54856274e-01      -5.89245552e-01     2.76892145e-01      
H    1.67608615e-01      -4.06837091e-01     -7.78702794e-01     
H    -1.32782515e-01     1.84650523e-01      8.65031992e-01      
C    1.84974764e+00      -6.20865867e-01     5.61460636e-01      
O    2.37553330e+00      -1.61718555e+00     1.01606689e+00      
O    2.42323109e+00      5.25172249e-01      2.53869645e-01      
H    3.37736348e+00      4.57899933e-01      4.52444045e-01      
11
1656.985554
N    -1.51023206e-01     -1.94153604e+00     6.71056318e-01      
H    6.85313491e-01      -2.46053108e+00     1.01065324e+00      
H    -5.30416737e-01     -2.45058095e+00     -1.26817622e-01     
H    -8.16972146e-01     -1.88633670e+00     1.44120828e+00      
C    3.54512063e-01      -5.89220907e-01     2.76820372e-01      
H    1.68023071e-01      -4.06751066e-01     -7.78980641e-01     
H    -1.32469463e-01     1.84936219e-01      8.65309029e-01      
C    1.84997908e+00      -6.20785395e-01     5.61473975e-01      
O    2.37548877e+00      -1.61718588e+00     1.01605887e+00      
O    2.42317224e+00      5.25118466e-01      2.53878244e-01      
H    3.37728414e+00      4.57706880e-01      4.52499015e-01      
11
1656.985554
N    -1.52210448e-01     -1.94203325e+00     6.71018267e-01      
H    6.81171881e-01      -2.46468305e+00     1.01139042e+00      
H    -5.16004112e-01     -2.44908562e+00     -1.35913719e-01     
H    -8.06077174e-01     -1.87791491e+00     1.45136071e+00      
C    3.53823639e-01      -5.89171617e-01     2.76676827e-01      
H    1.68851983e-01      -4.06579017e-01     -7.79536334e-01     
H    -1.31843360e-01     1.85507611e-01      8.65863101e-01      
C    1.85044198e+00      -6.20624451e-01     5.61500655e-01      
O    2.37539973e+00      -1.61718652e+00     1.01604283e+00      
O    2.42305455e+00      5.25010899e-01      2.53895442e-01      
H    3.37712547e+00      4.57320773e-01      4.52608956e-01      
11
1656.985554
N    -1.53397690e-01     -1.94253045e+00     6.70980216e-01      
H    6.77030271e-01      -2.46883502e+00     1.01212760e+00      
H    -5.01591487e-01     -2.44759030e+00     -1.45009816e-01     
H    -7.95182202e-01     -1.86949312e+00     1.46151313e+00      
C    3.53135216e-01      -5.89122326e-01     2.76533281e-01      
H    1.69680894e-01      -4.06406967e-01     -7.80092027e-01     
H    -1.31217257e-01     1.86079003e-01      8.66417174e-01      
C    1.85090488e+00      -6.20463507e-01     5.61527334e-01      
O    2.37531069e+00      -1.61718716e+00     1.01602679e+00      
O    2.42293685e+00      5.24903333e-01      2.53912641e-01      
H    3.37696680e+00      4.56934666e-01      4.52718897e-01      
11
1656.985554
N    -1.54584932e-01     -1.94302766e+00     6.70942164e-01      
H    6.72888661e-01      -2.47298699e+00     1.01286478e+00      
H    -4.87178863e-01     -2.44609497e+00     -1.54105913e-01     
H    -7.84287230e-01     -1.86107133e+00     1.47166556e+00      
C    3.52446793e-01      -5.89073036e-01     2.76389736e-01      
H    1.70509806e-01      -4.06234917e-01     -7.80647720e-01     
H    -1.30591154e-01     1.86650395e-01      8.66971247e-01      
C    1.85136778e+00      -6.20302562e-01     5.61554013e-01      
O    2.37522165e+00      -1.61718781e+00     1.01601075e+00      
O    2.42281916e+00      5.24795767e-01      2.53929839e-01      
H    3.37680812e+00      4.56548559e-01      4.52828837e-01      
11
1656.985554
N    -1.55772174e-01     -1.94352486e+00     6.70904113e-01      
H    6.68747050e-01      -2.47713897e+00     1.01360197e+00      
H    -4.72766238e-01     -2.44459964e+00     -1.63202010e-01     
H    -7.73392258e-01     -1.85264954e+00     1.48181798e+00      
C    3.51758370e-01      -5.89023746e-01     2.76246190e-01      
H    1.71338718e-01      -4.06062867e-01     -7.81203413e-01     
H    -1.29965051e-01     1.87221787e-01      8.67525320e-01      
C    1.85183067e+00      -6.20141618e-01     5.61580692e-01      
O    2.37513260e+00      -1.61718845e+00     1.01599470e+00      
O    2.42270146e+00      5.24688201e-01      2.53947038e-01      
H    3.37664945e+00      4.56162453e-01      4.52938778e-01      
11
1656.985554
N    -1.58146658e-01     -1.94451927e+00     6.70828011e-01      
H    6.60463830e-01      -2.48544291e+00     1.01507633e+00      
H    -4.43940988e-01     -2.44160898e+00     -1.81394204e-01     
H    -7.51602314e-01     -1.83580595e+00     1.50212284e+00      
C    3.50381523e-01      -5.88925166e-01     2.75959099e-01      
H    1.72996542e-01      -4.05718768e-01     -7.82314799e-01     
H    -1.28712845e-01     1.88364571e-01      8.68633465e-01      
C    1.85275647e+00      -6.19819729e-01     5.61634051e-01      
O    2.37495452e+00      -1.61718974e+00     1.01596262e+00      
O    2.42246607e+00      5.24473068e-01      2.53981435e-01      
H    3.37633211e+00      4.55390239e-01      4.53158660e-01      
