11
1440.337857
N    -1.49809982e-01     -1.92626147e+00     6.65781574e-01      
H    6.41256775e-01      -2.50214601e+00     1.01757678e+00      
H    -5.22774333e-01     -2.51984255e+00     -8.20159486e-02     
H    -8.03520889e-01     -1.96703626e+00     1.45422404e+00      
C    3.80121442e-01      -5.83098710e-01     2.79297430e-01      
H    1.11155000e-01      -4.21528960e-01     -7.65074456e-01     
H    -1.83371731e-01     1.58411316e-01      8.46570458e-01      
C    1.80191436e+00      -6.48525527e-01     5.62672299e-01      
O    2.38110967e+00      -1.61633082e+00     1.01677840e+00      
O    2.44007572e+00      5.35667720e-01      2.53171258e-01      
H    3.40105427e+00      5.54761894e-01      4.21918349e-01      
11
1440.337857
N    -1.49519667e-01     -1.92983151e+00     6.67119285e-01      
H    6.54341759e-01      -2.48966629e+00     1.01547730e+00      
H    -5.31891246e-01     -2.50327481e+00     -8.86683184e-02     
H    -8.12331189e-01     -1.95107227e+00     1.44589388e+00      
C    3.74063309e-01      -5.84653904e-01     2.78749938e-01      
H    1.24957562e-01      -4.17920512e-01     -7.68273156e-01     
H    -1.70959215e-01     1.64756845e-01      8.50978064e-01      
C    1.81369909e+00      -6.41670966e-01     5.62359379e-01      
O    2.37974897e+00      -1.61654427e+00     1.01660654e+00      
O    2.43590870e+00      5.33084189e-01      2.53339406e-01      
H    3.39519107e+00      5.30691194e-01      4.29508545e-01      
11
1440.337857
N    -1.49374509e-01     -1.93161653e+00     6.67788141e-01      
H    6.60884251e-01      -2.48342643e+00     1.01442757e+00      
H    -5.36449703e-01     -2.49499095e+00     -9.19945033e-02     
H    -8.16736339e-01     -1.94309027e+00     1.44172881e+00      
C    3.71034242e-01      -5.85431501e-01     2.78476192e-01      
H    1.31858843e-01      -4.16116288e-01     -7.69872505e-01     
H    -1.64752958e-01     1.67929610e-01      8.53181867e-01      
C    1.81959146e+00      -6.38243686e-01     5.62202918e-01      
O    2.37906862e+00      -1.61665099e+00     1.01652060e+00      
O    2.43382519e+00      5.31792424e-01      2.53423479e-01      
H    3.39225948e+00      5.18655844e-01      4.33303643e-01      
11
1440.337857
N    -1.49229352e-01     -1.93340155e+00     6.68456997e-01      
H    6.67426743e-01      -2.47718657e+00     1.01337783e+00      
H    -5.41008160e-01     -2.48670708e+00     -9.53206883e-02     
H    -8.21141490e-01     -1.93510827e+00     1.43756373e+00      
C    3.68005175e-01      -5.86209098e-01     2.78202447e-01      
H    1.38760124e-01      -4.14312063e-01     -7.71471855e-01     
H    -1.58546700e-01     1.71102375e-01      8.55385670e-01      
C    1.82548382e+00      -6.34816405e-01     5.62046458e-01      
O    2.37838827e+00      -1.61675771e+00     1.01643467e+00      
O    2.43174168e+00      5.30500659e-01      2.53507553e-01      
H    3.38932788e+00      5.06620494e-01      4.37098741e-01      
11
1440.337857
N    -1.49084194e-01     -1.93518657e+00     6.69125853e-01      
H    6.73969235e-01      -2.47094671e+00     1.01232809e+00      
H    -5.45566617e-01     -2.47842321e+00     -9.86468732e-02     
H    -8.25546640e-01     -1.92712627e+00     1.43339866e+00      
C    3.64976109e-01      -5.86986696e-01     2.77928701e-01      
H    1.45661404e-01      -4.12507839e-01     -7.73071205e-01     
H    -1.52340442e-01     1.74275140e-01      8.57589474e-01      
C    1.83137619e+00      -6.31389125e-01     5.61889998e-01      
O    2.37770791e+00      -1.61686443e+00     1.01634874e+00      
O    2.42965817e+00      5.29208894e-01      2.53591626e-01      
H    3.38639628e+00      4.94585143e-01      4.40893840e-01      
11
1440.337857
N    -1.48939037e-01     -1.93697159e+00     6.69794708e-01      
H    6.80511727e-01      -2.46470685e+00     1.01127835e+00      
H    -5.50125073e-01     -2.47013934e+00     -1.01973058e-01     
H    -8.29951790e-01     -1.91914428e+00     1.42923358e+00      
C    3.61947042e-01      -5.87764293e-01     2.77654955e-01      
H    1.52562685e-01      -4.10703615e-01     -7.74670555e-01     
H    -1.46134184e-01     1.77447905e-01      8.59793277e-01      
C    1.83726856e+00      -6.27961845e-01     5.61733538e-01      
O    2.37702756e+00      -1.61697115e+00     1.01626281e+00      
O    2.42757465e+00      5.27917128e-01      2.53675700e-01      
H    3.38346468e+00      4.82549793e-01      4.44688938e-01      
11
1440.337857
N    -1.48866458e-01     -1.93786410e+00     6.70129136e-01      
H    6.83782973e-01      -2.46158692e+00     1.01075348e+00      
H    -5.52404302e-01     -2.46599741e+00     -1.03636151e-01     
H    -8.32154365e-01     -1.91515328e+00     1.42715104e+00      
C    3.60432509e-01      -5.88153091e-01     2.77518082e-01      
H    1.56013326e-01      -4.09801502e-01     -7.75470230e-01     
H    -1.43031056e-01     1.79034288e-01      8.60895178e-01      
C    1.84021474e+00      -6.26248205e-01     5.61655307e-01      
O    2.37668739e+00      -1.61702451e+00     1.01621985e+00      
O    2.42653290e+00      5.27271246e-01      2.53717737e-01      
H    3.38199889e+00      4.76532118e-01      4.46586487e-01      
11
1440.337857
N    -1.48793879e-01     -1.93875661e+00     6.70463564e-01      
H    6.87054219e-01      -2.45846699e+00     1.01022861e+00      
H    -5.54683530e-01     -2.46185548e+00     -1.05299243e-01     
H    -8.34356940e-01     -1.91116228e+00     1.42506851e+00      
C    3.58917976e-01      -5.88541890e-01     2.77381209e-01      
H    1.59463966e-01      -4.08899390e-01     -7.76269905e-01     
H    -1.39927927e-01     1.80620670e-01      8.61997080e-01      
C    1.84316092e+00      -6.24534564e-01     5.61577077e-01      
O    2.37634721e+00      -1.61707787e+00     1.01617688e+00      
O    2.42549114e+00      5.26625363e-01      2.53759773e-01      
H    3.38053309e+00      4.70514443e-01      4.48484036e-01      
11
1440.337857
N    -1.48503565e-01     -1.94232665e+00     6.71801276e-01      
H    7.00139203e-01      -2.44598727e+00     1.00812913e+00      
H    -5.63800444e-01     -2.44528774e+00     -1.11951613e-01     
H    -8.43167240e-01     -1.89519828e+00     1.41673835e+00      
C    3.52859842e-01      -5.90097084e-01     2.76833717e-01      
H    1.73266528e-01      -4.05290942e-01     -7.79468605e-01     
H    -1.27515411e-01     1.86966200e-01      8.66404686e-01      
C    1.85494566e+00      -6.17680004e-01     5.61264157e-01      
O    2.37498651e+00      -1.61729131e+00     1.01600502e+00      
O    2.42132412e+00      5.24041833e-01      2.53927921e-01      
H    3.37466989e+00      4.46443743e-01      4.56074232e-01      
11
1440.337857
N    -1.48430986e-01     -1.94321916e+00     6.72135704e-01      
H    7.03410449e-01      -2.44286734e+00     1.00760426e+00      
H    -5.66079672e-01     -2.44114581e+00     -1.13614705e-01     
H    -8.45369815e-01     -1.89120728e+00     1.41465582e+00      
C    3.51345309e-01      -5.90485883e-01     2.76696844e-01      
H    1.76717168e-01      -4.04388830e-01     -7.80268280e-01     
H    -1.24412282e-01     1.88552582e-01      8.67506588e-01      
C    1.85789184e+00      -6.15966363e-01     5.61185927e-01      
O    2.37464633e+00      -1.61734467e+00     1.01596205e+00      
O    2.42028236e+00      5.23395950e-01      2.53969957e-01      
H    3.37320409e+00      4.40426068e-01      4.57971781e-01      
11
1440.337857
N    -1.48358407e-01     -1.94411167e+00     6.72470132e-01      
H    7.06681695e-01      -2.43974741e+00     1.00707939e+00      
H    -5.68358901e-01     -2.43700388e+00     -1.15277798e-01     
H    -8.47572390e-01     -1.88721628e+00     1.41257328e+00      
C    3.49830776e-01      -5.90874681e-01     2.76559971e-01      
H    1.80167809e-01      -4.03486717e-01     -7.81067955e-01     
H    -1.21309154e-01     1.90138965e-01      8.68608489e-01      
C    1.86083802e+00      -6.14252723e-01     5.61107696e-01      
O    2.37430616e+00      -1.61739803e+00     1.01591909e+00      
O    2.41924061e+00      5.22750068e-01      2.54011994e-01      
H    3.37173830e+00      4.34408393e-01      4.59869330e-01      
11
1440.337857
N    -1.48213250e-01     -1.94589669e+00     6.73138987e-01      
H    7.13224187e-01      -2.43350755e+00     1.00602965e+00      
H    -5.72917357e-01     -2.42872001e+00     -1.18603983e-01     
H    -8.51977540e-01     -1.87923429e+00     1.40840820e+00      
C    3.46801709e-01      -5.91652278e-01     2.76286225e-01      
H    1.87069090e-01      -4.01682493e-01     -7.82667305e-01     
H    -1.15102896e-01     1.93311730e-01      8.70812292e-01      
C    1.86673039e+00      -6.10825443e-01     5.60951236e-01      
O    2.37362581e+00      -1.61750475e+00     1.01583316e+00      
O    2.41715709e+00      5.21458302e-01      2.54096068e-01      
H    3.36880670e+00      4.22373043e-01      4.63664428e-01      
11
1440.337857
N    -1.48068092e-01     -1.94768171e+00     6.73807843e-01      
H    7.19766679e-01      -2.42726769e+00     1.00497991e+00      
H    -5.77475814e-01     -2.42043614e+00     -1.21930168e-01     
H    -8.56382690e-01     -1.87125229e+00     1.40424313e+00      
C    3.43772643e-01      -5.92429876e-01     2.76012479e-01      
H    1.93970370e-01      -3.99878269e-01     -7.84266655e-01     
H    -1.08896638e-01     1.96484495e-01      8.73016096e-01      
C    1.87262276e+00      -6.07398163e-01     5.60794776e-01      
O    2.37294545e+00      -1.61761147e+00     1.01574723e+00      
O    2.41507358e+00      5.20166537e-01      2.54180141e-01      
H    3.36587510e+00      4.10337692e-01      4.67459527e-01      
11
1440.337857
N    -1.47922935e-01     -1.94946673e+00     6.74476699e-01      
H    7.26309171e-01      -2.42102783e+00     1.00393017e+00      
H    -5.82034271e-01     -2.41215227e+00     -1.25256353e-01     
H    -8.60787841e-01     -1.86327029e+00     1.40007805e+00      
C    3.40743576e-01      -5.93207473e-01     2.75738734e-01      
H    2.00871651e-01      -3.98074044e-01     -7.85866005e-01     
H    -1.02690380e-01     1.99657260e-01      8.75219899e-01      
C    1.87851512e+00      -6.03970882e-01     5.60638316e-01      
O    2.37226510e+00      -1.61771819e+00     1.01566130e+00      
O    2.41299007e+00      5.18874772e-01      2.54264215e-01      
H    3.36294350e+00      3.98302342e-01      4.71254625e-01      
11
1440.337857
N    -1.47777777e-01     -1.95125175e+00     6.75145555e-01      
H    7.32851663e-01      -2.41478797e+00     1.00288044e+00      
H    -5.86592728e-01     -2.40386841e+00     -1.28582538e-01     
H    -8.65192991e-01     -1.85528829e+00     1.39591298e+00      
C    3.37714509e-01      -5.93985070e-01     2.75464988e-01      
H    2.07772932e-01      -3.96269820e-01     -7.87465354e-01     
H    -9.64841228e-02     2.02830025e-01      8.77423702e-01      
C    1.88440749e+00      -6.00543602e-01     5.60481855e-01      
O    2.37158475e+00      -1.61782491e+00     1.01557536e+00      
O    2.41090656e+00      5.17583007e-01      2.54348288e-01      
H    3.36001191e+00      3.86266992e-01      4.75049723e-01      
11
1440.337857
N    -1.47487462e-01     -1.95482179e+00     6.76483266e-01      
H    7.45936647e-01      -2.40230825e+00     1.00078096e+00      
H    -5.95709641e-01     -2.38730067e+00     -1.35234907e-01     
H    -8.74003291e-01     -1.83932430e+00     1.38758282e+00      
C    3.31656376e-01      -5.95540264e-01     2.74917496e-01      
H    2.21575494e-01      -3.92661372e-01     -7.90664054e-01     
H    -8.40716073e-02     2.09175554e-01      8.81831308e-01      
C    1.89619222e+00      -5.93689041e-01     5.60168935e-01      
O    2.37022405e+00      -1.61803836e+00     1.01540350e+00      
O    2.40673954e+00      5.14999476e-01      2.54516436e-01      
H    3.35414871e+00      3.62196292e-01      4.82639919e-01      
