11
1676.693889
N    -1.46772875e-01     -1.94423528e+00     6.60867812e-01      
H    6.67319813e-01      -2.40048640e+00     1.15296554e+00      
H    -6.15180443e-01     -2.38812825e+00     -1.30503406e-01     
H    -7.86561966e-01     -1.96126258e+00     1.46323764e+00      
C    3.56204709e-01      -5.89941316e-01     2.75379410e-01      
H    1.61776711e-01      -4.06450579e-01     -7.79343132e-01     
H    -1.29006350e-01     1.82899209e-01      8.64981011e-01      
C    1.84880678e+00      -6.20621889e-01     5.62769521e-01      
O    2.37583397e+00      -1.61751363e+00     1.01517654e+00      
O    2.42343474e+00      5.25280222e-01      2.53695517e-01      
H    3.37751892e+00      4.58641677e-01      4.52730954e-01      
11
1676.693889
N    -1.47241837e-01     -1.94331187e+00     6.63433964e-01      
H    6.73889038e-01      -2.41342159e+00     1.11701887e+00      
H    -6.01195829e-01     -2.40448909e+00     -1.25033912e-01     
H    -7.99611997e-01     -1.94674201e+00     1.45265409e+00      
C    3.56125759e-01      -5.89785859e-01     2.75811423e-01      
H    1.62923845e-01      -4.06611726e-01     -7.78974663e-01     
H    -1.30185179e-01     1.83122765e-01      8.64785979e-01      
C    1.84886841e+00      -6.20743238e-01     5.62432295e-01      
O    2.37579219e+00      -1.61743137e+00     1.01540514e+00      
O    2.42342796e+00      5.25293566e-01      2.53732599e-01      
H    3.37753956e+00      4.58601031e-01      4.52617999e-01      
11
1676.693889
N    -1.47476317e-01     -1.94285016e+00     6.64717040e-01      
H    6.77173650e-01      -2.41988918e+00     1.09904554e+00      
H    -5.94203522e-01     -2.41266951e+00     -1.22299164e-01     
H    -8.06137013e-01     -1.93948172e+00     1.44736231e+00      
C    3.56086284e-01      -5.89708130e-01     2.76027430e-01      
H    1.63497412e-01      -4.06692299e-01     -7.78790428e-01     
H    -1.30774594e-01     1.83234543e-01      8.64688463e-01      
C    1.84889922e+00      -6.20803912e-01     5.62263682e-01      
O    2.37577130e+00      -1.61739024e+00     1.01551944e+00      
O    2.42342457e+00      5.25300238e-01      2.53751141e-01      
H    3.37754988e+00      4.58580708e-01      4.52561522e-01      
11
1676.693889
N    -1.47710798e-01     -1.94238846e+00     6.66000116e-01      
H    6.80458262e-01      -2.42635677e+00     1.08107221e+00      
H    -5.87211215e-01     -2.42084993e+00     -1.19564417e-01     
H    -8.12662028e-01     -1.93222143e+00     1.44207053e+00      
C    3.56046809e-01      -5.89630402e-01     2.76243436e-01      
H    1.64070979e-01      -4.06772873e-01     -7.78606194e-01     
H    -1.31364009e-01     1.83346322e-01      8.64590947e-01      
C    1.84893003e+00      -6.20864587e-01     5.62095069e-01      
O    2.37575041e+00      -1.61734911e+00     1.01563375e+00      
O    2.42342118e+00      5.25306910e-01      2.53769682e-01      
H    3.37756021e+00      4.58560385e-01      4.52505044e-01      
11
1676.693889
N    -1.47945279e-01     -1.94192675e+00     6.67283192e-01      
H    6.83742874e-01      -2.43282436e+00     1.06309887e+00      
H    -5.80218908e-01     -2.42903035e+00     -1.16829670e-01     
H    -8.19187044e-01     -1.92496114e+00     1.43677876e+00      
C    3.56007334e-01      -5.89552673e-01     2.76459443e-01      
H    1.64644546e-01      -4.06853446e-01     -7.78421959e-01     
H    -1.31953424e-01     1.83458100e-01      8.64493431e-01      
C    1.84896085e+00      -6.20925261e-01     5.61926456e-01      
O    2.37572953e+00      -1.61730798e+00     1.01574805e+00      
O    2.42341780e+00      5.25313582e-01      2.53788223e-01      
H    3.37757053e+00      4.58540062e-01      4.52448567e-01      
11
1676.693889
N    -1.48179760e-01     -1.94146504e+00     6.68566268e-01      
H    6.87027487e-01      -2.43929195e+00     1.04512554e+00      
H    -5.73226601e-01     -2.43721077e+00     -1.14094923e-01     
H    -8.25712059e-01     -1.91770086e+00     1.43148698e+00      
C    3.55967859e-01      -5.89474944e-01     2.76675450e-01      
H    1.65218113e-01      -4.06934019e-01     -7.78237724e-01     
H    -1.32542839e-01     1.83569878e-01      8.64395915e-01      
C    1.84899166e+00      -6.20985935e-01     5.61757843e-01      
O    2.37570864e+00      -1.61726685e+00     1.01586235e+00      
O    2.42341441e+00      5.25320254e-01      2.53806764e-01      
H    3.37758085e+00      4.58519739e-01      4.52392089e-01      
11
1676.693889
N    -1.48297001e-01     -1.94123419e+00     6.69207806e-01      
H    6.88669793e-01      -2.44252574e+00     1.03613887e+00      
H    -5.69730448e-01     -2.44130098e+00     -1.12727549e-01     
H    -8.28974567e-01     -1.91407071e+00     1.42884109e+00      
C    3.55948121e-01      -5.89436080e-01     2.76783453e-01      
H    1.65504896e-01      -4.06974306e-01     -7.78145607e-01     
H    -1.32837547e-01     1.83625768e-01      8.64347157e-01      
C    1.84900707e+00      -6.21016272e-01     5.61673537e-01      
O    2.37569819e+00      -1.61724629e+00     1.01591950e+00      
O    2.42341271e+00      5.25323590e-01      2.53816035e-01      
H    3.37758601e+00      4.58509578e-01      4.52363850e-01      
11
1676.693889
N    -1.48414241e-01     -1.94100334e+00     6.69849344e-01      
H    6.90312099e-01      -2.44575954e+00     1.02715220e+00      
H    -5.66234294e-01     -2.44539119e+00     -1.11360175e-01     
H    -8.32237075e-01     -1.91044057e+00     1.42619521e+00      
C    3.55928384e-01      -5.89397216e-01     2.76891456e-01      
H    1.65791680e-01      -4.07014593e-01     -7.78053490e-01     
H    -1.33132254e-01     1.83681657e-01      8.64298399e-01      
C    1.84902248e+00      -6.21046610e-01     5.61589230e-01      
O    2.37568775e+00      -1.61722572e+00     1.01597665e+00      
O    2.42341102e+00      5.25326926e-01      2.53825306e-01      
H    3.37759117e+00      4.58499416e-01      4.52335612e-01      
11
1676.693889
N    -1.48883203e-01     -1.94007992e+00     6.72415496e-01      
H    6.96881323e-01      -2.45869472e+00     9.91205536e-01      
H    -5.52249680e-01     -2.46175203e+00     -1.05890681e-01     
H    -8.45287105e-01     -1.89591999e+00     1.41561165e+00      
C    3.55849434e-01      -5.89241758e-01     2.77323470e-01      
H    1.66938814e-01      -4.07175739e-01     -7.77685020e-01     
H    -1.34311084e-01     1.83905213e-01      8.64103367e-01      
C    1.84908410e+00      -6.21167958e-01     5.61252004e-01      
O    2.37564597e+00      -1.61714346e+00     1.01620525e+00      
O    2.42340424e+00      5.25340270e-01      2.53862388e-01      
H    3.37761181e+00      4.58458770e-01      4.52222656e-01      
11
1676.693889
N    -1.49000443e-01     -1.93984907e+00     6.73057034e-01      
H    6.98523629e-01      -2.46192852e+00     9.82218869e-01      
H    -5.48753526e-01     -2.46584224e+00     -1.04523307e-01     
H    -8.48549613e-01     -1.89228985e+00     1.41296577e+00      
C    3.55829697e-01      -5.89202894e-01     2.77431473e-01      
H    1.67225598e-01      -4.07216026e-01     -7.77592903e-01     
H    -1.34605791e-01     1.83961102e-01      8.64054609e-01      
C    1.84909951e+00      -6.21198296e-01     5.61167697e-01      
O    2.37563553e+00      -1.61712289e+00     1.01626240e+00      
O    2.42340255e+00      5.25343606e-01      2.53871659e-01      
H    3.37761697e+00      4.58448608e-01      4.52194418e-01      
11
1676.693889
N    -1.49117684e-01     -1.93961822e+00     6.73698572e-01      
H    7.00165935e-01      -2.46516231e+00     9.73232202e-01      
H    -5.45257373e-01     -2.46993245e+00     -1.03155933e-01     
H    -8.51812121e-01     -1.88865970e+00     1.41031988e+00      
C    3.55809959e-01      -5.89164030e-01     2.77539476e-01      
H    1.67512381e-01      -4.07256313e-01     -7.77500786e-01     
H    -1.34900499e-01     1.84016992e-01      8.64005851e-01      
C    1.84911492e+00      -6.21228633e-01     5.61083391e-01      
O    2.37562508e+00      -1.61710233e+00     1.01631955e+00      
O    2.42340085e+00      5.25346942e-01      2.53880930e-01      
H    3.37762213e+00      4.58438447e-01      4.52166179e-01      
11
1676.693889
N    -1.49352165e-01     -1.93915651e+00     6.74981648e-01      
H    7.03450548e-01      -2.47162990e+00     9.55258868e-01      
H    -5.38265066e-01     -2.47811287e+00     -1.00421186e-01     
H    -8.58337136e-01     -1.88139942e+00     1.40502810e+00      
C    3.55770484e-01      -5.89086301e-01     2.77755483e-01      
H    1.68085948e-01      -4.07336886e-01     -7.77316551e-01     
H    -1.35489914e-01     1.84128770e-01      8.63908335e-01      
C    1.84914573e+00      -6.21289307e-01     5.60914778e-01      
O    2.37560419e+00      -1.61706120e+00     1.01643385e+00      
O    2.42339746e+00      5.25353614e-01      2.53899471e-01      
H    3.37763245e+00      4.58418124e-01      4.52109701e-01      
11
1676.693889
N    -1.49586646e-01     -1.93869480e+00     6.76264724e-01      
H    7.06735160e-01      -2.47809749e+00     9.37285533e-01      
H    -5.31272759e-01     -2.48629329e+00     -9.76864388e-02     
H    -8.64862152e-01     -1.87413913e+00     1.39973633e+00      
C    3.55731009e-01      -5.89008572e-01     2.77971490e-01      
H    1.68659515e-01      -4.07417459e-01     -7.77132316e-01     
H    -1.36079329e-01     1.84240548e-01      8.63810819e-01      
C    1.84917655e+00      -6.21349981e-01     5.60746165e-01      
O    2.37558331e+00      -1.61702007e+00     1.01654815e+00      
O    2.42339408e+00      5.25360286e-01      2.53918012e-01      
H    3.37764277e+00      4.58397801e-01      4.52053224e-01      
11
1676.693889
N    -1.49821127e-01     -1.93823310e+00     6.77547800e-01      
H    7.10019772e-01      -2.48456508e+00     9.19312199e-01      
H    -5.24280452e-01     -2.49447371e+00     -9.49516915e-02     
H    -8.71387167e-01     -1.86687884e+00     1.39444455e+00      
C    3.55691534e-01      -5.88930844e-01     2.78187496e-01      
H    1.69233082e-01      -4.07498033e-01     -7.76948082e-01     
H    -1.36668744e-01     1.84352327e-01      8.63713303e-01      
C    1.84920736e+00      -6.21410656e-01     5.60577552e-01      
O    2.37556242e+00      -1.61697894e+00     1.01666246e+00      
O    2.42339069e+00      5.25366958e-01      2.53936553e-01      
H    3.37765310e+00      4.58377478e-01      4.51996746e-01      
11
1676.693889
N    -1.50055607e-01     -1.93777139e+00     6.78830876e-01      
H    7.13304384e-01      -2.49103267e+00     9.01338865e-01      
H    -5.17288145e-01     -2.50265413e+00     -9.22169442e-02     
H    -8.77912183e-01     -1.85961855e+00     1.38915277e+00      
C    3.55652059e-01      -5.88853115e-01     2.78403503e-01      
H    1.69806649e-01      -4.07578606e-01     -7.76763847e-01     
H    -1.37258159e-01     1.84464105e-01      8.63615787e-01      
C    1.84923817e+00      -6.21471330e-01     5.60408939e-01      
O    2.37554153e+00      -1.61693781e+00     1.01677676e+00      
O    2.42338730e+00      5.25373630e-01      2.53955095e-01      
H    3.37766342e+00      4.58357155e-01      4.51940269e-01      
11
1676.693889
N    -1.50524569e-01     -1.93684798e+00     6.81397028e-01      
H    7.19873609e-01      -2.50396786e+00     8.65392197e-01      
H    -5.03303531e-01     -2.51901497e+00     -8.67474496e-02     
H    -8.90962214e-01     -1.84509798e+00     1.37856922e+00      
C    3.55573109e-01      -5.88697658e-01     2.78835516e-01      
H    1.70953783e-01      -4.07739753e-01     -7.76395378e-01     
H    -1.38436988e-01     1.84687661e-01      8.63420755e-01      
C    1.84929980e+00      -6.21592679e-01     5.60071713e-01      
O    2.37549975e+00      -1.61685555e+00     1.01700536e+00      
O    2.42338052e+00      5.25386974e-01      2.53992177e-01      
H    3.37768406e+00      4.58316509e-01      4.51827314e-01      
