11
3206.523062
N    -1.48541563e-01     -1.94075263e+00     6.70546048e-01      
H    6.93689087e-01      -2.45240903e+00     1.00867338e+00      
H    -5.57934832e-01     -2.45330136e+00     -1.05175701e-01     
H    -8.41108989e-01     -1.90140321e+00     1.42314316e+00      
C    3.52619378e-01      -5.82881591e-01     2.94998270e-01      
H    1.39627245e-01      -3.84238041e-01     -9.14113443e-01     
H    -6.82826106e-02     8.47316856e-02      7.88673676e-01      
C    1.84903919e+00      -6.21079519e-01     5.61497774e-01      
O    2.37565852e+00      -1.61716817e+00     1.01613657e+00      
O    2.42340755e+00      5.25333747e-01      2.53844262e-01      
H    3.37759006e+00      4.58501602e-01      4.52341686e-01      
11
3206.523062
N    -1.48568353e-01     -1.94069988e+00     6.70692641e-01      
H    6.93665993e-01      -2.45236355e+00     1.00879976e+00      
H    -5.58261620e-01     -2.45336892e+00     -1.06038133e-01     
H    -8.40522265e-01     -1.90184748e+00     1.42258323e+00      
C    3.53436761e-01      -5.84491065e-01     2.90525568e-01      
H    1.46311746e-01      -3.89952322e-01     -8.80052396e-01     
H    -8.46423752e-02     1.09497123e-01      8.07555477e-01      
C    1.84904271e+00      -6.21086461e-01     5.61478485e-01      
O    2.37566061e+00      -1.61717228e+00     1.01612517e+00      
O    2.42340757e+00      5.25333710e-01      2.53844158e-01      
H    3.37759292e+00      4.58495975e-01      4.52326048e-01      
11
3206.523062
N    -1.48581748e-01     -1.94067351e+00     6.70765937e-01      
H    6.93654446e-01      -2.45234081e+00     1.00886294e+00      
H    -5.58425015e-01     -2.45340271e+00     -1.06469349e-01     
H    -8.40228902e-01     -1.90206961e+00     1.42230326e+00      
C    3.53845452e-01      -5.85295802e-01     2.88289217e-01      
H    1.49653996e-01      -3.92809463e-01     -8.63021872e-01     
H    -9.28222575e-02     1.21879842e-01      8.16996378e-01      
C    1.84904448e+00      -6.21089931e-01     5.61468840e-01      
O    2.37566165e+00      -1.61717433e+00     1.01611946e+00      
O    2.42340758e+00      5.25333691e-01      2.53844106e-01      
H    3.37759435e+00      4.58493161e-01      4.52318229e-01      
11
3206.523062
N    -1.48595142e-01     -1.94064713e+00     6.70839234e-01      
H    6.93642899e-01      -2.45231808e+00     1.00892613e+00      
H    -5.58588409e-01     -2.45343649e+00     -1.06900565e-01     
H    -8.39935540e-01     -1.90229175e+00     1.42202330e+00      
C    3.54254143e-01      -5.86100539e-01     2.86052866e-01      
H    1.52996246e-01      -3.95666604e-01     -8.45991349e-01     
H    -1.01002140e-01     1.34262560e-01      8.26437279e-01      
C    1.84904624e+00      -6.21093402e-01     5.61459196e-01      
O    2.37566269e+00      -1.61717638e+00     1.01611376e+00      
O    2.42340759e+00      5.25333673e-01      2.53844054e-01      
H    3.37759577e+00      4.58490347e-01      4.52310410e-01      
11
3206.523062
N    -1.48608537e-01     -1.94062076e+00     6.70912530e-01      
H    6.93631352e-01      -2.45229534e+00     1.00898931e+00      
H    -5.58751804e-01     -2.45347027e+00     -1.07331781e-01     
H    -8.39642177e-01     -1.90251388e+00     1.42174333e+00      
C    3.54662835e-01      -5.86905276e-01     2.83816516e-01      
H    1.56338496e-01      -3.98523744e-01     -8.28960825e-01     
H    -1.09182022e-01     1.46645279e-01      8.35878180e-01      
C    1.84904800e+00      -6.21096872e-01     5.61449551e-01      
O    2.37566373e+00      -1.61717843e+00     1.01610806e+00      
O    2.42340760e+00      5.25333654e-01      2.53844003e-01      
H    3.37759720e+00      4.58487534e-01      4.52302591e-01      
11
3206.523062
N    -1.48621932e-01     -1.94059438e+00     6.70985827e-01      
H    6.93619805e-01      -2.45227260e+00     1.00905250e+00      
H    -5.58915198e-01     -2.45350405e+00     -1.07762996e-01     
H    -8.39348815e-01     -1.90273601e+00     1.42146336e+00      
C    3.55071526e-01      -5.87710013e-01     2.81580165e-01      
H    1.59680747e-01      -4.01380885e-01     -8.11930302e-01     
H    -1.17361904e-01     1.59027998e-01      8.45319081e-01      
C    1.84904976e+00      -6.21100343e-01     5.61439906e-01      
O    2.37566478e+00      -1.61718049e+00     1.01610236e+00      
O    2.42340761e+00      5.25333635e-01      2.53843951e-01      
H    3.37759863e+00      4.58484720e-01      4.52294772e-01      
11
3206.523062
N    -1.48628630e-01     -1.94058119e+00     6.71022475e-01      
H    6.93614032e-01      -2.45226124e+00     1.00908409e+00      
H    -5.58996895e-01     -2.45352094e+00     -1.07978604e-01     
H    -8.39202134e-01     -1.90284708e+00     1.42132338e+00      
C    3.55275872e-01      -5.88112381e-01     2.80461989e-01      
H    1.61351872e-01      -4.02809455e-01     -8.03415040e-01     
H    -1.21451846e-01     1.65219357e-01      8.50039532e-01      
C    1.84905065e+00      -6.21102078e-01     5.61435084e-01      
O    2.37566530e+00      -1.61718151e+00     1.01609950e+00      
O    2.42340762e+00      5.25333626e-01      2.53843925e-01      
H    3.37759935e+00      4.58483313e-01      4.52290863e-01      
11
3206.523062
N    -1.48635327e-01     -1.94056801e+00     6.71059123e-01      
H    6.93608258e-01      -2.45224987e+00     1.00911568e+00      
H    -5.59078593e-01     -2.45353783e+00     -1.08194212e-01     
H    -8.39055452e-01     -1.90295815e+00     1.42118340e+00      
C    3.55480218e-01      -5.88514750e-01     2.79343814e-01      
H    1.63022997e-01      -4.04238025e-01     -7.94899778e-01     
H    -1.25541787e-01     1.71410716e-01      8.54759982e-01      
C    1.84905153e+00      -6.21103813e-01     5.61430262e-01      
O    2.37566582e+00      -1.61718254e+00     1.01609665e+00      
O    2.42340762e+00      5.25333617e-01      2.53843899e-01      
H    3.37760006e+00      4.58481907e-01      4.52286953e-01      
11
3206.523062
N    -1.48662117e-01     -1.94051525e+00     6.71205717e-01      
H    6.93585164e-01      -2.45220439e+00     1.00924206e+00      
H    -5.59405381e-01     -2.45360539e+00     -1.09056644e-01     
H    -8.38468728e-01     -1.90340241e+00     1.42062346e+00      
C    3.56297600e-01      -5.90124224e-01     2.74871112e-01      
H    1.69707497e-01      -4.09952307e-01     -7.60838732e-01     
H    -1.41901551e-01     1.96176154e-01      8.73641784e-01      
C    1.84905505e+00      -6.21110755e-01     5.61410972e-01      
O    2.37566790e+00      -1.61718664e+00     1.01608525e+00      
O    2.42340764e+00      5.25333579e-01      2.53843795e-01      
H    3.37760292e+00      4.58476279e-01      4.52271315e-01      
11
3206.523062
N    -1.48668814e-01     -1.94050207e+00     6.71242365e-01      
H    6.93579390e-01      -2.45219302e+00     1.00927365e+00      
H    -5.59487079e-01     -2.45362228e+00     -1.09272252e-01     
H    -8.38322046e-01     -1.90351348e+00     1.42048348e+00      
C    3.56501946e-01      -5.90526593e-01     2.73752937e-01      
H    1.71378622e-01      -4.11380877e-01     -7.52323470e-01     
H    -1.45991492e-01     2.02367513e-01      8.78362234e-01      
C    1.84905593e+00      -6.21112490e-01     5.61406150e-01      
O    2.37566842e+00      -1.61718767e+00     1.01608240e+00      
O    2.42340764e+00      5.25333570e-01      2.53843769e-01      
H    3.37760363e+00      4.58474873e-01      4.52267405e-01      
11
3206.523062
N    -1.48675512e-01     -1.94048888e+00     6.71279013e-01      
H    6.93573617e-01      -2.45218166e+00     1.00930524e+00      
H    -5.59568776e-01     -2.45363917e+00     -1.09487860e-01     
H    -8.38175365e-01     -1.90362455e+00     1.42034350e+00      
C    3.56706292e-01      -5.90928961e-01     2.72634761e-01      
H    1.73049747e-01      -4.12809447e-01     -7.43808208e-01     
H    -1.50081434e-01     2.08558872e-01      8.83082685e-01      
C    1.84905682e+00      -6.21114225e-01     5.61401328e-01      
O    2.37566894e+00      -1.61718869e+00     1.01607954e+00      
O    2.42340765e+00      5.25333561e-01      2.53843743e-01      
H    3.37760435e+00      4.58473466e-01      4.52263496e-01      
11
3206.523062
N    -1.48688907e-01     -1.94046250e+00     6.71352310e-01      
H    6.93562070e-01      -2.45215892e+00     1.00936843e+00      
H    -5.59732170e-01     -2.45367295e+00     -1.09919075e-01     
H    -8.37882003e-01     -1.90384668e+00     1.42006353e+00      
C    3.57114983e-01      -5.91733698e-01     2.70398410e-01      
H    1.76391998e-01      -4.15666588e-01     -7.26777685e-01     
H    -1.58261316e-01     2.20941591e-01      8.92523586e-01      
C    1.84905858e+00      -6.21117696e-01     5.61391683e-01      
O    2.37566999e+00      -1.61719075e+00     1.01607384e+00      
O    2.42340766e+00      5.25333542e-01      2.53843691e-01      
H    3.37760578e+00      4.58470652e-01      4.52255677e-01      
11
3206.523062
N    -1.48702302e-01     -1.94043613e+00     6.71425606e-01      
H    6.93550523e-01      -2.45213618e+00     1.00943161e+00      
H    -5.59895565e-01     -2.45370673e+00     -1.10350291e-01     
H    -8.37588640e-01     -1.90406881e+00     1.41978356e+00      
C    3.57523675e-01      -5.92538435e-01     2.68162060e-01      
H    1.79734248e-01      -4.18523728e-01     -7.09747161e-01     
H    -1.66441198e-01     2.33324310e-01      9.01964487e-01      
C    1.84906034e+00      -6.21121166e-01     5.61382038e-01      
O    2.37567103e+00      -1.61719280e+00     1.01606814e+00      
O    2.42340767e+00      5.25333523e-01      2.53843640e-01      
H    3.37760721e+00      4.58467839e-01      4.52247858e-01      
11
3206.523062
N    -1.48715696e-01     -1.94040975e+00     6.71498903e-01      
H    6.93538976e-01      -2.45211345e+00     1.00949480e+00      
H    -5.60058959e-01     -2.45374051e+00     -1.10781507e-01     
H    -8.37295278e-01     -1.90429095e+00     1.41950360e+00      
C    3.57932366e-01      -5.93343172e-01     2.65925709e-01      
H    1.83076498e-01      -4.21380869e-01     -6.92716638e-01     
H    -1.74621080e-01     2.45707028e-01      9.11405388e-01      
C    1.84906210e+00      -6.21124637e-01     5.61372394e-01      
O    2.37567207e+00      -1.61719485e+00     1.01606244e+00      
O    2.42340768e+00      5.25333505e-01      2.53843588e-01      
H    3.37760863e+00      4.58465025e-01      4.52240039e-01      
11
3206.523062
N    -1.48729091e-01     -1.94038338e+00     6.71572199e-01      
H    6.93527429e-01      -2.45209071e+00     1.00955798e+00      
H    -5.60222354e-01     -2.45377430e+00     -1.11212723e-01     
H    -8.37001915e-01     -1.90451308e+00     1.41922363e+00      
C    3.58341057e-01      -5.94147909e-01     2.63689358e-01      
H    1.86418748e-01      -4.24238010e-01     -6.75686114e-01     
H    -1.82800963e-01     2.58089747e-01      9.20846289e-01      
C    1.84906387e+00      -6.21128107e-01     5.61362749e-01      
O    2.37567311e+00      -1.61719690e+00     1.01605673e+00      
O    2.42340769e+00      5.25333486e-01      2.53843536e-01      
H    3.37761006e+00      4.58462211e-01      4.52232220e-01      
11
3206.523062
N    -1.48755881e-01     -1.94033063e+00     6.71718792e-01      
H    6.93504335e-01      -2.45204523e+00     1.00968436e+00      
H    -5.60549142e-01     -2.45384186e+00     -1.12075155e-01     
H    -8.36415191e-01     -1.90495735e+00     1.41866370e+00      
C    3.59158440e-01      -5.95757383e-01     2.59216656e-01      
H    1.93103249e-01      -4.29952291e-01     -6.41625067e-01     
H    -1.99160727e-01     2.82855184e-01      9.39728090e-01      
C    1.84906739e+00      -6.21135049e-01     5.61343460e-01      
O    2.37567520e+00      -1.61720101e+00     1.01604533e+00      
O    2.42340771e+00      5.25333449e-01      2.53843432e-01      
H    3.37761292e+00      4.58456584e-01      4.52216582e-01      
