11
3686.730506
N    -1.48131660e-01     -1.94055597e+00     6.71232075e-01      
H    6.91927223e-01      -2.45021612e+00     1.00815012e+00      
H    -5.61270902e-01     -2.45569704e+00     -1.12460880e-01     
H    -8.42120346e-01     -1.90268816e+00     1.42434211e+00      
C    3.55626387e-01      -5.89046179e-01     2.76961139e-01      
H    1.66878078e-01      -4.07903780e-01     -7.75223275e-01     
H    -1.32498109e-01     1.81585354e-01      8.62957766e-01      
C    1.84956885e+00      -6.21071805e-01     5.61502068e-01      
O    2.37566996e+00      -1.61732049e+00     1.01614042e+00      
O    2.43541643e+00      5.24914848e-01      2.56189129e-01      
H    3.18208709e+00      4.66443340e-01      4.13683159e-01      
11
3686.730506
N    -1.48260925e-01     -1.94055239e+00     6.71207161e-01      
H    6.92344595e-01      -2.45071887e+00     1.00840731e+00      
H    -5.60763673e-01     -2.45516568e+00     -1.11502017e-01     
H    -8.41280782e-01     -1.90281119e+00     1.42348244e+00      
C    3.55692017e-01      -5.89114506e-01     2.76997720e-01      
H    1.66749870e-01      -4.07701626e-01     -7.75884770e-01     
H    -1.32803999e-01     1.82137374e-01      8.63268545e-01      
C    1.84943996e+00      -6.21080675e-01     5.61481705e-01      
O    2.37566919e+00      -1.61728651e+00     1.01612805e+00      
O    2.43241423e+00      5.25019536e-01      2.55602808e-01      
H    3.23096569e+00      4.64452278e-01      4.23332153e-01      
11
3686.730506
N    -1.48325558e-01     -1.94055060e+00     6.71194704e-01      
H    6.92553281e-01      -2.45097025e+00     1.00853590e+00      
H    -5.60510059e-01     -2.45490000e+00     -1.11022586e-01     
H    -8.40861000e-01     -1.90287270e+00     1.42305261e+00      
C    3.55724833e-01      -5.89148669e-01     2.77016011e-01      
H    1.66685767e-01      -4.07600550e-01     -7.76215518e-01     
H    -1.32956944e-01     1.82413384e-01      8.63423935e-01      
C    1.84937551e+00      -6.21085110e-01     5.61471524e-01      
O    2.37566880e+00      -1.61726952e+00     1.01612187e+00      
O    2.43091313e+00      5.25071880e-01      2.55309648e-01      
H    3.25540499e+00      4.63456747e-01      4.28156650e-01      
11
3686.730506
N    -1.48390191e-01     -1.94054880e+00     6.71182247e-01      
H    6.92761967e-01      -2.45122162e+00     1.00866450e+00      
H    -5.60256444e-01     -2.45463432e+00     -1.10543154e-01     
H    -8.40441218e-01     -1.90293422e+00     1.42262277e+00      
C    3.55757648e-01      -5.89182833e-01     2.77034301e-01      
H    1.66621663e-01      -4.07499473e-01     -7.76546265e-01     
H    -1.33109889e-01     1.82689395e-01      8.63579324e-01      
C    1.84931107e+00      -6.21089545e-01     5.61461342e-01      
O    2.37566841e+00      -1.61725254e+00     1.01611568e+00      
O    2.42941203e+00      5.25124223e-01      2.55016488e-01      
H    3.27984429e+00      4.62461217e-01      4.32981147e-01      
11
3686.730506
N    -1.48454824e-01     -1.94054701e+00     6.71169790e-01      
H    6.92970653e-01      -2.45147300e+00     1.00879309e+00      
H    -5.60002830e-01     -2.45436865e+00     -1.10063723e-01     
H    -8.40021436e-01     -1.90299573e+00     1.42219294e+00      
C    3.55790463e-01      -5.89216996e-01     2.77052592e-01      
H    1.66557559e-01      -4.07398396e-01     -7.76877013e-01     
H    -1.33262834e-01     1.82965405e-01      8.63734714e-01      
C    1.84924662e+00      -6.21093979e-01     5.61451161e-01      
O    2.37566802e+00      -1.61723555e+00     1.01610950e+00      
O    2.42791093e+00      5.25176567e-01      2.54723328e-01      
H    3.30428359e+00      4.61465686e-01      4.37805643e-01      
11
3686.730506
N    -1.48519456e-01     -1.94054522e+00     6.71157334e-01      
H    6.93179339e-01      -2.45172438e+00     1.00892168e+00      
H    -5.59749216e-01     -2.45410297e+00     -1.09584291e-01     
H    -8.39601654e-01     -1.90305725e+00     1.42176310e+00      
C    3.55823278e-01      -5.89251160e-01     2.77070882e-01      
H    1.66493455e-01      -4.07297319e-01     -7.77207760e-01     
H    -1.33415779e-01     1.83241415e-01      8.63890104e-01      
C    1.84918218e+00      -6.21098414e-01     5.61440980e-01      
O    2.37566764e+00      -1.61721856e+00     1.01610332e+00      
O    2.42640983e+00      5.25228911e-01      2.54430167e-01      
H    3.32872289e+00      4.60470155e-01      4.42630140e-01      
11
3686.730506
N    -1.48551773e-01     -1.94054432e+00     6.71151105e-01      
H    6.93283682e-01      -2.45185007e+00     1.00898598e+00      
H    -5.59622409e-01     -2.45397013e+00     -1.09344575e-01     
H    -8.39391763e-01     -1.90308801e+00     1.42154818e+00      
C    3.55839686e-01      -5.89268242e-01     2.77080027e-01      
H    1.66461403e-01      -4.07246781e-01     -7.77373134e-01     
H    -1.33492251e-01     1.83379420e-01      8.63967799e-01      
C    1.84914996e+00      -6.21100632e-01     5.61435889e-01      
O    2.37566744e+00      -1.61721007e+00     1.01610023e+00      
O    2.42565928e+00      5.25255082e-01      2.54283587e-01      
H    3.34094254e+00      4.59972389e-01      4.45042389e-01      
11
3686.730506
N    -1.48584089e-01     -1.94054342e+00     6.71144877e-01      
H    6.93388025e-01      -2.45197575e+00     1.00905028e+00      
H    -5.59495601e-01     -2.45383729e+00     -1.09104860e-01     
H    -8.39181872e-01     -1.90311876e+00     1.42133327e+00      
C    3.55856094e-01      -5.89285323e-01     2.77089173e-01      
H    1.66429351e-01      -4.07196243e-01     -7.77538508e-01     
H    -1.33568724e-01     1.83517425e-01      8.64045493e-01      
C    1.84911773e+00      -6.21102849e-01     5.61430798e-01      
O    2.37566725e+00      -1.61720158e+00     1.01609713e+00      
O    2.42490873e+00      5.25281254e-01      2.54137007e-01      
H    3.35316219e+00      4.59474624e-01      4.47454637e-01      
11
3686.730506
N    -1.48713355e-01     -1.94053984e+00     6.71119963e-01      
H    6.93805397e-01      -2.45247851e+00     1.00930746e+00      
H    -5.58988373e-01     -2.45330593e+00     -1.08145996e-01     
H    -8.38342308e-01     -1.90324180e+00     1.42047359e+00      
C    3.55921724e-01      -5.89353651e-01     2.77125753e-01      
H    1.66301143e-01      -4.06994089e-01     -7.78200002e-01     
H    -1.33874614e-01     1.84069445e-01      8.64356273e-01      
C    1.84898885e+00      -6.21111719e-01     5.61410436e-01      
O    2.37566647e+00      -1.61716760e+00     1.01608477e+00      
O    2.42190653e+00      5.25385942e-01      2.53550687e-01      
H    3.40204079e+00      4.57483562e-01      4.57103631e-01      
11
3686.730506
N    -1.48745671e-01     -1.94053894e+00     6.71113735e-01      
H    6.93909740e-01      -2.45260419e+00     1.00937176e+00      
H    -5.58861565e-01     -2.45317309e+00     -1.07906281e-01     
H    -8.38132417e-01     -1.90327255e+00     1.42025868e+00      
C    3.55938132e-01      -5.89370732e-01     2.77134899e-01      
H    1.66269091e-01      -4.06943551e-01     -7.78365376e-01     
H    -1.33951087e-01     1.84207450e-01      8.64433967e-01      
C    1.84895662e+00      -6.21113936e-01     5.61405345e-01      
O    2.37566628e+00      -1.61715911e+00     1.01608167e+00      
O    2.42115598e+00      5.25412114e-01      2.53404107e-01      
H    3.41426044e+00      4.56985797e-01      4.59515879e-01      
11
3686.730506
N    -1.48777988e-01     -1.94053804e+00     6.71107506e-01      
H    6.94014083e-01      -2.45272988e+00     1.00943606e+00      
H    -5.58734758e-01     -2.45304025e+00     -1.07666565e-01     
H    -8.37922526e-01     -1.90330331e+00     1.42004376e+00      
C    3.55954540e-01      -5.89387814e-01     2.77144044e-01      
H    1.66237039e-01      -4.06893013e-01     -7.78530750e-01     
H    -1.34027559e-01     1.84345455e-01      8.64511662e-01      
C    1.84892440e+00      -6.21116154e-01     5.61400254e-01      
O    2.37566608e+00      -1.61715062e+00     1.01607858e+00      
O    2.42040543e+00      5.25438285e-01      2.53257527e-01      
H    3.42648009e+00      4.56488031e-01      4.61928128e-01      
11
3686.730506
N    -1.48842620e-01     -1.94053625e+00     6.71095050e-01      
H    6.94222769e-01      -2.45298126e+00     1.00956465e+00      
H    -5.58481144e-01     -2.45277457e+00     -1.07187133e-01     
H    -8.37502744e-01     -1.90336483e+00     1.41961392e+00      
C    3.55987355e-01      -5.89421978e-01     2.77162334e-01      
H    1.66172935e-01      -4.06791936e-01     -7.78861497e-01     
H    -1.34180504e-01     1.84621465e-01      8.64667052e-01      
C    1.84885996e+00      -6.21120589e-01     5.61390073e-01      
O    2.37566570e+00      -1.61713363e+00     1.01607240e+00      
O    2.41890433e+00      5.25490629e-01      2.52964366e-01      
H    3.45091939e+00      4.55492500e-01      4.66752625e-01      
11
3686.730506
N    -1.48907253e-01     -1.94053446e+00     6.71082593e-01      
H    6.94431455e-01      -2.45323264e+00     1.00969324e+00      
H    -5.58227530e-01     -2.45250890e+00     -1.06707702e-01     
H    -8.37082962e-01     -1.90342634e+00     1.41918409e+00      
C    3.56020170e-01      -5.89456141e-01     2.77180625e-01      
H    1.66108831e-01      -4.06690859e-01     -7.79192245e-01     
H    -1.34333449e-01     1.84897475e-01      8.64822442e-01      
C    1.84879551e+00      -6.21125023e-01     5.61379892e-01      
O    2.37566531e+00      -1.61711664e+00     1.01606622e+00      
O    2.41740323e+00      5.25542973e-01      2.52671206e-01      
H    3.47535869e+00      4.54496969e-01      4.71577121e-01      
11
3686.730506
N    -1.48971886e-01     -1.94053266e+00     6.71070136e-01      
H    6.94640141e-01      -2.45348401e+00     1.00982184e+00      
H    -5.57973915e-01     -2.45224322e+00     -1.06228270e-01     
H    -8.36663180e-01     -1.90348786e+00     1.41875425e+00      
C    3.56052985e-01      -5.89490305e-01     2.77198915e-01      
H    1.66044727e-01      -4.06589782e-01     -7.79522992e-01     
H    -1.34486394e-01     1.85173486e-01      8.64977831e-01      
C    1.84873107e+00      -6.21129458e-01     5.61369710e-01      
O    2.37566492e+00      -1.61709966e+00     1.01606003e+00      
O    2.41590213e+00      5.25595316e-01      2.52378046e-01      
H    3.49979799e+00      4.53501439e-01      4.76401618e-01      
11
3686.730506
N    -1.49036519e-01     -1.94053087e+00     6.71057679e-01      
H    6.94848827e-01      -2.45373539e+00     1.00995043e+00      
H    -5.57720301e-01     -2.45197754e+00     -1.05748839e-01     
H    -8.36243398e-01     -1.90354937e+00     1.41832442e+00      
C    3.56085801e-01      -5.89524468e-01     2.77217206e-01      
H    1.65980624e-01      -4.06488706e-01     -7.79853740e-01     
H    -1.34639339e-01     1.85449496e-01      8.65133221e-01      
C    1.84866662e+00      -6.21133893e-01     5.61359529e-01      
O    2.37566453e+00      -1.61708267e+00     1.01605385e+00      
O    2.41440103e+00      5.25647660e-01      2.52084886e-01      
H    3.52423729e+00      4.52505908e-01      4.81226115e-01      
11
3686.730506
N    -1.49165784e-01     -1.94052729e+00     6.71032765e-01      
H    6.95266199e-01      -2.45423814e+00     1.01020762e+00      
H    -5.57213072e-01     -2.45144618e+00     -1.04789976e-01     
H    -8.35403834e-01     -1.90367240e+00     1.41746475e+00      
C    3.56151431e-01      -5.89592795e-01     2.77253787e-01      
H    1.65852416e-01      -4.06286552e-01     -7.80515235e-01     
H    -1.34945229e-01     1.86001516e-01      8.65444000e-01      
C    1.84853773e+00      -6.21142763e-01     5.61339166e-01      
O    2.37566376e+00      -1.61704869e+00     1.01604148e+00      
O    2.41139883e+00      5.25752348e-01      2.51498565e-01      
H    3.57311589e+00      4.50514846e-01      4.90875109e-01      
