11
unconverged
N    -1.95635792e+00     2.53544644e-01      -4.48825821e-01     
H    -2.65450503e+00     -5.05919830e-01     -3.02952356e-01     
H    -1.95406306e+00     5.19109678e-01      -1.43334541e+00     
H    -2.23339219e+00     1.06966471e+00      9.61594194e-02      
C    -6.54902842e-01     -3.30564841e-01     -8.90827138e-04     
H    5.80203469e-02      -3.41048313e-01     -8.21702244e-01     
H    -2.41861545e-01     2.50016045e-01      8.20342075e-01      
C    -9.84555311e-01     -1.74517356e+00     4.48103135e-01      
O    -2.12247750e+00     -2.16734715e+00     3.92251717e-01      
O    9.05962093e-02      -2.37958734e+00     8.72816312e-01      
H    -1.68344923e-01     -3.27995468e+00     1.14961961e+00      
