20
-5.68606101e+01
N    9.39931695e-04      -4.40255688e-03     6.57629644e-03      
H    9.05173212e-01      -9.94778603e-02     5.06742174e-01      
H    -3.32224536e-01     -9.33811272e-01     -3.27067200e-01     
H    -7.22709836e-01     4.06858098e-01      6.33722852e-01      
C    1.92941331e-01      8.84372978e-01      -1.15557188e+00     
H    5.35744484e-01      1.85951605e+00      -8.19232941e-01     
H    9.42577591e-01      4.62717654e-01      -1.82024786e+00     
C    -1.11634538e+00     1.03698681e+00      -1.90064754e+00     
O    -2.15643464e+00     5.05463697e-01      -1.58168357e+00     
O    -9.37915384e-01     1.84210832e+00      -2.95158191e+00     
H    -1.79248941e+00     1.92312340e+00      -3.41194544e+00     
O    -1.98049232e+00     1.38946278e+00      1.30931715e+00      
H    -2.81502490e+00     1.29865229e+00      8.40756359e-01      
H    -2.20782896e+00     1.64075693e+00      2.20824612e+00      
O    2.57707210e+00      -1.94127885e-02     1.07451841e+00      
H    2.89976788e+00      5.16525569e-01      1.80256227e+00      
H    3.25098049e+00      -6.89286798e-01     9.38405803e-01      
O    -9.21953875e-01     -2.24486224e+00     -1.29522064e+00     
H    -1.82337425e+00     -2.10602429e+00     -1.59920370e+00     
H    -7.98802482e-01     -3.19691353e+00     -1.25866870e+00     
