20
-4.97857494e+01
N    2.08745444e-03      1.54014495e-02      -2.06429493e-02     
H    9.05920221e-01      -8.24979145e-02     4.83300920e-01      
H    -3.35313726e-01     -9.14138115e-01     -3.54931895e-01     
H    -7.25565338e-01     4.25729082e-01      6.05284124e-01      
C    2.03835845e-01      9.05832195e-01      -1.18113801e+00     
H    5.48588198e-01      1.87975982e+00      -8.42087238e-01     
H    9.55479875e-01      4.82761693e-01      -1.84324624e+00     
C    -1.10700333e+00     1.05132056e+00      -1.91690093e+00     
O    -2.14220467e+00     5.13191087e-01      -1.58673337e+00     
O    -9.51796973e-01     1.85284423e+00      -2.97225368e+00     
H    -1.81550795e+00     1.92066635e+00      -3.41792097e+00     
O    -1.97660159e+00     1.39093970e+00      1.31194433e+00      
H    -2.81380190e+00     1.30734523e+00      8.45915321e-01      
H    -2.20247297e+00     1.59093336e+00      2.22441344e+00      
O    2.56511332e+00      -2.44244864e-02     1.07660020e+00      
H    2.88075288e+00      5.03522930e-01      1.81388359e+00      
H    3.23221720e+00      -7.03145074e-01     9.49109244e-01      
O    -9.17237466e-01     -2.24621653e+00     -1.29462487e+00     
H    -1.81775128e+00     -2.11243444e+00     -1.60487072e+00     
H    -8.07935395e-01     -3.19698675e+00     -1.20685017e+00     
