20
85.134538
N    -2.81095839e-04     2.34694167e-02      -1.48630254e-02     
H    9.04261239e-01      -7.68769504e-02     4.87332275e-01      
H    -3.38777055e-01     -9.03800071e-01     -3.56686806e-01     
H    -7.25813177e-01     4.28013429e-01      6.16077631e-01      
C    1.98513883e-01      9.24082793e-01      -1.16805856e+00     
H    5.11528238e-01      1.90582891e+00      -8.19170789e-01     
H    9.73114077e-01      5.23358389e-01      -1.81837278e+00     
C    -1.10240848e+00     1.03555304e+00      -1.92821541e+00     
O    -2.12776074e+00     4.63597614e-01      -1.62229989e+00     
O    -9.50408054e-01     1.84812697e+00      -2.97564754e+00     
H    -1.80685450e+00     1.89102573e+00      -3.43918658e+00     
O    -1.96598847e+00     1.39639011e+00      1.34585649e+00      
H    -2.82595398e+00     1.31230379e+00      9.21274890e-01      
H    -2.14818438e+00     1.61156160e+00      2.26571466e+00      
O    2.56456708e+00      -2.26127818e-02     1.07788667e+00      
H    2.87514389e+00      4.71116141e-01      1.84183074e+00      
H    3.24170636e+00      -6.84174637e-01     9.11503080e-01      
O    -9.37527901e-01     -2.21836096e+00     -1.30461184e+00     
H    -1.82833386e+00     -2.03929688e+00     -1.62420357e+00     
H    -8.74683635e-01     -3.17460027e+00     -1.21723454e+00     
20
85.134538
N    3.11041731e-04      2.14524249e-02      -1.63080064e-02     
H    9.04675985e-01      -7.82821914e-02     4.86324436e-01      
H    -3.37911223e-01     -9.06384582e-01     -3.56248078e-01     
H    -7.25751217e-01     4.27442342e-01      6.13379254e-01      
C    1.99844373e-01      9.19520144e-01      -1.17132842e+00     
H    5.20793228e-01      1.89931164e+00      -8.24899901e-01     
H    9.68705526e-01      5.13209215e-01      -1.82459115e+00     
C    -1.10355719e+00     1.03949492e+00      -1.92538679e+00     
O    -2.13137172e+00     4.75995983e-01      -1.61340826e+00     
O    -9.50755284e-01     1.84930628e+00      -2.97479907e+00     
H    -1.80901787e+00     1.89843589e+00      -3.43387018e+00     
O    -1.96864175e+00     1.39502751e+00      1.33737845e+00      
H    -2.82291596e+00     1.31106415e+00      9.02434998e-01      
H    -2.16175653e+00     1.60640454e+00      2.25538935e+00      
O    2.56470364e+00      -2.30657079e-02     1.07756505e+00      
H    2.87654614e+00      4.79217839e-01      1.83484395e+00      
H    3.23933407e+00      -6.88917247e-01     9.20904621e-01      
O    -9.32455293e-01     -2.22532485e+00     -1.30211510e+00     
H    -1.82568822e+00     -2.05758127e+00     -1.61937036e+00     
H    -8.57996575e-01     -3.18019689e+00     -1.21463844e+00     
20
85.134538
N    6.07110516e-04      2.04439290e-02      -1.70304969e-02     
H    9.04883357e-01      -7.89848119e-02     4.85820517e-01      
H    -3.37478307e-01     -9.07676837e-01     -3.56028714e-01     
H    -7.25720238e-01     4.27156799e-01      6.12030066e-01      
C    2.00509619e-01      9.17238819e-01      -1.17296336e+00     
H    5.25425723e-01      1.89605300e+00      -8.27764457e-01     
H    9.66501251e-01      5.08134628e-01      -1.82770033e+00     
C    -1.10413155e+00     1.04146586e+00      -1.92397248e+00     
O    -2.13317722e+00     4.82195167e-01      -1.60896245e+00     
O    -9.50928899e-01     1.84989594e+00      -2.97437484e+00     
H    -1.81009955e+00     1.90214096e+00      -3.43121198e+00     
O    -1.96996839e+00     1.39434621e+00      1.33313943e+00      
H    -2.82139695e+00     1.31044433e+00      8.93015052e-01      
H    -2.16854260e+00     1.60382601e+00      2.25022670e+00      
O    2.56477192e+00      -2.32921710e-02     1.07740424e+00      
H    2.87724726e+00      4.83268687e-01      1.83135056e+00      
H    3.23814793e+00      -6.91288551e-01     9.25605392e-01      
O    -9.29918988e-01     -2.22880680e+00     -1.30086673e+00     
H    -1.82436540e+00     -2.06672347e+00     -1.61695375e+00     
H    -8.49653045e-01     -3.18299520e+00     -1.21334040e+00     
20
85.134538
N    9.03179301e-04      1.94354331e-02      -1.77529874e-02     
H    9.05090730e-01      -7.96874324e-02     4.85316598e-01      
H    -3.37045391e-01     -9.08969093e-01     -3.55809350e-01     
H    -7.25689258e-01     4.26871255e-01      6.10680877e-01      
C    2.01174864e-01      9.14957494e-01      -1.17459829e+00     
H    5.30058218e-01      1.89279436e+00      -8.30629013e-01     
H    9.64296976e-01      5.03060041e-01      -1.83080951e+00     
C    -1.10470590e+00     1.04343680e+00      -1.92255817e+00     
O    -2.13498271e+00     4.88394351e-01      -1.60451663e+00     
O    -9.51102513e-01     1.85048560e+00      -2.97395061e+00     
H    -1.81118123e+00     1.90584604e+00      -3.42855378e+00     
O    -1.97129503e+00     1.39366490e+00      1.32890041e+00      
H    -2.81987794e+00     1.30982451e+00      8.83595106e-01      
H    -2.17532868e+00     1.60124748e+00      2.24506405e+00      
O    2.56484020e+00      -2.35186341e-02     1.07724343e+00      
H    2.87794838e+00      4.87319536e-01      1.82785716e+00      
H    3.23696178e+00      -6.93659856e-01     9.30306162e-01      
O    -9.27382684e-01     -2.23228875e+00     -1.29961836e+00     
H    -1.82304257e+00     -2.07586566e+00     -1.61453715e+00     
H    -8.41309515e-01     -3.18579351e+00     -1.21204235e+00     
20
85.134538
N    1.19924809e-03      1.84269372e-02      -1.84754779e-02     
H    9.05298103e-01      -8.03900530e-02     4.84812678e-01      
H    -3.36612474e-01     -9.10261348e-01     -3.55589987e-01     
H    -7.25658278e-01     4.26585712e-01      6.09331689e-01      
C    2.01840109e-01      9.12676169e-01      -1.17623322e+00     
H    5.34690713e-01      1.88953573e+00      -8.33493570e-01     
H    9.62092701e-01      4.97985454e-01      -1.83391869e+00     
C    -1.10528026e+00     1.04540774e+00      -1.92114386e+00     
O    -2.13678820e+00     4.94593535e-01      -1.60007082e+00     
O    -9.51276128e-01     1.85107526e+00      -2.97352638e+00     
H    -1.81226291e+00     1.90955112e+00      -3.42589557e+00     
O    -1.97262167e+00     1.39298360e+00      1.32466139e+00      
H    -2.81835893e+00     1.30920469e+00      8.74175160e-01      
H    -2.18211475e+00     1.59866895e+00      2.23990140e+00      
O    2.56490848e+00      -2.37450972e-02     1.07708262e+00      
H    2.87864951e+00      4.91370384e-01      1.82436377e+00      
H    3.23577564e+00      -6.96031160e-01     9.35006933e-01      
O    -9.24846379e-01     -2.23577069e+00     -1.29836998e+00     
H    -1.82171975e+00     -2.08500786e+00     -1.61212054e+00     
H    -8.32965985e-01     -3.18859182e+00     -1.21074431e+00     
20
85.134538
N    1.49531687e-03      1.74184413e-02      -1.91979683e-02     
H    9.05505476e-01      -8.10926735e-02     4.84308759e-01      
H    -3.36179558e-01     -9.11553604e-01     -3.55370623e-01     
H    -7.25627298e-01     4.26300169e-01      6.07982501e-01      
C    2.02505354e-01      9.10394845e-01      -1.17786815e+00     
H    5.39323208e-01      1.88627709e+00      -8.36358126e-01     
H    9.59888425e-01      4.92910867e-01      -1.83702788e+00     
C    -1.10585462e+00     1.04737868e+00      -1.91972955e+00     
O    -2.13859369e+00     5.00792719e-01      -1.59562500e+00     
O    -9.51449743e-01     1.85166491e+00      -2.97310214e+00     
H    -1.81334459e+00     1.91325620e+00      -3.42323737e+00     
O    -1.97394831e+00     1.39230230e+00      1.32042237e+00      
H    -2.81683992e+00     1.30858487e+00      8.64755213e-01      
H    -2.18890082e+00     1.59609042e+00      2.23473874e+00      
O    2.56497676e+00      -2.39715602e-02     1.07692182e+00      
H    2.87935063e+00      4.95421233e-01      1.82087038e+00      
H    3.23458949e+00      -6.98402465e-01     9.39707703e-01      
O    -9.22310075e-01     -2.23925264e+00     -1.29712161e+00     
H    -1.82039693e+00     -2.09415005e+00     -1.60970393e+00     
H    -8.24622455e-01     -3.19139013e+00     -1.20944626e+00     
20
85.134538
N    1.64335126e-03      1.69141934e-02      -1.95592136e-02     
H    9.05609162e-01      -8.14439837e-02     4.84056799e-01      
H    -3.35963100e-01     -9.12199732e-01     -3.55260941e-01     
H    -7.25611808e-01     4.26157397e-01      6.07307906e-01      
C    2.02837977e-01      9.09254182e-01      -1.17868561e+00     
H    5.41639455e-01      1.88464777e+00      -8.37790404e-01     
H    9.58786288e-01      4.90373574e-01      -1.83858247e+00     
C    -1.10614179e+00     1.04836415e+00      -1.91902240e+00     
O    -2.13949643e+00     5.03892311e-01      -1.59340209e+00     
O    -9.51536551e-01     1.85195974e+00      -2.97289003e+00     
H    -1.81388543e+00     1.91510873e+00      -3.42190827e+00     
O    -1.97461163e+00     1.39196165e+00      1.31830286e+00      
H    -2.81608042e+00     1.30827496e+00      8.60045240e-01      
H    -2.19229386e+00     1.59480115e+00      2.23215742e+00      
O    2.56501090e+00      -2.40847918e-02     1.07684141e+00      
H    2.87970119e+00      4.97446657e-01      1.81912368e+00      
H    3.23399642e+00      -6.99588117e-01     9.42058088e-01      
O    -9.21041923e-01     -2.24099361e+00     -1.29649743e+00     
H    -1.81973551e+00     -2.09872115e+00     -1.60849563e+00     
H    -8.20450690e-01     -3.19278929e+00     -1.20879724e+00     
20
85.134538
N    1.79138566e-03      1.64099454e-02      -1.99204588e-02     
H    9.05712848e-01      -8.17952940e-02     4.83804839e-01      
H    -3.35746642e-01     -9.12845859e-01     -3.55151259e-01     
H    -7.25596318e-01     4.26014625e-01      6.06633312e-01      
C    2.03170600e-01      9.08113520e-01      -1.17950308e+00     
H    5.43955703e-01      1.88301846e+00      -8.39222682e-01     
H    9.57684150e-01      4.87836280e-01      -1.84013706e+00     
C    -1.10642897e+00     1.04934962e+00      -1.91831524e+00     
O    -2.14039918e+00     5.06991903e-01      -1.59117919e+00     
O    -9.51623358e-01     1.85225457e+00      -2.97267791e+00     
H    -1.81442627e+00     1.91696127e+00      -3.42057917e+00     
O    -1.97527495e+00     1.39162100e+00      1.31618335e+00      
H    -2.81532091e+00     1.30796505e+00      8.55335267e-01      
H    -2.19568690e+00     1.59351189e+00      2.22957609e+00      
O    2.56504504e+00      -2.41980233e-02     1.07676101e+00      
H    2.88005176e+00      4.99472081e-01      1.81737698e+00      
H    3.23340335e+00      -7.00773769e-01     9.44408474e-01      
O    -9.19773770e-01     -2.24273458e+00     -1.29587324e+00     
H    -1.81907410e+00     -2.10329225e+00     -1.60728733e+00     
H    -8.16278925e-01     -3.19418844e+00     -1.20814822e+00     
20
85.134538
N    2.38352322e-03      1.43929536e-02      -2.13654398e-02     
H    9.06127594e-01      -8.32005350e-02     4.82797001e-01      
H    -3.34880810e-01     -9.15430371e-01     -3.54712531e-01     
H    -7.25534358e-01     4.25443539e-01      6.03934936e-01      
C    2.04501090e-01      9.03550870e-01      -1.18277294e+00     
H    5.53220693e-01      1.87650118e+00      -8.44951794e-01     
H    9.53275600e-01      4.77687106e-01      -1.84635542e+00     
C    -1.10757769e+00     1.05329150e+00      -1.91548662e+00     
O    -2.14401016e+00     5.19390271e-01      -1.58228755e+00     
O    -9.51970588e-01     1.85343389e+00      -2.97182945e+00     
H    -1.81658963e+00     1.92437143e+00      -3.41526277e+00     
O    -1.97792823e+00     1.39025840e+00      1.30770531e+00      
H    -2.81228289e+00     1.30672541e+00      8.36495375e-01      
H    -2.20925904e+00     1.58835483e+00      2.21925079e+00      
O    2.56518160e+00      -2.46509495e-02     1.07643939e+00      
H    2.88145400e+00      5.07573779e-01      1.81039020e+00      
H    3.23103105e+00      -7.05516379e-01     9.53810014e-01      
O    -9.14701162e-01     -2.24969848e+00     -1.29337650e+00     
H    -1.81642846e+00     -2.12157663e+00     -1.60245411e+00     
H    -7.99591865e-01     -3.19978506e+00     -1.20555212e+00     
20
85.134538
N    2.53155762e-03      1.38887056e-02      -2.17266850e-02     
H    9.06231280e-01      -8.35518453e-02     4.82545041e-01      
H    -3.34664352e-01     -9.16076498e-01     -3.54602849e-01     
H    -7.25518868e-01     4.25300767e-01      6.03260342e-01      
C    2.04833713e-01      9.02410208e-01      -1.18359041e+00     
H    5.55536941e-01      1.87487187e+00      -8.46384072e-01     
H    9.52173462e-01      4.75149812e-01      -1.84791001e+00     
C    -1.10786487e+00     1.05427697e+00      -1.91477946e+00     
O    -2.14491291e+00     5.22489863e-01      -1.58006465e+00     
O    -9.52057395e-01     1.85372872e+00      -2.97161733e+00     
H    -1.81713047e+00     1.92622397e+00      -3.41393367e+00     
O    -1.97859155e+00     1.38991775e+00      1.30558580e+00      
H    -2.81152338e+00     1.30641550e+00      8.31785402e-01      
H    -2.21265208e+00     1.58706557e+00      2.21666946e+00      
O    2.56521574e+00      -2.47641810e-02     1.07635899e+00      
H    2.88180457e+00      5.09599203e-01      1.80864350e+00      
H    3.23043798e+00      -7.06702031e-01     9.56160400e-01      
O    -9.13433009e-01     -2.25143945e+00     -1.29275231e+00     
H    -1.81576705e+00     -2.12614773e+00     -1.60124581e+00     
H    -7.95420100e-01     -3.20118421e+00     -1.20490310e+00     
20
85.134538
N    2.67959201e-03      1.33844577e-02      -2.20879303e-02     
H    9.06334966e-01      -8.39031555e-02     4.82293081e-01      
H    -3.34447894e-01     -9.16722626e-01     -3.54493167e-01     
H    -7.25503378e-01     4.25157995e-01      6.02585747e-01      
C    2.05166336e-01      9.01269545e-01      -1.18440787e+00     
H    5.57853188e-01      1.87324255e+00      -8.47816350e-01     
H    9.51071325e-01      4.72612519e-01      -1.84946460e+00     
C    -1.10815204e+00     1.05526244e+00      -1.91407231e+00     
O    -2.14581565e+00     5.25589455e-01      -1.57784174e+00     
O    -9.52144203e-01     1.85402355e+00      -2.97140522e+00     
H    -1.81767131e+00     1.92807650e+00      -3.41260457e+00     
O    -1.97925487e+00     1.38957710e+00      1.30346629e+00      
H    -2.81076388e+00     1.30610559e+00      8.27075429e-01      
H    -2.21604512e+00     1.58577630e+00      2.21408814e+00      
O    2.56524988e+00      -2.48774126e-02     1.07627858e+00      
H    2.88215513e+00      5.11624627e-01      1.80689680e+00      
H    3.22984491e+00      -7.07887683e-01     9.58510785e-01      
O    -9.12164857e-01     -2.25318042e+00     -1.29212813e+00     
H    -1.81510563e+00     -2.13071883e+00     -1.60003751e+00     
H    -7.91248335e-01     -3.20258337e+00     -1.20425408e+00     
20
85.134538
N    2.97566079e-03      1.23759618e-02      -2.28104207e-02     
H    9.06542339e-01      -8.46057760e-02     4.81789162e-01      
H    -3.34014978e-01     -9.18014882e-01     -3.54273803e-01     
H    -7.25472398e-01     4.24872452e-01      6.01236559e-01      
C    2.05831581e-01      8.98988221e-01      -1.18604280e+00     
H    5.62485683e-01      1.86998391e+00      -8.50680906e-01     
H    9.48867049e-01      4.67537932e-01      -1.85257379e+00     
C    -1.10872640e+00     1.05723338e+00      -1.91265800e+00     
O    -2.14762114e+00     5.31788639e-01      -1.57339592e+00     
O    -9.52317818e-01     1.85461320e+00      -2.97098098e+00     
H    -1.81875299e+00     1.93178158e+00      -3.40994637e+00     
O    -1.98058151e+00     1.38889580e+00      1.29922727e+00      
H    -2.80924487e+00     1.30548577e+00      8.17655482e-01      
H    -2.22283119e+00     1.58319777e+00      2.20892548e+00      
O    2.56531816e+00      -2.51038756e-02     1.07611778e+00      
H    2.88285625e+00      5.15675476e-01      1.80340341e+00      
H    3.22865876e+00      -7.10258988e-01     9.63211555e-01      
O    -9.09628553e-01     -2.25666237e+00     -1.29087976e+00     
H    -1.81378281e+00     -2.13986102e+00     -1.59762090e+00     
H    -7.82904805e-01     -3.20538168e+00     -1.20295603e+00     
20
85.134538
N    3.27172958e-03      1.13674659e-02      -2.35329112e-02     
H    9.06749712e-01      -8.53083966e-02     4.81285242e-01      
H    -3.33582061e-01     -9.19307137e-01     -3.54054440e-01     
H    -7.25441418e-01     4.24586909e-01      5.99887371e-01      
C    2.06496826e-01      8.96706896e-01      -1.18767773e+00     
H    5.67118178e-01      1.86672528e+00      -8.53545463e-01     
H    9.46662774e-01      4.62463345e-01      -1.85568297e+00     
C    -1.10930076e+00     1.05920432e+00      -1.91124369e+00     
O    -2.14942663e+00     5.37987823e-01      -1.56895011e+00     
O    -9.52491433e-01     1.85520286e+00      -2.97055675e+00     
H    -1.81983467e+00     1.93548666e+00      -3.40728816e+00     
O    -1.98190815e+00     1.38821450e+00      1.29498825e+00      
H    -2.80772586e+00     1.30486595e+00      8.08235536e-01      
H    -2.22961726e+00     1.58061924e+00      2.20376283e+00      
O    2.56538644e+00      -2.53303387e-02     1.07595697e+00      
H    2.88355738e+00      5.19726324e-01      1.79991002e+00      
H    3.22747262e+00      -7.12630292e-01     9.67912326e-01      
O    -9.07092248e-01     -2.26014431e+00     -1.28963138e+00     
H    -1.81245999e+00     -2.14900322e+00     -1.59520429e+00     
H    -7.74561275e-01     -3.20817999e+00     -1.20165799e+00     
20
85.134538
N    3.56779836e-03      1.03589700e-02      -2.42554017e-02     
H    9.06957085e-01      -8.60110171e-02     4.80781323e-01      
H    -3.33149145e-01     -9.20599393e-01     -3.53835076e-01     
H    -7.25410438e-01     4.24301365e-01      5.98538182e-01      
C    2.07162071e-01      8.94425571e-01      -1.18931266e+00     
H    5.71750673e-01      1.86346664e+00      -8.56410019e-01     
H    9.44458499e-01      4.57388758e-01      -1.85879215e+00     
C    -1.10987511e+00     1.06117526e+00      -1.90982938e+00     
O    -2.15123212e+00     5.44187007e-01      -1.56450429e+00     
O    -9.52665047e-01     1.85579252e+00      -2.97013252e+00     
H    -1.82091635e+00     1.93919174e+00      -3.40462996e+00     
O    -1.98323479e+00     1.38753319e+00      1.29074923e+00      
H    -2.80620685e+00     1.30424613e+00      7.98815590e-01      
H    -2.23640334e+00     1.57804071e+00      2.19860018e+00      
O    2.56545472e+00      -2.55568018e-02     1.07579616e+00      
H    2.88425850e+00      5.23777173e-01      1.79641662e+00      
H    3.22628647e+00      -7.15001597e-01     9.72613096e-01      
O    -9.04555944e-01     -2.26362626e+00     -1.28838301e+00     
H    -1.81113716e+00     -2.15814541e+00     -1.59278769e+00     
H    -7.66217745e-01     -3.21097830e+00     -1.20035994e+00     
20
85.134538
N    3.86386715e-03      9.35047410e-03      -2.49778922e-02     
H    9.07164457e-01      -8.67136376e-02     4.80277404e-01      
H    -3.32716229e-01     -9.21891648e-01     -3.53615712e-01     
H    -7.25379459e-01     4.24015822e-01      5.97188994e-01      
C    2.07827317e-01      8.92144246e-01      -1.19094760e+00     
H    5.76383168e-01      1.86020800e+00      -8.59274575e-01     
H    9.42254224e-01      4.52314171e-01      -1.86190133e+00     
C    -1.11044947e+00     1.06314620e+00      -1.90841507e+00     
O    -2.15303762e+00     5.50386191e-01      -1.56005848e+00     
O    -9.52838662e-01     1.85638218e+00      -2.96970829e+00     
H    -1.82199803e+00     1.94289681e+00      -3.40197176e+00     
O    -1.98456143e+00     1.38685189e+00      1.28651021e+00      
H    -2.80468784e+00     1.30362631e+00      7.89395644e-01      
H    -2.24318941e+00     1.57546218e+00      2.19343753e+00      
O    2.56552300e+00      -2.57832649e-02     1.07563535e+00      
H    2.88495962e+00      5.27828021e-01      1.79292323e+00      
H    3.22510033e+00      -7.17372901e-01     9.77313867e-01      
O    -9.02019639e-01     -2.26710821e+00     -1.28713464e+00     
H    -1.80981434e+00     -2.16728761e+00     -1.59037108e+00     
H    -7.57874215e-01     -3.21377661e+00     -1.19906190e+00     
20
85.134538
N    4.45600472e-03      7.33348229e-03      -2.64228732e-02     
H    9.07579203e-01      -8.81188786e-02     4.79269565e-01      
H    -3.31850397e-01     -9.24476159e-01     -3.53176984e-01     
H    -7.25317499e-01     4.23444735e-01      5.94490617e-01      
C    2.09157807e-01      8.87581597e-01      -1.19421746e+00     
H    5.85648158e-01      1.85369073e+00      -8.65003687e-01     
H    9.37845673e-01      4.42164997e-01      -1.86811970e+00     
C    -1.11159818e+00     1.06708808e+00      -1.90558645e+00     
O    -2.15664860e+00     5.62784560e-01      -1.55116685e+00     
O    -9.53185892e-01     1.85756149e+00      -2.96885982e+00     
H    -1.82416140e+00     1.95030697e+00      -3.39665536e+00     
O    -1.98721471e+00     1.38548929e+00      1.27803217e+00      
H    -2.80164982e+00     1.30238667e+00      7.70555752e-01      
H    -2.25676156e+00     1.57030512e+00      2.18311222e+00      
O    2.56565956e+00      -2.62361910e-02     1.07531373e+00      
H    2.88636187e+00      5.35929719e-01      1.78593644e+00      
H    3.22272804e+00      -7.22115511e-01     9.86715408e-01      
O    -8.96947031e-01     -2.27407210e+00     -1.28463790e+00     
H    -1.80716870e+00     -2.18557200e+00     -1.58553787e+00     
H    -7.41187155e-01     -3.21937323e+00     -1.19646580e+00     
