20
66.943363
N    2.27735354e-04      2.17871131e-02      -1.60671872e-02     
H    9.04864404e-01      -7.88724282e-02     4.85898619e-01      
H    -3.38028143e-01     -9.07629782e-01     -3.49698295e-01     
H    -7.26877580e-01     4.33046844e-01      6.09958093e-01      
C    2.02490546e-01      9.10451455e-01      -1.17782816e+00     
H    5.45562702e-01      1.88546549e+00      -8.40078786e-01     
H    9.55580338e-01      4.87099281e-01      -1.83805838e+00     
C    -1.10740412e+00     1.05269691e+00      -1.91591508e+00     
O    -2.14405645e+00     5.19549220e-01      -1.58217730e+00     
O    -9.49386075e-01     1.84456707e+00      -2.97818602e+00     
H    -1.81284131e+00     1.91151111e+00      -3.42448258e+00     
O    -1.98660648e+00     1.39154318e+00      1.31084454e+00      
H    -2.81901040e+00     1.30507402e+00      8.36724266e-01      
H    -2.22158737e+00     1.59597117e+00      2.22006060e+00      
O    2.56773323e+00      -3.34213999e-02     1.07015435e+00      
H    2.85626189e+00      3.92775379e-01      1.89200626e+00      
H    3.27406842e+00      -6.51985677e-01     8.28277007e-01      
O    -9.08227471e-01     -2.24340500e+00     -1.29107689e+00     
H    -1.80986779e+00     -2.11934899e+00     -1.60226140e+00     
H    -7.91549055e-01     -3.19265821e+00     -1.19578330e+00     
20
66.943363
N    6.92665126e-04      2.01906972e-02      -1.72111278e-02     
H    9.05128358e-01      -7.97787998e-02     4.85249194e-01      
H    -3.37349538e-01     -9.09256865e-01     -3.51006695e-01     
H    -7.26549520e-01     4.31217403e-01      6.08789601e-01      
C    2.02826871e-01      9.09296640e-01      -1.17865562e+00     
H    5.46319076e-01      1.88403907e+00      -8.40580899e-01     
H    9.55555222e-01      4.86014884e-01      -1.83935534e+00     
C    -1.10730392e+00     1.05235282e+00      -1.91616154e+00     
O    -2.14359351e+00     5.17959686e-01      -1.58331631e+00     
O    -9.49988800e-01     1.84663636e+00      -2.97670294e+00     
H    -1.81350797e+00     1.91379992e+00      -3.42284218e+00     
O    -1.98410526e+00     1.39139231e+00      1.31111949e+00      
H    -2.81770827e+00     1.30564182e+00      8.39022030e-01      
H    -2.21680877e+00     1.59471172e+00      2.22114881e+00      
O    2.56707825e+00      -3.11721715e-02     1.07176582e+00      
H    2.86238464e+00      4.20462267e-01      1.87247559e+00      
H    3.26360561e+00      -6.64775526e-01     8.58485066e-01      
O    -9.10479970e-01     -2.24410788e+00     -1.29196389e+00     
H    -1.81183866e+00     -2.11762036e+00     -1.60291373e+00     
H    -7.95645640e-01     -3.19374035e+00     -1.19855002e+00     
20
66.943363
N    9.25130011e-04      1.93924893e-02      -1.77830980e-02     
H    9.05260335e-01      -8.02319856e-02     4.84924482e-01      
H    -3.37010236e-01     -9.10070407e-01     -3.51660895e-01     
H    -7.26385489e-01     4.30302683e-01      6.08205355e-01      
C    2.02995033e-01      9.08719232e-01      -1.17906935e+00     
H    5.46697263e-01      1.88332586e+00      -8.40831956e-01     
H    9.55542665e-01      4.85472685e-01      -1.84000383e+00     
C    -1.10725383e+00     1.05218078e+00      -1.91628477e+00     
O    -2.14336203e+00     5.17164920e-01      -1.58388582e+00     
O    -9.50290162e-01     1.84767100e+00      -2.97596139e+00     
H    -1.81384130e+00     1.91494433e+00      -3.42202198e+00     
O    -1.98285465e+00     1.39131687e+00      1.31125696e+00      
H    -2.81705721e+00     1.30592572e+00      8.40170912e-01      
H    -2.21441947e+00     1.59408199e+00      2.22169292e+00      
O    2.56675076e+00      -3.00475573e-02     1.07257155e+00      
H    2.86544601e+00      4.34305711e-01      1.86271026e+00      
H    3.25837421e+00      -6.71170451e-01     8.73589096e-01      
O    -9.11606219e-01     -2.24445933e+00     -1.29240739e+00     
H    -1.81282410e+00     -2.11675604e+00     -1.60323989e+00     
H    -7.97693932e-01     -3.19428141e+00     -1.19993338e+00     
20
66.943363
N    1.15759490e-03      1.85942813e-02      -1.83550683e-02     
H    9.05392312e-01      -8.06851714e-02     4.84599770e-01      
H    -3.36670934e-01     -9.10883948e-01     -3.52315095e-01     
H    -7.26221459e-01     4.29387963e-01      6.07621109e-01      
C    2.03163196e-01      9.08141825e-01      -1.17948308e+00     
H    5.47075450e-01      1.88261265e+00      -8.41083012e-01     
H    9.55530107e-01      4.84930487e-01      -1.84065231e+00     
C    -1.10720373e+00     1.05200873e+00      -1.91640800e+00     
O    -2.14313056e+00     5.16370153e-01      -1.58445533e+00     
O    -9.50591524e-01     1.84870565e+00      -2.97521985e+00     
H    -1.81417463e+00     1.91608873e+00      -3.42120178e+00     
O    -1.98160404e+00     1.39124144e+00      1.31139443e+00      
H    -2.81640615e+00     1.30620962e+00      8.41319793e-01      
H    -2.21203017e+00     1.59345227e+00      2.22223702e+00      
O    2.56642328e+00      -2.89229431e-02     1.07337728e+00      
H    2.86850738e+00      4.48149155e-01      1.85294492e+00      
H    3.25314281e+00      -6.77565376e-01     8.88693125e-01      
O    -9.12732468e-01     -2.24481077e+00     -1.29285088e+00     
H    -1.81380953e+00     -2.11589172e+00     -1.60356606e+00     
H    -7.99742225e-01     -3.19482248e+00     -1.20131674e+00     
20
66.943363
N    1.39005978e-03      1.77960734e-02      -1.89270385e-02     
H    9.05524290e-01      -8.11383571e-02     4.84275057e-01      
H    -3.36331632e-01     -9.11697490e-01     -3.52969295e-01     
H    -7.26057429e-01     4.28473243e-01      6.07036862e-01      
C    2.03331358e-01      9.07564417e-01      -1.17989681e+00     
H    5.47453637e-01      1.88189945e+00      -8.41334069e-01     
H    9.55517549e-01      4.84388288e-01      -1.84130079e+00     
C    -1.10715363e+00     1.05183669e+00      -1.91653124e+00     
O    -2.14289909e+00     5.15575387e-01      -1.58502484e+00     
O    -9.50892886e-01     1.84974029e+00      -2.97447831e+00     
H    -1.81450796e+00     1.91723314e+00      -3.42038157e+00     
O    -1.98035342e+00     1.39116600e+00      1.31153191e+00      
H    -2.81575509e+00     1.30649352e+00      8.42468675e-01      
H    -2.20964087e+00     1.59282254e+00      2.22278113e+00      
O    2.56609579e+00      -2.77983289e-02     1.07418301e+00      
H    2.87156876e+00      4.61992598e-01      1.84317959e+00      
H    3.24791141e+00      -6.83960300e-01     9.03797155e-01      
O    -9.13858718e-01     -2.24516221e+00     -1.29329438e+00     
H    -1.81479497e+00     -2.11502740e+00     -1.60389222e+00     
H    -8.01790517e-01     -3.19536355e+00     -1.20270009e+00     
20
66.943363
N    1.62252467e-03      1.69978654e-02      -1.94990088e-02     
H    9.05656267e-01      -8.15915429e-02     4.83950345e-01      
H    -3.35992330e-01     -9.12511032e-01     -3.53623495e-01     
H    -7.25893399e-01     4.27558522e-01      6.06452616e-01      
C    2.03499520e-01      9.06987010e-01      -1.18031055e+00     
H    5.47831824e-01      1.88118624e+00      -8.41585125e-01     
H    9.55504991e-01      4.83846090e-01      -1.84194927e+00     
C    -1.10710353e+00     1.05166465e+00      -1.91665447e+00     
O    -2.14266762e+00     5.14780620e-01      -1.58559435e+00     
O    -9.51194249e-01     1.85077494e+00      -2.97373677e+00     
H    -1.81484129e+00     1.91837754e+00      -3.41956137e+00     
O    -1.97910281e+00     1.39109057e+00      1.31166938e+00      
H    -2.81510402e+00     1.30677743e+00      8.43617557e-01      
H    -2.20725157e+00     1.59219281e+00      2.22332523e+00      
O    2.56576830e+00      -2.66737148e-02     1.07498874e+00      
H    2.87463013e+00      4.75836042e-01      1.83341426e+00      
H    3.24268000e+00      -6.90355225e-01     9.18901185e-01      
O    -9.14984967e-01     -2.24551365e+00     -1.29373788e+00     
H    -1.81578041e+00     -2.11416308e+00     -1.60421839e+00     
H    -8.03838810e-01     -3.19590462e+00     -1.20408345e+00     
20
66.943363
N    1.73875711e-03      1.65987614e-02      -1.97849939e-02     
H    9.05722255e-01      -8.18181358e-02     4.83787989e-01      
H    -3.35822679e-01     -9.12917803e-01     -3.53950595e-01     
H    -7.25811383e-01     4.27101162e-01      6.06160493e-01      
C    2.03583601e-01      9.06698306e-01      -1.18051741e+00     
H    5.48020918e-01      1.88082963e+00      -8.41710653e-01     
H    9.55498712e-01      4.83574991e-01      -1.84227352e+00     
C    -1.10707848e+00     1.05157863e+00      -1.91671608e+00     
O    -2.14255188e+00     5.14383237e-01      -1.58587911e+00     
O    -9.51344930e-01     1.85129226e+00      -2.97336599e+00     
H    -1.81500795e+00     1.91894974e+00      -3.41915127e+00     
O    -1.97847751e+00     1.39105285e+00      1.31173812e+00      
H    -2.81477849e+00     1.30691938e+00      8.44191998e-01      
H    -2.20605692e+00     1.59187795e+00      2.22359728e+00      
O    2.56560455e+00      -2.61114077e-02     1.07539160e+00      
H    2.87616082e+00      4.82757764e-01      1.82853159e+00      
H    3.24006430e+00      -6.93552687e-01     9.26453200e-01      
O    -9.15548092e-01     -2.24568937e+00     -1.29395962e+00     
H    -1.81627313e+00     -2.11373092e+00     -1.60438147e+00     
H    -8.04862956e-01     -3.19617515e+00     -1.20477513e+00     
20
66.943363
N    1.85498955e-03      1.61996575e-02      -2.00709790e-02     
H    9.05788244e-01      -8.20447287e-02     4.83625632e-01      
H    -3.35653028e-01     -9.13324573e-01     -3.54277695e-01     
H    -7.25729368e-01     4.26643802e-01      6.05868370e-01      
C    2.03667683e-01      9.06409602e-01      -1.18072428e+00     
H    5.48210011e-01      1.88047303e+00      -8.41836182e-01     
H    9.55492433e-01      4.83303891e-01      -1.84259776e+00     
C    -1.10705343e+00     1.05149260e+00      -1.91677770e+00     
O    -2.14243614e+00     5.13985854e-01      -1.58616386e+00     
O    -9.51495611e-01     1.85180958e+00      -2.97299522e+00     
H    -1.81517462e+00     1.91952195e+00      -3.41874117e+00     
O    -1.97785220e+00     1.39101513e+00      1.31180686e+00      
H    -2.81445296e+00     1.30706133e+00      8.44766439e-01      
H    -2.20486227e+00     1.59156309e+00      2.22386934e+00      
O    2.56544081e+00      -2.55491006e-02     1.07579447e+00      
H    2.87769151e+00      4.89679486e-01      1.82364892e+00      
H    3.23744860e+00      -6.96750149e-01     9.34005214e-01      
O    -9.16111217e-01     -2.24586509e+00     -1.29418137e+00     
H    -1.81676584e+00     -2.11329876e+00     -1.60454455e+00     
H    -8.05887102e-01     -3.19644568e+00     -1.20546681e+00     
20
66.943363
N    2.31991933e-03      1.46032415e-02      -2.12149196e-02     
H    9.06052198e-01      -8.29511003e-02     4.82976208e-01      
H    -3.34974424e-01     -9.14951657e-01     -3.55586095e-01     
H    -7.25401308e-01     4.24814362e-01      6.04699878e-01      
C    2.04004007e-01      9.05254788e-01      -1.18155174e+00     
H    5.48966385e-01      1.87904661e+00      -8.42338294e-01     
H    9.55467317e-01      4.82219495e-01      -1.84389472e+00     
C    -1.10695323e+00     1.05114852e+00      -1.91702416e+00     
O    -2.14197320e+00     5.12396320e-01      -1.58730288e+00     
O    -9.52098335e-01     1.85387888e+00      -2.97151214e+00     
H    -1.81584128e+00     1.92181075e+00      -3.41710077e+00     
O    -1.97535098e+00     1.39086427e+00      1.31208180e+00      
H    -2.81315084e+00     1.30762913e+00      8.47064203e-01      
H    -2.20008367e+00     1.59030363e+00      2.22495754e+00      
O    2.56478583e+00      -2.32998722e-02     1.07740593e+00      
H    2.88381425e+00      5.17366374e-01      1.80411826e+00      
H    3.22698580e+00      -7.09539999e-01     9.64213274e-01      
O    -9.18363715e-01     -2.24656797e+00     -1.29506837e+00     
H    -1.81873672e+00     -2.11157012e+00     -1.60519689e+00     
H    -8.09983688e-01     -3.19752782e+00     -1.20823353e+00     
20
66.943363
N    2.43615177e-03      1.42041376e-02      -2.15009047e-02     
H    9.06118187e-01      -8.31776932e-02     4.82813851e-01      
H    -3.34804773e-01     -9.15358427e-01     -3.55913195e-01     
H    -7.25319293e-01     4.24357002e-01      6.04407755e-01      
C    2.04088089e-01      9.04966084e-01      -1.18175861e+00     
H    5.49155478e-01      1.87869001e+00      -8.42463823e-01     
H    9.55461038e-01      4.81948395e-01      -1.84421896e+00     
C    -1.10692818e+00     1.05106249e+00      -1.91708578e+00     
O    -2.14185746e+00     5.11998937e-01      -1.58758763e+00     
O    -9.52249016e-01     1.85439620e+00      -2.97114137e+00     
H    -1.81600795e+00     1.92238296e+00      -3.41669067e+00     
O    -1.97472567e+00     1.39082655e+00      1.31215054e+00      
H    -2.81282531e+00     1.30777108e+00      8.47638644e-01      
H    -2.19888902e+00     1.58998877e+00      2.22522960e+00      
O    2.56462209e+00      -2.27375651e-02     1.07780880e+00      
H    2.88534494e+00      5.24288096e-01      1.79923559e+00      
H    3.22437010e+00      -7.12737461e-01     9.71765288e-01      
O    -9.18926840e-01     -2.24674369e+00     -1.29529012e+00     
H    -1.81922943e+00     -2.11113796e+00     -1.60535997e+00     
H    -8.11007834e-01     -3.19779835e+00     -1.20892521e+00     
20
66.943363
N    2.55238421e-03      1.38050336e-02      -2.17868898e-02     
H    9.06184175e-01      -8.34042861e-02     4.82651495e-01      
H    -3.34635122e-01     -9.15765198e-01     -3.56240295e-01     
H    -7.25237277e-01     4.23899642e-01      6.04115632e-01      
C    2.04172170e-01      9.04677380e-01      -1.18196547e+00     
H    5.49344572e-01      1.87833340e+00      -8.42589351e-01     
H    9.55454759e-01      4.81677296e-01      -1.84454321e+00     
C    -1.10690313e+00     1.05097647e+00      -1.91714739e+00     
O    -2.14174172e+00     5.11601554e-01      -1.58787239e+00     
O    -9.52399697e-01     1.85491352e+00      -2.97077059e+00     
H    -1.81617461e+00     1.92295516e+00      -3.41628057e+00     
O    -1.97410037e+00     1.39078883e+00      1.31221928e+00      
H    -2.81249978e+00     1.30791303e+00      8.48213085e-01      
H    -2.19769437e+00     1.58967391e+00      2.22550165e+00      
O    2.56445834e+00      -2.21752580e-02     1.07821166e+00      
H    2.88687563e+00      5.31209818e-01      1.79435292e+00      
H    3.22175440e+00      -7.15934923e-01     9.79317303e-01      
O    -9.19489965e-01     -2.24691941e+00     -1.29551186e+00     
H    -1.81972215e+00     -2.11070580e+00     -1.60552305e+00     
H    -8.12031980e-01     -3.19806888e+00     -1.20961689e+00     
20
66.943363
N    2.78484910e-03      1.30068256e-02      -2.23588601e-02     
H    9.06316152e-01      -8.38574719e-02     4.82326783e-01      
H    -3.34295820e-01     -9.16578740e-01     -3.56894495e-01     
H    -7.25073247e-01     4.22984921e-01      6.03531386e-01      
C    2.04340332e-01      9.04099973e-01      -1.18237921e+00     
H    5.49722759e-01      1.87762019e+00      -8.42840407e-01     
H    9.55442201e-01      4.81135098e-01      -1.84519169e+00     
C    -1.10685303e+00     1.05080443e+00      -1.91727062e+00     
O    -2.14151025e+00     5.10806787e-01      -1.58844190e+00     
O    -9.52701060e-01     1.85594817e+00      -2.97002905e+00     
H    -1.81650794e+00     1.92409956e+00      -3.41546037e+00     
O    -1.97284976e+00     1.39071340e+00      1.31235675e+00      
H    -2.81184871e+00     1.30819694e+00      8.49361967e-01      
H    -2.19530507e+00     1.58904418e+00      2.22604575e+00      
O    2.56413085e+00      -2.10506439e-02     1.07901739e+00      
H    2.88993700e+00      5.45053262e-01      1.78458759e+00      
H    3.21652299e+00      -7.22329848e-01     9.94421333e-01      
O    -9.20616214e-01     -2.24727085e+00     -1.29595536e+00     
H    -1.82070759e+00     -2.10984148e+00     -1.60584922e+00     
H    -8.14080273e-01     -3.19860995e+00     -1.21100025e+00     
20
66.943363
N    3.01731398e-03      1.22086177e-02      -2.29308303e-02     
H    9.06448130e-01      -8.43106576e-02     4.82002070e-01      
H    -3.33956518e-01     -9.17392282e-01     -3.57548695e-01     
H    -7.24909217e-01     4.22070201e-01      6.02947139e-01      
C    2.04508494e-01      9.03522565e-01      -1.18279294e+00     
H    5.50100946e-01      1.87690699e+00      -8.43091464e-01     
H    9.55429643e-01      4.80592899e-01      -1.84584017e+00     
C    -1.10680293e+00     1.05063239e+00      -1.91739386e+00     
O    -2.14127878e+00     5.10012021e-01      -1.58901141e+00     
O    -9.53002422e-01     1.85698281e+00      -2.96928751e+00     
H    -1.81684127e+00     1.92524397e+00      -3.41464016e+00     
O    -1.97159914e+00     1.39063796e+00      1.31249423e+00      
H    -2.81119765e+00     1.30848084e+00      8.50510849e-01      
H    -2.19291577e+00     1.58841445e+00      2.22658986e+00      
O    2.56380336e+00      -1.99260297e-02     1.07982312e+00      
H    2.89299838e+00      5.58896705e-01      1.77482226e+00      
H    3.21129159e+00      -7.28724772e-01     1.00952536e+00      
O    -9.21742464e-01     -2.24762229e+00     -1.29639886e+00     
H    -1.82169303e+00     -2.10897716e+00     -1.60617538e+00     
H    -8.16128565e-01     -3.19915102e+00     -1.21238360e+00     
20
66.943363
N    3.24977887e-03      1.14104097e-02      -2.35028006e-02     
H    9.06580107e-01      -8.47638434e-02     4.81677358e-01      
H    -3.33617216e-01     -9.18205823e-01     -3.58202895e-01     
H    -7.24745187e-01     4.21155481e-01      6.02362893e-01      
C    2.04676657e-01      9.02945158e-01      -1.18320667e+00     
H    5.50479133e-01      1.87619378e+00      -8.43342520e-01     
H    9.55417085e-01      4.80050701e-01      -1.84648865e+00     
C    -1.10675283e+00     1.05046034e+00      -1.91751709e+00     
O    -2.14104731e+00     5.09217254e-01      -1.58958092e+00     
O    -9.53303784e-01     1.85801746e+00      -2.96854597e+00     
H    -1.81717460e+00     1.92638837e+00      -3.41381996e+00     
O    -1.97034853e+00     1.39056253e+00      1.31263170e+00      
H    -2.81054659e+00     1.30876474e+00      8.51659730e-01      
H    -2.19052647e+00     1.58778473e+00      2.22713396e+00      
O    2.56347588e+00      -1.88014155e-02     1.08062885e+00      
H    2.89605975e+00      5.72740149e-01      1.76505692e+00      
H    3.20606019e+00      -7.35119697e-01     1.02462939e+00      
O    -9.22868713e-01     -2.24797373e+00     -1.29684235e+00     
H    -1.82267846e+00     -2.10811284e+00     -1.60650155e+00     
H    -8.18176858e-01     -3.19969209e+00     -1.21376696e+00     
20
66.943363
N    3.48224375e-03      1.06122018e-02      -2.40747708e-02     
H    9.06712084e-01      -8.52170292e-02     4.81352646e-01      
H    -3.33277914e-01     -9.19019365e-01     -3.58857095e-01     
H    -7.24581156e-01     4.20240761e-01      6.01778647e-01      
C    2.04844819e-01      9.02367750e-01      -1.18362040e+00     
H    5.50857320e-01      1.87548057e+00      -8.43593577e-01     
H    9.55404528e-01      4.79508502e-01      -1.84713714e+00     
C    -1.10670274e+00     1.05028830e+00      -1.91764032e+00     
O    -2.14081583e+00     5.08422488e-01      -1.59015043e+00     
O    -9.53605146e-01     1.85905210e+00      -2.96780442e+00     
H    -1.81750793e+00     1.92753278e+00      -3.41299976e+00     
O    -1.96909792e+00     1.39048709e+00      1.31276917e+00      
H    -2.80989553e+00     1.30904864e+00      8.52808612e-01      
H    -2.18813717e+00     1.58715500e+00      2.22767807e+00      
O    2.56314839e+00      -1.76768013e-02     1.08143458e+00      
H    2.89912112e+00      5.86583593e-01      1.75529159e+00      
H    3.20082879e+00      -7.41514622e-01     1.03973342e+00      
O    -9.23994962e-01     -2.24832518e+00     -1.29728585e+00     
H    -1.82366390e+00     -2.10724852e+00     -1.60682771e+00     
H    -8.20225150e-01     -3.20023315e+00     -1.21515032e+00     
20
66.943363
N    3.94717353e-03      9.01578589e-03      -2.52187114e-02     
H    9.06976038e-01      -8.61234008e-02     4.80703221e-01      
H    -3.32599309e-01     -9.20646448e-01     -3.60165495e-01     
H    -7.24253096e-01     4.18411320e-01      6.00610155e-01      
C    2.05181144e-01      9.01212935e-01      -1.18444786e+00     
H    5.51613694e-01      1.87405415e+00      -8.44095690e-01     
H    9.55379412e-01      4.78424105e-01      -1.84843410e+00     
C    -1.10660254e+00     1.04994421e+00      -1.91788678e+00     
O    -2.14035289e+00     5.06832954e-01      -1.59128944e+00     
O    -9.54207871e-01     1.86112139e+00      -2.96632134e+00     
H    -1.81817459e+00     1.92982159e+00      -3.41135936e+00     
O    -1.96659670e+00     1.39033622e+00      1.31304412e+00      
H    -2.80859340e+00     1.30961644e+00      8.55106376e-01      
H    -2.18335857e+00     1.58589555e+00      2.22876628e+00      
O    2.56249341e+00      -1.54275729e-02     1.08304605e+00      
H    2.90524387e+00      6.14270481e-01      1.73576092e+00      
H    3.19036598e+00      -7.54304471e-01     1.06994148e+00      
O    -9.26247461e-01     -2.24902806e+00     -1.29817285e+00     
H    -1.82563477e+00     -2.10551989e+00     -1.60748004e+00     
H    -8.24321735e-01     -3.20131529e+00     -1.21791704e+00     
