20
183.179770
N    9.23721830e-03      1.67155993e-02      -1.95708125e-02     
H    9.13627545e-01      -8.23202291e-02     4.86185460e-01      
H    -3.30290347e-01     -9.12035531e-01     -3.56724931e-01     
H    -7.20777211e-01     4.28639492e-01      6.04069926e-01      
C    2.15084006e-01      9.06373738e-01      -1.17732226e+00     
H    5.59594927e-01      1.88051332e+00      -8.38980044e-01     
H    9.66404338e-01      4.83797208e-01      -1.83993684e+00     
C    -1.09731517e+00     1.04789613e+00      -1.90818512e+00     
O    -2.12878346e+00     5.05608768e-01      -1.57069859e+00     
O    -9.53544888e-01     1.84751752e+00      -2.96553125e+00     
H    -1.82069114e+00     1.91002210e+00      -3.40517472e+00     
O    -1.95072795e+00     1.37755770e+00      1.29652598e+00      
H    -2.77643034e+00     1.29073107e+00      8.09690186e-01      
H    -2.20040674e+00     1.53279772e+00      2.21316508e+00      
O    2.49842795e+00      -2.04477811e-02     1.04394897e+00      
H    2.78994132e+00      4.79427270e-01      1.81209051e+00      
H    3.14179708e+00      -7.28576701e-01     9.46352035e-01      
O    -9.03014002e-01     -2.21959951e+00     -1.28137781e+00     
H    -1.79986255e+00     -2.06215801e+00     -1.59315829e+00     
H    -8.30212204e-01     -3.17154158e+00     -1.15820165e+00     
20
183.179770
N    7.44977733e-03      1.63870619e-02      -1.98388467e-02     
H    9.11700714e-01      -8.23646505e-02     4.85464325e-01      
H    -3.31546191e-01     -9.12561177e-01     -3.56276672e-01     
H    -7.21974243e-01     4.27911889e-01      6.04373476e-01      
C    2.12271966e-01      9.06238352e-01      -1.17827620e+00     
H    5.56843245e-01      1.88032495e+00      -8.39756842e-01     
H    9.63673222e-01      4.83538330e-01      -1.84076419e+00     
C    -1.09973721e+00     1.04875224e+00      -1.91036407e+00     
O    -2.13213876e+00     5.07504348e-01      -1.57470729e+00     
O    -9.53107909e-01     1.84884920e+00      -2.96721186e+00     
H    -1.81939534e+00     1.91268316e+00      -3.40836128e+00     
O    -1.95719636e+00     1.38090320e+00      1.30038057e+00      
H    -2.78577323e+00     1.29488461e+00      8.18746470e-01      
H    -2.20092330e+00     1.54733163e+00      2.21597717e+00      
O    2.51509929e+00      -2.14419575e-02     1.05211178e+00      
H    2.81264421e+00      4.85451185e-01      1.81253878e+00      
H    3.16440211e+00      -7.22218794e-01     9.47041337e-01      
O    -9.06569868e-01     -2.22625377e+00     -1.28468958e+00     
H    -1.80433473e+00     -2.07472712e+00     -1.59608640e+00     
H    -8.24643002e-01     -3.17790287e+00     -1.17036378e+00     
20
183.179770
N    6.55605685e-03      1.62227931e-02      -1.99728638e-02     
H    9.10737298e-01      -8.23868612e-02     4.85103757e-01      
H    -3.32174114e-01     -9.12824000e-01     -3.56052543e-01     
H    -7.22572759e-01     4.27548088e-01      6.04525251e-01      
C    2.10865946e-01      9.06170659e-01      -1.17875317e+00     
H    5.55467404e-01      1.88023076e+00      -8.40145242e-01     
H    9.62307664e-01      4.83408890e-01      -1.84117787e+00     
C    -1.10094823e+00     1.04918029e+00      -1.91145355e+00     
O    -2.13381641e+00     5.08452138e-01      -1.57671163e+00     
O    -9.52889420e-01     1.84951504e+00      -2.96805216e+00     
H    -1.81874744e+00     1.91401369e+00      -3.40995456e+00     
O    -1.96043056e+00     1.38257595e+00      1.30230786e+00      
H    -2.79044468e+00     1.29696138e+00      8.23274612e-01      
H    -2.20118158e+00     1.55459858e+00      2.21738322e+00      
O    2.52343496e+00      -2.19390456e-02     1.05619318e+00      
H    2.82399566e+00      4.88463143e-01      1.81276291e+00      
H    3.17570462e+00      -7.19039841e-01     9.47385988e-01      
O    -9.08347801e-01     -2.22958089e+00     -1.28634546e+00     
H    -1.80657082e+00     -2.08101167e+00     -1.59755045e+00     
H    -8.21858401e-01     -3.18108352e+00     -1.17644484e+00     
20
183.179770
N    5.66233637e-03      1.60585244e-02      -2.01068809e-02     
H    9.09773883e-01      -8.24090718e-02     4.84743190e-01      
H    -3.32802036e-01     -9.13086823e-01     -3.55828413e-01     
H    -7.23171274e-01     4.27184287e-01      6.04677025e-01      
C    2.09459926e-01      9.06102967e-01      -1.17923014e+00     
H    5.54091563e-01      1.88013657e+00      -8.40533641e-01     
H    9.60942106e-01      4.83279451e-01      -1.84159154e+00     
C    -1.10215925e+00     1.04960835e+00      -1.91254302e+00     
O    -2.13549406e+00     5.09399927e-01      -1.57871598e+00     
O    -9.52670930e-01     1.85018087e+00      -2.96889246e+00     
H    -1.81809954e+00     1.91534422e+00      -3.41154784e+00     
O    -1.96366477e+00     1.38424870e+00      1.30423516e+00      
H    -2.79511612e+00     1.29903815e+00      8.27802754e-01      
H    -2.20143986e+00     1.56186554e+00      2.21878926e+00      
O    2.53177063e+00      -2.24361338e-02     1.06027459e+00      
H    2.83534710e+00      4.91475100e-01      1.81298705e+00      
H    3.18700714e+00      -7.15860887e-01     9.47730639e-01      
O    -9.10125734e-01     -2.23290802e+00     -1.28800134e+00     
H    -1.80880691e+00     -2.08729623e+00     -1.59901451e+00     
H    -8.19073800e-01     -3.18426416e+00     -1.18252591e+00     
20
183.179770
N    4.76861589e-03      1.58942557e-02      -2.02408980e-02     
H    9.08810467e-01      -8.24312825e-02     4.84382622e-01      
H    -3.33429959e-01     -9.13349646e-01     -3.55604284e-01     
H    -7.23769790e-01     4.26820486e-01      6.04828800e-01      
C    2.08053906e-01      9.06035274e-01      -1.17970710e+00     
H    5.52715722e-01      1.88004238e+00      -8.40922040e-01     
H    9.59576548e-01      4.83150011e-01      -1.84200522e+00     
C    -1.10337027e+00     1.05003640e+00      -1.91363250e+00     
O    -2.13717171e+00     5.10347717e-01      -1.58072033e+00     
O    -9.52452441e-01     1.85084671e+00      -2.96973277e+00     
H    -1.81745164e+00     1.91667476e+00      -3.41314112e+00     
O    -1.96689897e+00     1.38592145e+00      1.30616245e+00      
H    -2.79978757e+00     1.30111492e+00      8.32330895e-01      
H    -2.20169813e+00     1.56913249e+00      2.22019531e+00      
O    2.54010630e+00      -2.29332219e-02     1.06435599e+00      
H    2.84669855e+00      4.94487058e-01      1.81321118e+00      
H    3.19830965e+00      -7.12681934e-01     9.48075291e-01      
O    -9.11903667e-01     -2.23623515e+00     -1.28965722e+00     
H    -1.81104301e+00     -2.09358078e+00     -1.60047856e+00     
H    -8.16289198e-01     -3.18744481e+00     -1.18860697e+00     
20
183.179770
N    3.87489540e-03      1.57299870e-02      -2.03749151e-02     
H    9.07847052e-01      -8.24534932e-02     4.84022055e-01      
H    -3.34057881e-01     -9.13612469e-01     -3.55380154e-01     
H    -7.24368306e-01     4.26456684e-01      6.04980575e-01      
C    2.06647885e-01      9.05967581e-01      -1.18018407e+00     
H    5.51339880e-01      1.87994820e+00      -8.41310439e-01     
H    9.58210991e-01      4.83020572e-01      -1.84241889e+00     
C    -1.10458129e+00     1.05046445e+00      -1.91472198e+00     
O    -2.13884937e+00     5.11295507e-01      -1.58272468e+00     
O    -9.52233952e-01     1.85151255e+00      -2.97057307e+00     
H    -1.81680375e+00     1.91800529e+00      -3.41473441e+00     
O    -1.97013318e+00     1.38759420e+00      1.30808974e+00      
H    -2.80445901e+00     1.30319169e+00      8.36859037e-01      
H    -2.20195641e+00     1.57639945e+00      2.22160135e+00      
O    2.54844198e+00      -2.34303101e-02     1.06843739e+00      
H    2.85804999e+00      4.97499015e-01      1.81343532e+00      
H    3.20961217e+00      -7.09502981e-01     9.48419942e-01      
O    -9.13681600e-01     -2.23956228e+00     -1.29131311e+00     
H    -1.81327910e+00     -2.09986533e+00     -1.60194261e+00     
H    -8.13504597e-01     -3.19062546e+00     -1.19468804e+00     
20
183.179770
N    3.42803516e-03      1.56478526e-02      -2.04419237e-02     
H    9.07365344e-01      -8.24645985e-02     4.83841771e-01      
H    -3.34371842e-01     -9.13743880e-01     -3.55268089e-01     
H    -7.24667564e-01     4.26274784e-01      6.05056462e-01      
C    2.05944875e-01      9.05933734e-01      -1.18042256e+00     
H    5.50651960e-01      1.87990110e+00      -8.41504639e-01     
H    9.57528212e-01      4.82955852e-01      -1.84262573e+00     
C    -1.10518680e+00     1.05067848e+00      -1.91526672e+00     
O    -2.13968819e+00     5.11769402e-01      -1.58372685e+00     
O    -9.52124707e-01     1.85184547e+00      -2.97099322e+00     
H    -1.81647980e+00     1.91867055e+00      -3.41553105e+00     
O    -1.97175028e+00     1.38843057e+00      1.30905339e+00      
H    -2.80679473e+00     1.30423007e+00      8.39123108e-01      
H    -2.20208555e+00     1.58003293e+00      2.22230437e+00      
O    2.55260981e+00      -2.36788542e-02     1.07047810e+00      
H    2.86372571e+00      4.99004994e-01      1.81354739e+00      
H    3.21526343e+00      -7.07913504e-01     9.48592267e-01      
O    -9.14570566e-01     -2.24122584e+00     -1.29214105e+00     
H    -1.81439714e+00     -2.10300761e+00     -1.60267464e+00     
H    -8.12112297e-01     -3.19221578e+00     -1.19772857e+00     
20
183.179770
N    2.98117492e-03      1.55657182e-02      -2.05089322e-02     
H    9.06883636e-01      -8.24757038e-02     4.83661487e-01      
H    -3.34685804e-01     -9.13875292e-01     -3.55156025e-01     
H    -7.24966822e-01     4.26092883e-01      6.05132349e-01      
C    2.05241865e-01      9.05899888e-01      -1.18066104e+00     
H    5.49964039e-01      1.87985401e+00      -8.41698839e-01     
H    9.56845433e-01      4.82891132e-01      -1.84283257e+00     
C    -1.10579231e+00     1.05089251e+00      -1.91581145e+00     
O    -2.14052702e+00     5.12243297e-01      -1.58472902e+00     
O    -9.52015462e-01     1.85217839e+00      -2.97141338e+00     
H    -1.81615585e+00     1.91933582e+00      -3.41632769e+00     
O    -1.97336738e+00     1.38926695e+00      1.31001704e+00      
H    -2.80913046e+00     1.30526846e+00      8.41387179e-01      
H    -2.20221469e+00     1.58366640e+00      2.22300740e+00      
O    2.55677765e+00      -2.39273982e-02     1.07251880e+00      
H    2.86940144e+00      5.00510973e-01      1.81365945e+00      
H    3.22091468e+00      -7.06324027e-01     9.48764593e-01      
O    -9.15459533e-01     -2.24288940e+00     -1.29296899e+00     
H    -1.81551519e+00     -2.10614989e+00     -1.60340667e+00     
H    -8.10719996e-01     -3.19380610e+00     -1.20076910e+00     
20
183.179770
N    1.19373396e-03      1.52371808e-02      -2.07769664e-02     
H    9.04956806e-01      -8.25201252e-02     4.82940353e-01      
H    -3.35941648e-01     -9.14400938e-01     -3.54707765e-01     
H    -7.26163854e-01     4.25365281e-01      6.05435899e-01      
C    2.02429825e-01      9.05764502e-01      -1.18161498e+00     
H    5.47212357e-01      1.87966563e+00      -8.42475637e-01     
H    9.54114317e-01      4.82632254e-01      -1.84365991e+00     
C    -1.10821435e+00     1.05174861e+00      -1.91799041e+00     
O    -2.14388232e+00     5.14138877e-01      -1.58873772e+00     
O    -9.51578484e-01     1.85351007e+00      -2.97309398e+00     
H    -1.81486005e+00     1.92199688e+00      -3.41951425e+00     
O    -1.97983580e+00     1.39261245e+00      1.31387162e+00      
H    -2.81847334e+00     1.30942200e+00      8.50443463e-01      
H    -2.20273125e+00     1.59820032e+00      2.22581948e+00      
O    2.57344899e+00      -2.49215746e-02     1.08068160e+00      
H    2.89210432e+00      5.06534887e-01      1.81410773e+00      
H    3.24351972e+00      -6.99966121e-01     9.49453895e-01      
O    -9.19015399e-01     -2.24954366e+00     -1.29628075e+00     
H    -1.81998737e+00     -2.11871899e+00     -1.60633477e+00     
H    -8.05150794e-01     -3.20016740e+00     -1.21293124e+00     
20
183.179770
N    7.46873717e-04      1.51550464e-02      -2.08439749e-02     
H    9.04475098e-01      -8.25312305e-02     4.82760069e-01      
H    -3.36255610e-01     -9.14532350e-01     -3.54595701e-01     
H    -7.26463112e-01     4.25183380e-01      6.05511786e-01      
C    2.01726815e-01      9.05730656e-01      -1.18185346e+00     
H    5.46524436e-01      1.87961854e+00      -8.42669837e-01     
H    9.53431538e-01      4.82567534e-01      -1.84386675e+00     
C    -1.10881986e+00     1.05196264e+00      -1.91853514e+00     
O    -2.14472115e+00     5.14612772e-01      -1.58973989e+00     
O    -9.51469239e-01     1.85384299e+00      -2.97351414e+00     
H    -1.81453610e+00     1.92266215e+00      -3.42031089e+00     
O    -1.98145290e+00     1.39344883e+00      1.31483527e+00      
H    -2.82080907e+00     1.31046039e+00      8.52707534e-01      
H    -2.20286039e+00     1.60183379e+00      2.22652251e+00      
O    2.57761683e+00      -2.51701186e-02     1.08272230e+00      
H    2.89778005e+00      5.08040866e-01      1.81421979e+00      
H    3.24917097e+00      -6.98376644e-01     9.49626221e-01      
O    -9.19904366e-01     -2.25120722e+00     -1.29710869e+00     
H    -1.82110542e+00     -2.12186127e+00     -1.60706680e+00     
H    -8.03758493e-01     -3.20175772e+00     -1.21597177e+00     
20
183.179770
N    3.00013476e-04      1.50729120e-02      -2.09109835e-02     
H    9.03993390e-01      -8.25423358e-02     4.82579785e-01      
H    -3.36569571e-01     -9.14663761e-01     -3.54483636e-01     
H    -7.26762370e-01     4.25001480e-01      6.05587673e-01      
C    2.01023805e-01      9.05696809e-01      -1.18209195e+00     
H    5.45836516e-01      1.87957144e+00      -8.42864037e-01     
H    9.52748759e-01      4.82502814e-01      -1.84407359e+00     
C    -1.10942537e+00     1.05217667e+00      -1.91907988e+00     
O    -2.14555997e+00     5.15086667e-01      -1.59074206e+00     
O    -9.51359994e-01     1.85417591e+00      -2.97393429e+00     
H    -1.81421215e+00     1.92332741e+00      -3.42110753e+00     
O    -1.98307000e+00     1.39428520e+00      1.31579892e+00      
H    -2.82314479e+00     1.31149877e+00      8.54971605e-01      
H    -2.20298953e+00     1.60546727e+00      2.22722553e+00      
O    2.58178466e+00      -2.54186627e-02     1.08476301e+00      
H    2.90345577e+00      5.09546845e-01      1.81433186e+00      
H    3.25482223e+00      -6.96787167e-01     9.49798546e-01      
O    -9.20793332e-01     -2.25287078e+00     -1.29793663e+00     
H    -1.82222346e+00     -2.12500355e+00     -1.60779883e+00     
H    -8.02366193e-01     -3.20334804e+00     -1.21901230e+00     
20
183.179770
N    -5.93707007e-04     1.49086433e-02      -2.10450006e-02     
H    9.03029975e-01      -8.25645465e-02     4.82219218e-01      
H    -3.37197493e-01     -9.14926584e-01     -3.54259506e-01     
H    -7.27360886e-01     4.24637678e-01      6.05739448e-01      
C    1.99617784e-01      9.05629116e-01      -1.18256892e+00     
H    5.44460674e-01      1.87947726e+00      -8.43252436e-01     
H    9.51383202e-01      4.82373375e-01      -1.84448726e+00     
C    -1.11063639e+00     1.05260472e+00      -1.92016936e+00     
O    -2.14723763e+00     5.16034457e-01      -1.59274641e+00     
O    -9.51141505e-01     1.85484175e+00      -2.97477459e+00     
H    -1.81356426e+00     1.92465794e+00      -3.42270082e+00     
O    -1.98630421e+00     1.39595795e+00      1.31772621e+00      
H    -2.82781623e+00     1.31357554e+00      8.59499747e-01      
H    -2.20324781e+00     1.61273423e+00      2.22863157e+00      
O    2.59012034e+00      -2.59157509e-02     1.08884441e+00      
H    2.91480721e+00      5.12558802e-01      1.81455600e+00      
H    3.26612475e+00      -6.93608214e-01     9.50143197e-01      
O    -9.22571265e-01     -2.25619791e+00     -1.29959252e+00     
H    -1.82445955e+00     -2.13128810e+00     -1.60926288e+00     
H    -7.99581592e-01     -3.20652869e+00     -1.22509337e+00     
20
183.179770
N    -1.48742749e-03     1.47443746e-02      -2.11790177e-02     
H    9.02066559e-01      -8.25867572e-02     4.81858650e-01      
H    -3.37825416e-01     -9.15189407e-01     -3.54035377e-01     
H    -7.27959402e-01     4.24273877e-01      6.05891223e-01      
C    1.98211764e-01      9.05561423e-01      -1.18304588e+00     
H    5.43084833e-01      1.87938307e+00      -8.43640835e-01     
H    9.50017644e-01      4.82243935e-01      -1.84490094e+00     
C    -1.11184741e+00     1.05303277e+00      -1.92125884e+00     
O    -2.14891528e+00     5.16982247e-01      -1.59475076e+00     
O    -9.50923016e-01     1.85550759e+00      -2.97561490e+00     
H    -1.81291636e+00     1.92598848e+00      -3.42429410e+00     
O    -1.98953841e+00     1.39763070e+00      1.31965350e+00      
H    -2.83248768e+00     1.31565231e+00      8.64027888e-01      
H    -2.20350608e+00     1.62000118e+00      2.23003762e+00      
O    2.59845601e+00      -2.64128390e-02     1.09292581e+00      
H    2.92615866e+00      5.15570760e-01      1.81478013e+00      
H    3.27742726e+00      -6.90429261e-01     9.50487849e-01      
O    -9.24349198e-01     -2.25952504e+00     -1.30124840e+00     
H    -1.82669565e+00     -2.13757265e+00     -1.61072693e+00     
H    -7.96796990e-01     -3.20970934e+00     -1.23117443e+00     
20
183.179770
N    -2.38114797e-03     1.45801059e-02      -2.13130348e-02     
H    9.01103144e-01      -8.26089678e-02     4.81498083e-01      
H    -3.38453338e-01     -9.15452230e-01     -3.53811247e-01     
H    -7.28557917e-01     4.23910076e-01      6.06042997e-01      
C    1.96805744e-01      9.05493731e-01      -1.18352285e+00     
H    5.41708992e-01      1.87928888e+00      -8.44029234e-01     
H    9.48652086e-01      4.82114496e-01      -1.84531461e+00     
C    -1.11305843e+00     1.05346083e+00      -1.92234831e+00     
O    -2.15059293e+00     5.17930036e-01      -1.59675511e+00     
O    -9.50704526e-01     1.85617342e+00      -2.97645520e+00     
H    -1.81226846e+00     1.92731901e+00      -3.42588738e+00     
O    -1.99277262e+00     1.39930345e+00      1.32158080e+00      
H    -2.83715912e+00     1.31772908e+00      8.68556030e-01      
H    -2.20376436e+00     1.62726814e+00      2.23144366e+00      
O    2.60679168e+00      -2.69099272e-02     1.09700722e+00      
H    2.93751010e+00      5.18582717e-01      1.81500427e+00      
H    3.28872978e+00      -6.87250307e-01     9.50832500e-01      
O    -9.26127131e-01     -2.26285217e+00     -1.30290428e+00     
H    -1.82893174e+00     -2.14385721e+00     -1.61219099e+00     
H    -7.94012389e-01     -3.21288998e+00     -1.23725550e+00     
20
183.179770
N    -3.27486845e-03     1.44158371e-02      -2.14470519e-02     
H    9.00139728e-01      -8.26311785e-02     4.81137515e-01      
H    -3.39081261e-01     -9.15715053e-01     -3.53587118e-01     
H    -7.29156433e-01     4.23546275e-01      6.06194772e-01      
C    1.95399724e-01      9.05426038e-01      -1.18399982e+00     
H    5.40333151e-01      1.87919469e+00      -8.44417634e-01     
H    9.47286528e-01      4.81985056e-01      -1.84572829e+00     
C    -1.11426945e+00     1.05388888e+00      -1.92343779e+00     
O    -2.15227058e+00     5.18877826e-01      -1.59875945e+00     
O    -9.50486037e-01     1.85683926e+00      -2.97729550e+00     
H    -1.81162056e+00     1.92864954e+00      -3.42748066e+00     
O    -1.99600682e+00     1.40097620e+00      1.32350809e+00      
H    -2.84183057e+00     1.31980585e+00      8.73084172e-01      
H    -2.20402264e+00     1.63453509e+00      2.23284971e+00      
O    2.61512735e+00      -2.74070153e-02     1.10108862e+00      
H    2.94886155e+00      5.21594675e-01      1.81522840e+00      
H    3.30003229e+00      -6.84071354e-01     9.51177151e-01      
O    -9.27905064e-01     -2.26617929e+00     -1.30456016e+00     
H    -1.83116783e+00     -2.15014176e+00     -1.61365504e+00     
H    -7.91227788e-01     -3.21607063e+00     -1.24333656e+00     
20
183.179770
N    -5.06230942e-03     1.40872997e-02      -2.17150861e-02     
H    8.98212897e-01      -8.26755999e-02     4.80416380e-01      
H    -3.40337105e-01     -9.16240699e-01     -3.53138859e-01     
H    -7.30353465e-01     4.22818672e-01      6.06498322e-01      
C    1.92587684e-01      9.05290652e-01      -1.18495376e+00     
H    5.37581469e-01      1.87900632e+00      -8.45194432e-01     
H    9.44555412e-01      4.81726178e-01      -1.84655564e+00     
C    -1.11669149e+00     1.05474499e+00      -1.92561674e+00     
O    -2.15562588e+00     5.20773406e-01      -1.60276815e+00     
O    -9.50049058e-01     1.85817094e+00      -2.97897611e+00     
H    -1.81032476e+00     1.93131060e+00      -3.43066722e+00     
O    -2.00247523e+00     1.40432170e+00      1.32736268e+00      
H    -2.85117346e+00     1.32395939e+00      8.82140456e-01      
H    -2.20453920e+00     1.64906900e+00      2.23566180e+00      
O    2.63179869e+00      -2.84011917e-02     1.10925143e+00      
H    2.97156444e+00      5.27618590e-01      1.81567667e+00      
H    3.32263732e+00      -6.77713447e-01     9.51866453e-01      
O    -9.31460930e-01     -2.27283355e+00     -1.30787193e+00     
H    -1.83564001e+00     -2.16271087e+00     -1.61658315e+00     
H    -7.85658586e-01     -3.22243192e+00     -1.25549869e+00     
