20
250.201537
N    2.57688357e-03      1.44252898e-02      -1.90814709e-02     
H    9.08371305e-01      -8.17271829e-02     4.83222392e-01      
H    -3.33682095e-01     -9.16279293e-01     -3.51347206e-01     
H    -7.23951275e-01     4.23647879e-01      6.08911400e-01      
C    1.99997202e-01      9.04421276e-01      -1.18072938e+00     
H    5.44926569e-01      1.87838002e+00      -8.42309479e-01     
H    9.51645857e-01      4.81972735e-01      -1.84304468e+00     
C    -1.11047892e+00     1.05081195e+00      -1.91760378e+00     
O    -2.14803254e+00     5.14713919e-01      -1.59122692e+00     
O    -9.50815426e-01     1.85291678e+00      -2.97195598e+00     
H    -1.81290772e+00     1.92308433e+00      -3.42023817e+00     
O    -1.97608720e+00     1.39146509e+00      1.31444705e+00      
H    -2.80511182e+00     1.32348642e+00      8.30832128e-01      
H    -2.21797908e+00     1.58662365e+00      2.22399211e+00      
O    2.58140734e+00      -1.26734455e-02     1.06682604e+00      
H    2.82168054e+00      4.20011743e-01      1.90534484e+00      
H    3.17286959e+00      -7.85704068e-01     1.04124199e+00      
O    -9.15932785e-01     -2.24840557e+00     -1.29406723e+00     
H    -1.80804053e+00     -2.09979797e+00     -1.62246593e+00     
H    -8.23475716e-01     -3.20117763e+00     -1.20718828e+00     
20
250.201537
N    2.45452629e-03      1.46693297e-02      -1.94718405e-02     
H    9.07758534e-01      -8.19198658e-02     4.83242024e-01      
H    -3.34090003e-01     -9.15743998e-01     -3.52243378e-01     
H    -7.24354791e-01     4.24168180e-01      6.08004581e-01      
C    2.00956863e-01      9.04774005e-01      -1.18083154e+00     
H    5.45841976e-01      1.87872497e+00      -8.42253919e-01     
H    9.52604361e-01      4.82169975e-01      -1.84309507e+00     
C    -1.10961003e+00     1.05093910e+00      -1.91742807e+00     
O    -2.14657557e+00     5.14333211e-01      -1.59010353e+00     
O    -9.51060813e-01     1.85289865e+00      -2.97203041e+00     
H    -1.81355777e+00     1.92247983e+00      -3.41965887e+00     
O    -1.97621580e+00     1.39133374e+00      1.31382137e+00      
H    -2.80728434e+00     1.31945112e+00      8.34602927e-01      
H    -2.21410255e+00     1.58770108e+00      2.22409744e+00      
O    2.57733384e+00      -1.56112057e-02     1.06926958e+00      
H    2.83644862e+00      4.40889540e-01      1.88247953e+00      
H    3.18770649e+00      -7.65064319e-01     1.01820880e+00      
O    -9.16258955e-01     -2.24785831e+00     -1.29420664e+00     
H    -1.81046821e+00     -2.10295709e+00     -1.61806712e+00     
H    -8.19590636e-01     -3.20012991e+00     -1.20710375e+00     
20
250.201537
N    2.39334765e-03      1.47913497e-02      -1.96670253e-02     
H    9.07452148e-01      -8.20162072e-02     4.83251840e-01      
H    -3.34293956e-01     -9.15476351e-01     -3.52691464e-01     
H    -7.24556549e-01     4.24428330e-01      6.07551171e-01      
C    2.01436693e-01      9.04950370e-01      -1.18088262e+00     
H    5.46299680e-01      1.87889744e+00      -8.42226139e-01     
H    9.53083614e-01      4.82268594e-01      -1.84312027e+00     
C    -1.10917558e+00     1.05100268e+00      -1.91734021e+00     
O    -2.14584709e+00     5.14142857e-01      -1.58954184e+00     
O    -9.51183506e-01     1.85288958e+00      -2.97206762e+00     
H    -1.81388280e+00     1.92217758e+00      -3.41936922e+00     
O    -1.97628010e+00     1.39126807e+00      1.31350853e+00      
H    -2.80837060e+00     1.31743347e+00      8.36488326e-01      
H    -2.21216429e+00     1.58823979e+00      2.22415011e+00      
O    2.57529708e+00      -1.70800858e-02     1.07049135e+00      
H    2.84383267e+00      4.51328438e-01      1.87104687e+00      
H    3.19512495e+00      -7.54744445e-01     1.00669221e+00      
O    -9.16422040e-01     -2.24758468e+00     -1.29427635e+00     
H    -1.81168206e+00     -2.10453665e+00     -1.61586772e+00     
H    -8.17648096e-01     -3.19960605e+00     -1.20706149e+00     
20
250.201537
N    2.33216901e-03      1.49133697e-02      -1.98622101e-02     
H    9.07145763e-01      -8.21125487e-02     4.83261656e-01      
H    -3.34497910e-01     -9.15208704e-01     -3.53139550e-01     
H    -7.24758307e-01     4.24688480e-01      6.07097762e-01      
C    2.01916523e-01      9.05126735e-01      -1.18093370e+00     
H    5.46757383e-01      1.87906992e+00      -8.42198359e-01     
H    9.53562866e-01      4.82367214e-01      -1.84314546e+00     
C    -1.10874113e+00     1.05106626e+00      -1.91725236e+00     
O    -2.14511860e+00     5.13952503e-01      -1.58898015e+00     
O    -9.51306199e-01     1.85288051e+00      -2.97210483e+00     
H    -1.81420783e+00     1.92187534e+00      -3.41907957e+00     
O    -1.97634440e+00     1.39120239e+00      1.31319569e+00      
H    -2.80945686e+00     1.31541582e+00      8.38373725e-01      
H    -2.21022603e+00     1.58877851e+00      2.22420277e+00      
O    2.57326033e+00      -1.85489660e-02     1.07171312e+00      
H    2.85121671e+00      4.61767337e-01      1.85961422e+00      
H    3.20254340e+00      -7.44424571e-01     9.95175615e-01      
O    -9.16585126e-01     -2.24731105e+00     -1.29434605e+00     
H    -1.81289590e+00     -2.10611621e+00     -1.61366832e+00     
H    -8.15705556e-01     -3.19908219e+00     -1.20701923e+00     
20
250.201537
N    2.27099036e-03      1.50353896e-02      -2.00573949e-02     
H    9.06839377e-01      -8.22088901e-02     4.83271472e-01      
H    -3.34701864e-01     -9.14941057e-01     -3.53587637e-01     
H    -7.24960064e-01     4.24948631e-01      6.06644352e-01      
C    2.02396354e-01      9.05303100e-01      -1.18098477e+00     
H    5.47215087e-01      1.87924239e+00      -8.42170578e-01     
H    9.54042118e-01      4.82465834e-01      -1.84317066e+00     
C    -1.10830668e+00     1.05112983e+00      -1.91716450e+00     
O    -2.14439012e+00     5.13762149e-01      -1.58841845e+00     
O    -9.51428893e-01     1.85287144e+00      -2.97214204e+00     
H    -1.81453286e+00     1.92157309e+00      -3.41878992e+00     
O    -1.97640869e+00     1.39113672e+00      1.31288285e+00      
H    -2.81054312e+00     1.31339817e+00      8.40259124e-01      
H    -2.20828776e+00     1.58931722e+00      2.22425544e+00      
O    2.57122358e+00      -2.00178461e-02     1.07293489e+00      
H    2.85860075e+00      4.72206235e-01      1.84818156e+00      
H    3.20996185e+00      -7.34104697e-01     9.83659022e-01      
O    -9.16748211e-01     -2.24703742e+00     -1.29441576e+00     
H    -1.81410975e+00     -2.10769576e+00     -1.61146892e+00     
H    -8.13763016e-01     -3.19855833e+00     -1.20697696e+00     
20
250.201537
N    2.20981172e-03      1.51574096e-02      -2.02525797e-02     
H    9.06532992e-01      -8.23052316e-02     4.83281288e-01      
H    -3.34905818e-01     -9.14673409e-01     -3.54035723e-01     
H    -7.25161822e-01     4.25208781e-01      6.06190943e-01      
C    2.02876184e-01      9.05479465e-01      -1.18103585e+00     
H    5.47672791e-01      1.87941487e+00      -8.42142798e-01     
H    9.54521370e-01      4.82564454e-01      -1.84319585e+00     
C    -1.10787223e+00     1.05119341e+00      -1.91707664e+00     
O    -2.14366164e+00     5.13571795e-01      -1.58785676e+00     
O    -9.51551586e-01     1.85286237e+00      -2.97217926e+00     
H    -1.81485789e+00     1.92127084e+00      -3.41850027e+00     
O    -1.97647299e+00     1.39107105e+00      1.31257001e+00      
H    -2.81162938e+00     1.31138053e+00      8.42144523e-01      
H    -2.20634950e+00     1.58985593e+00      2.22430811e+00      
O    2.56918683e+00      -2.14867262e-02     1.07415666e+00      
H    2.86598479e+00      4.82645133e-01      1.83674890e+00      
H    3.21738030e+00      -7.23784822e-01     9.72142430e-01      
O    -9.16911296e-01     -2.24676379e+00     -1.29448546e+00     
H    -1.81532359e+00     -2.10927532e+00     -1.60926952e+00     
H    -8.11820475e-01     -3.19803447e+00     -1.20693470e+00     
20
250.201537
N    2.17922240e-03      1.52184196e-02      -2.03501721e-02     
H    9.06379799e-01      -8.23534023e-02     4.83286196e-01      
H    -3.35007795e-01     -9.14539586e-01     -3.54259766e-01     
H    -7.25262701e-01     4.25338856e-01      6.05964238e-01      
C    2.03116099e-01      9.05567648e-01      -1.18106139e+00     
H    5.47901643e-01      1.87950111e+00      -8.42128908e-01     
H    9.54760997e-01      4.82613763e-01      -1.84320845e+00     
C    -1.10765500e+00     1.05122520e+00      -1.91703271e+00     
O    -2.14329740e+00     5.13476618e-01      -1.58757591e+00     
O    -9.51612933e-01     1.85285783e+00      -2.97219786e+00     
H    -1.81502041e+00     1.92111972e+00      -3.41835544e+00     
O    -1.97650514e+00     1.39103821e+00      1.31241359e+00      
H    -2.81217251e+00     1.31037170e+00      8.43087222e-01      
H    -2.20538037e+00     1.59012529e+00      2.22433444e+00      
O    2.56816845e+00      -2.22211662e-02     1.07476755e+00      
H    2.86967682e+00      4.87864582e-01      1.83103257e+00      
H    3.22108952e+00      -7.18624885e-01     9.66384133e-01      
O    -9.16992838e-01     -2.24662697e+00     -1.29452031e+00     
H    -1.81593051e+00     -2.11006510e+00     -1.60816982e+00     
H    -8.10849205e-01     -3.19777254e+00     -1.20691357e+00     
20
250.201537
N    2.14863308e-03      1.52794295e-02      -2.04477645e-02     
H    9.06226606e-01      -8.24015730e-02     4.83291104e-01      
H    -3.35109772e-01     -9.14405762e-01     -3.54483809e-01     
H    -7.25363580e-01     4.25468932e-01      6.05737533e-01      
C    2.03356015e-01      9.05655830e-01      -1.18108693e+00     
H    5.48130494e-01      1.87958734e+00      -8.42115018e-01     
H    9.55000623e-01      4.82663073e-01      -1.84322105e+00     
C    -1.10743778e+00     1.05125698e+00      -1.91698879e+00     
O    -2.14293315e+00     5.13381441e-01      -1.58729506e+00     
O    -9.51674280e-01     1.85285330e+00      -2.97221647e+00     
H    -1.81518292e+00     1.92096860e+00      -3.41821062e+00     
O    -1.97653729e+00     1.39100537e+00      1.31225717e+00      
H    -2.81271564e+00     1.30936288e+00      8.44029922e-01      
H    -2.20441123e+00     1.59039465e+00      2.22436077e+00      
O    2.56715007e+00      -2.29556063e-02     1.07537843e+00      
H    2.87336884e+00      4.93084032e-01      1.82531625e+00      
H    3.22479875e+00      -7.13464948e-01     9.60625837e-01      
O    -9.17074381e-01     -2.24649016e+00     -1.29455517e+00     
H    -1.81653744e+00     -2.11085488e+00     -1.60707012e+00     
H    -8.09877935e-01     -3.19751061e+00     -1.20689243e+00     
20
250.201537
N    2.02627580e-03      1.55234695e-02      -2.08381341e-02     
H    9.05613836e-01      -8.25942560e-02     4.83310736e-01      
H    -3.35517680e-01     -9.13870468e-01     -3.55379981e-01     
H    -7.25767096e-01     4.25989232e-01      6.04830715e-01      
C    2.04315675e-01      9.06008560e-01      -1.18118909e+00     
H    5.49045902e-01      1.87993230e+00      -8.42059458e-01     
H    9.55959127e-01      4.82860313e-01      -1.84327143e+00     
C    -1.10656888e+00     1.05138414e+00      -1.91681307e+00     
O    -2.14147619e+00     5.13000733e-01      -1.58617168e+00     
O    -9.51919666e-01     1.85283516e+00      -2.97229089e+00     
H    -1.81583298e+00     1.92036410e+00      -3.41763132e+00     
O    -1.97666589e+00     1.39087403e+00      1.31163149e+00      
H    -2.81488816e+00     1.30532758e+00      8.47800720e-01      
H    -2.20053471e+00     1.59147207e+00      2.22446611e+00      
O    2.56307657e+00      -2.58933665e-02     1.07782197e+00      
H    2.88813692e+00      5.13961828e-01      1.80245093e+00      
H    3.23963565e+00      -6.92825200e-01     9.37592651e-01      
O    -9.17400551e-01     -2.24594290e+00     -1.29469457e+00     
H    -1.81896512e+00     -2.11401400e+00     -1.60267132e+00     
H    -8.05992855e-01     -3.19646289e+00     -1.20680791e+00     
20
250.201537
N    1.99568648e-03      1.55844794e-02      -2.09357265e-02     
H    9.05460643e-01      -8.26424267e-02     4.83315644e-01      
H    -3.35619657e-01     -9.13736644e-01     -3.55604024e-01     
H    -7.25867975e-01     4.26119308e-01      6.04604010e-01      
C    2.04555591e-01      9.06096742e-01      -1.18121463e+00     
H    5.49274753e-01      1.88001853e+00      -8.42045568e-01     
H    9.56198753e-01      4.82909623e-01      -1.84328403e+00     
C    -1.10635166e+00     1.05141592e+00      -1.91676915e+00     
O    -2.14111194e+00     5.12905556e-01      -1.58589083e+00     
O    -9.51981013e-01     1.85283063e+00      -2.97230950e+00     
H    -1.81599549e+00     1.92021298e+00      -3.41748650e+00     
O    -1.97669804e+00     1.39084119e+00      1.31147507e+00      
H    -2.81543129e+00     1.30431876e+00      8.48743420e-01      
H    -2.19956557e+00     1.59174143e+00      2.22449244e+00      
O    2.56205819e+00      -2.66278066e-02     1.07843285e+00      
H    2.89182894e+00      5.19181278e-01      1.79673461e+00      
H    3.24334488e+00      -6.87665263e-01     9.31834355e-01      
O    -9.17482094e-01     -2.24580609e+00     -1.29472943e+00     
H    -1.81957205e+00     -2.11480378e+00     -1.60157162e+00     
H    -8.05021585e-01     -3.19620096e+00     -1.20678677e+00     
20
250.201537
N    1.96509716e-03      1.56454894e-02      -2.10333189e-02     
H    9.05307450e-01      -8.26905974e-02     4.83320552e-01      
H    -3.35721634e-01     -9.13602821e-01     -3.55828067e-01     
H    -7.25968854e-01     4.26249383e-01      6.04377305e-01      
C    2.04795506e-01      9.06184925e-01      -1.18124017e+00     
H    5.49503605e-01      1.88010477e+00      -8.42031678e-01     
H    9.56438380e-01      4.82958932e-01      -1.84329663e+00     
C    -1.10613443e+00     1.05144771e+00      -1.91672522e+00     
O    -2.14074770e+00     5.12810379e-01      -1.58560998e+00     
O    -9.52042360e-01     1.85282609e+00      -2.97232810e+00     
H    -1.81615801e+00     1.92006186e+00      -3.41734167e+00     
O    -1.97673019e+00     1.39080835e+00      1.31131865e+00      
H    -2.81597442e+00     1.30330993e+00      8.49686119e-01      
H    -2.19859644e+00     1.59201079e+00      2.22451877e+00      
O    2.56103981e+00      -2.73622466e-02     1.07904374e+00      
H    2.89552097e+00      5.24400727e-01      1.79101828e+00      
H    3.24705410e+00      -6.82505326e-01     9.26076058e-01      
O    -9.17563636e-01     -2.24566927e+00     -1.29476428e+00     
H    -1.82017897e+00     -2.11559356e+00     -1.60047192e+00     
H    -8.04050315e-01     -3.19593903e+00     -1.20676564e+00     
20
250.201537
N    1.90391852e-03      1.57675094e-02      -2.12285037e-02     
H    9.05001065e-01      -8.27869389e-02     4.83330368e-01      
H    -3.35925588e-01     -9.13335173e-01     -3.56276153e-01     
H    -7.26170612e-01     4.26509533e-01      6.03923896e-01      
C    2.05275336e-01      9.06361290e-01      -1.18129125e+00     
H    5.49961309e-01      1.88027725e+00      -8.42003898e-01     
H    9.56917632e-01      4.83057552e-01      -1.84332182e+00     
C    -1.10569998e+00     1.05151129e+00      -1.91663736e+00     
O    -2.14001922e+00     5.12620025e-01      -1.58504829e+00     
O    -9.52165053e-01     1.85281702e+00      -2.97236532e+00     
H    -1.81648304e+00     1.91975961e+00      -3.41705202e+00     
O    -1.97679449e+00     1.39074268e+00      1.31100581e+00      
H    -2.81706068e+00     1.30129229e+00      8.51571518e-01      
H    -2.19665818e+00     1.59254950e+00      2.22457144e+00      
O    2.55900306e+00      -2.88311267e-02     1.08026551e+00      
H    2.90290501e+00      5.34839625e-01      1.77958562e+00      
H    3.25447255e+00      -6.72185451e-01     9.14559466e-01      
O    -9.17726721e-01     -2.24539564e+00     -1.29483398e+00     
H    -1.82139281e+00     -2.11717312e+00     -1.59827252e+00     
H    -8.02107774e-01     -3.19541517e+00     -1.20672338e+00     
20
250.201537
N    1.84273987e-03      1.58895293e-02      -2.14236885e-02     
H    9.04694679e-01      -8.28832803e-02     4.83340184e-01      
H    -3.36129542e-01     -9.13067526e-01     -3.56724240e-01     
H    -7.26372369e-01     4.26769684e-01      6.03470486e-01      
C    2.05755167e-01      9.06537655e-01      -1.18134232e+00     
H    5.50419013e-01      1.88044972e+00      -8.41976117e-01     
H    9.57396884e-01      4.83156172e-01      -1.84334702e+00     
C    -1.10526553e+00     1.05157486e+00      -1.91654950e+00     
O    -2.13929074e+00     5.12429671e-01      -1.58448659e+00     
O    -9.52287747e-01     1.85280795e+00      -2.97240253e+00     
H    -1.81680807e+00     1.91945736e+00      -3.41676237e+00     
O    -1.97685878e+00     1.39067701e+00      1.31069297e+00      
H    -2.81814694e+00     1.29927464e+00      8.53456917e-01      
H    -2.19471991e+00     1.59308821e+00      2.22462411e+00      
O    2.55696631e+00      -3.03000068e-02     1.08148728e+00      
H    2.91028905e+00      5.45278523e-01      1.76815296e+00      
H    3.26189100e+00      -6.61865577e-01     9.03042873e-01      
O    -9.17889806e-01     -2.24512201e+00     -1.29490369e+00     
H    -1.82260666e+00     -2.11875267e+00     -1.59607312e+00     
H    -8.00165234e-01     -3.19489131e+00     -1.20668111e+00     
20
250.201537
N    1.78156123e-03      1.60115493e-02      -2.16188733e-02     
H    9.04388294e-01      -8.29796218e-02     4.83350000e-01      
H    -3.36333496e-01     -9.12799879e-01     -3.57172326e-01     
H    -7.26574127e-01     4.27029834e-01      6.03017077e-01      
C    2.06234997e-01      9.06714020e-01      -1.18139340e+00     
H    5.50876716e-01      1.88062220e+00      -8.41948337e-01     
H    9.57876136e-01      4.83254792e-01      -1.84337221e+00     
C    -1.10483108e+00     1.05163844e+00      -1.91646165e+00     
O    -2.13856225e+00     5.12239317e-01      -1.58392490e+00     
O    -9.52410440e-01     1.85279888e+00      -2.97243974e+00     
H    -1.81713310e+00     1.91915512e+00      -3.41647272e+00     
O    -1.97692308e+00     1.39061133e+00      1.31038013e+00      
H    -2.81923320e+00     1.29725699e+00      8.55342316e-01      
H    -2.19278165e+00     1.59362693e+00      2.22467677e+00      
O    2.55492956e+00      -3.17688870e-02     1.08270905e+00      
H    2.91767309e+00      5.55717422e-01      1.75672031e+00      
H    3.26930945e+00      -6.51545703e-01     8.91526280e-01      
O    -9.18052892e-01     -2.24484838e+00     -1.29497339e+00     
H    -1.82382050e+00     -2.12033223e+00     -1.59387372e+00     
H    -7.98222694e-01     -3.19436745e+00     -1.20663885e+00     
20
250.201537
N    1.72038259e-03      1.61335693e-02      -2.18140581e-02     
H    9.04081908e-01      -8.30759632e-02     4.83359816e-01      
H    -3.36537449e-01     -9.12532232e-01     -3.57620412e-01     
H    -7.26775885e-01     4.27289984e-01      6.02563667e-01      
C    2.06714827e-01      9.06890385e-01      -1.18144448e+00     
H    5.51334420e-01      1.88079467e+00      -8.41920557e-01     
H    9.58355389e-01      4.83353411e-01      -1.84339741e+00     
C    -1.10439663e+00     1.05170202e+00      -1.91637379e+00     
O    -2.13783377e+00     5.12048963e-01      -1.58336321e+00     
O    -9.52533133e-01     1.85278981e+00      -2.97247695e+00     
H    -1.81745813e+00     1.91885287e+00      -3.41618307e+00     
O    -1.97698738e+00     1.39054566e+00      1.31006729e+00      
H    -2.82031946e+00     1.29523934e+00      8.57227715e-01      
H    -2.19084339e+00     1.59416564e+00      2.22472944e+00      
O    2.55289280e+00      -3.32377671e-02     1.08393082e+00      
H    2.92505714e+00      5.66156320e-01      1.74528765e+00      
H    3.27672791e+00      -6.41225829e-01     8.80009687e-01      
O    -9.18215977e-01     -2.24457475e+00     -1.29504310e+00     
H    -1.82503435e+00     -2.12191179e+00     -1.59167432e+00     
H    -7.96280154e-01     -3.19384359e+00     -1.20659659e+00     
20
250.201537
N    1.59802531e-03      1.63776092e-02      -2.22044277e-02     
H    9.03469137e-01      -8.32686461e-02     4.83379448e-01      
H    -3.36945357e-01     -9.11996937e-01     -3.58516584e-01     
H    -7.27179401e-01     4.27810285e-01      6.01656848e-01      
C    2.07674488e-01      9.07243114e-01      -1.18154664e+00     
H    5.52249827e-01      1.88113962e+00      -8.41864997e-01     
H    9.59313893e-01      4.83550651e-01      -1.84344780e+00     
C    -1.10352774e+00     1.05182917e+00      -1.91619808e+00     
O    -2.13637680e+00     5.11668255e-01      -1.58223982e+00     
O    -9.52778520e-01     1.85277168e+00      -2.97255138e+00     
H    -1.81810818e+00     1.91824837e+00      -3.41560377e+00     
O    -1.97711598e+00     1.39041431e+00      1.30944161e+00      
H    -2.82249198e+00     1.29120404e+00      8.60998514e-01      
H    -2.18696686e+00     1.59524307e+00      2.22483477e+00      
O    2.54881930e+00      -3.61755273e-02     1.08637436e+00      
H    2.93982522e+00      5.87034117e-01      1.72242234e+00      
H    3.29156481e+00      -6.20586080e-01     8.56976502e-01      
O    -9.18542147e-01     -2.24402749e+00     -1.29518251e+00     
H    -1.82746203e+00     -2.12507091e+00     -1.58727551e+00     
H    -7.92395074e-01     -3.19279587e+00     -1.20651206e+00     
