20
85.056951
N    -2.30379617e-02     1.18123797e-02      -2.58600493e-02     
H    8.77548723e-01      -9.00832586e-02     4.82344993e-01      
H    -3.58715010e-01     -9.17492407e-01     -3.62291902e-01     
H    -7.49626937e-01     4.24639674e-01      5.99533389e-01      
C    1.95572516e-01      9.04059242e-01      -1.18205332e+00     
H    5.44193780e-01      1.87430679e+00      -8.36136038e-01     
H    9.51092195e-01      4.77132280e-01      -1.83741512e+00     
C    -1.10649588e+00     1.06110437e+00      -1.93032011e+00     
O    -2.14781899e+00     5.28896584e-01      -1.61084630e+00     
O    -9.34352725e-01     1.86491130e+00      -2.98199415e+00     
H    -1.79291174e+00     1.94066393e+00      -3.43659145e+00     
O    -1.96283633e+00     1.40001049e+00      1.35783656e+00      
H    -2.81839496e+00     1.35140482e+00      9.18738781e-01      
H    -2.15235660e+00     1.58403022e+00      2.28261858e+00      
O    2.53839846e+00      -2.14076545e-02     1.06153004e+00      
H    2.85510613e+00      5.07814700e-01      1.79748561e+00      
H    3.20655905e+00      -6.98895524e-01     9.32760697e-01      
O    -8.89611118e-01     -2.28467269e+00     -1.28274730e+00     
H    -1.78676424e+00     -2.19058943e+00     -1.61952372e+00     
H    -7.50351536e-01     -3.22921466e+00     -1.16675413e+00     
20
85.056951
N    -1.67566077e-02     1.27096471e-02      -2.45557743e-02     
H    8.84641598e-01      -8.81869225e-02     4.82583974e-01      
H    -3.52864689e-01     -9.16653834e-01     -3.60451900e-01     
H    -7.43611538e-01     4.24912026e-01      6.00971073e-01      
C    1.97638348e-01      9.04502480e-01      -1.18182449e+00     
H    5.45292384e-01      1.87567005e+00      -8.37623838e-01     
H    9.52189115e-01      4.78539634e-01      -1.83887290e+00     
C    -1.10662274e+00     1.05865842e+00      -1.92696532e+00     
O    -2.14641541e+00     5.24970210e-01      -1.60481807e+00     
O    -9.38713787e-01     1.86189453e+00      -2.97955903e+00     
H    -1.79856079e+00     1.93566454e+00      -3.43192383e+00     
O    -1.96627765e+00     1.39774279e+00      1.34636350e+00      
H    -2.81724669e+00     1.34038992e+00      9.00532916e-01      
H    -2.16488569e+00     1.58575600e+00      2.26806729e+00      
O    2.54507718e+00      -2.21618625e-02     1.06529758e+00      
H    2.86151782e+00      5.06741757e-01      1.80158510e+00      
H    3.21297359e+00      -6.99957911e-01     9.36847834e-01      
O    -8.96517705e-01     -2.27505865e+00     -1.28571670e+00     
H    -1.79451100e+00     -2.17105068e+00     -1.61586047e+00     
H    -7.64747500e-01     -3.22115768e+00     -1.17677814e+00     
20
85.056951
N    -1.36159307e-02     1.31582809e-02      -2.39036368e-02     
H    8.88188035e-01      -8.72387545e-02     4.82703465e-01      
H    -3.49939528e-01     -9.16234548e-01     -3.59531899e-01     
H    -7.40603838e-01     4.25048202e-01      6.01689915e-01      
C    1.98671264e-01      9.04724099e-01      -1.18171008e+00     
H    5.45841687e-01      1.87635168e+00      -8.38367738e-01     
H    9.52737575e-01      4.79243310e-01      -1.83960179e+00     
C    -1.10668617e+00     1.05743544e+00      -1.92528792e+00     
O    -2.14571362e+00     5.23007023e-01      -1.60180395e+00     
O    -9.40894318e-01     1.86038615e+00      -2.97834147e+00     
H    -1.80138532e+00     1.93316484e+00      -3.42959002e+00     
O    -1.96799831e+00     1.39660894e+00      1.34062698e+00      
H    -2.81667256e+00     1.33488247e+00      8.91429983e-01      
H    -2.17115024e+00     1.58661890e+00      2.26079165e+00      
O    2.54841653e+00      -2.25389665e-02     1.06718135e+00      
H    2.86472366e+00      5.06205286e-01      1.80363485e+00      
H    3.21618086e+00      -7.00489105e-01     9.38891402e-01      
O    -8.99970999e-01     -2.27025163e+00     -1.28720139e+00     
H    -1.79838438e+00     -2.16128131e+00     -1.61402885e+00     
H    -7.71945483e-01     -3.21712919e+00     -1.18179014e+00     
20
85.056951
N    -1.04752537e-02     1.36069146e-02      -2.32514993e-02     
H    8.91734472e-01      -8.62905865e-02     4.82822956e-01      
H    -3.47014368e-01     -9.15815261e-01     -3.58611898e-01     
H    -7.37596138e-01     4.25184378e-01      6.02408756e-01      
C    1.99704180e-01      9.04945718e-01      -1.18159566e+00     
H    5.46390989e-01      1.87703331e+00      -8.39111638e-01     
H    9.53286035e-01      4.79946987e-01      -1.84033068e+00     
C    -1.10674960e+00     1.05621246e+00      -1.92361052e+00     
O    -2.14501183e+00     5.21043835e-01      -1.59878984e+00     
O    -9.43074849e-01     1.85887777e+00      -2.97712391e+00     
H    -1.80420985e+00     1.93066514e+00      -3.42725621e+00     
O    -1.96971896e+00     1.39547509e+00      1.33489045e+00      
H    -2.81609843e+00     1.32937502e+00      8.82327051e-01      
H    -2.17741479e+00     1.58748179e+00      2.25351601e+00      
O    2.55175589e+00      -2.29160705e-02     1.06906512e+00      
H    2.86792951e+00      5.05668815e-01      1.80568460e+00      
H    3.21938812e+00      -7.01020299e-01     9.40934971e-01      
O    -9.03424292e-01     -2.26544461e+00     -1.28868609e+00     
H    -1.80225776e+00     -2.15151193e+00     -1.61219722e+00     
H    -7.79143465e-01     -3.21310071e+00     -1.18680215e+00     
20
85.056951
N    -7.33457663e-03     1.40555483e-02      -2.25993618e-02     
H    8.95280909e-01      -8.53424185e-02     4.82942447e-01      
H    -3.44089207e-01     -9.15395975e-01     -3.57691897e-01     
H    -7.34588438e-01     4.25320554e-01      6.03127598e-01      
C    2.00737097e-01      9.05167338e-01      -1.18148125e+00     
H    5.46940291e-01      1.87771494e+00      -8.39855538e-01     
H    9.53834495e-01      4.80650663e-01      -1.84105957e+00     
C    -1.10681303e+00     1.05498949e+00      -1.92193312e+00     
O    -2.14431004e+00     5.19080648e-01      -1.59577572e+00     
O    -9.45255380e-01     1.85736938e+00      -2.97590636e+00     
H    -1.80703437e+00     1.92816544e+00      -3.42492240e+00     
O    -1.97143962e+00     1.39434124e+00      1.32915392e+00      
H    -2.81552430e+00     1.32386757e+00      8.73224118e-01      
H    -2.18367933e+00     1.58834468e+00      2.24624037e+00      
O    2.55509525e+00      -2.32931744e-02     1.07094889e+00      
H    2.87113535e+00      5.05132344e-01      1.80773435e+00      
H    3.22259539e+00      -7.01551493e-01     9.42978539e-01      
O    -9.06877586e-01     -2.26063759e+00     -1.29017078e+00     
H    -1.80613114e+00     -2.14174256e+00     -1.61036560e+00     
H    -7.86341448e-01     -3.20907222e+00     -1.19181415e+00     
20
85.056951
N    -4.19389961e-03     1.45041820e-02      -2.19472243e-02     
H    8.98827347e-01      -8.43942505e-02     4.83061938e-01      
H    -3.41164047e-01     -9.14976688e-01     -3.56771897e-01     
H    -7.31580738e-01     4.25456730e-01      6.03846440e-01      
C    2.01770013e-01      9.05388957e-01      -1.18136684e+00     
H    5.47489593e-01      1.87839656e+00      -8.40599438e-01     
H    9.54382955e-01      4.81354340e-01      -1.84178846e+00     
C    -1.10687647e+00     1.05376651e+00      -1.92025573e+00     
O    -2.14360825e+00     5.17117461e-01      -1.59276160e+00     
O    -9.47435911e-01     1.85586100e+00      -2.97468880e+00     
H    -1.80985890e+00     1.92566575e+00      -3.42258859e+00     
O    -1.97316028e+00     1.39320740e+00      1.32341739e+00      
H    -2.81495016e+00     1.31836013e+00      8.64121186e-01      
H    -2.18994388e+00     1.58920757e+00      2.23896472e+00      
O    2.55843461e+00      -2.36702784e-02     1.07283266e+00      
H    2.87434119e+00      5.04595872e-01      1.80978409e+00      
H    3.22580266e+00      -7.02082686e-01     9.45022107e-01      
O    -9.10330879e-01     -2.25583057e+00     -1.29165548e+00     
H    -1.81000452e+00     -2.13197319e+00     -1.60853397e+00     
H    -7.93539430e-01     -3.20504373e+00     -1.19682616e+00     
20
85.056951
N    -2.62356109e-03     1.47284989e-02      -2.16211555e-02     
H    9.00600565e-01      -8.39201665e-02     4.83121684e-01      
H    -3.39701467e-01     -9.14767045e-01     -3.56311896e-01     
H    -7.30076888e-01     4.25524818e-01      6.04205861e-01      
C    2.02286471e-01      9.05499766e-01      -1.18130963e+00     
H    5.47764245e-01      1.87873738e+00      -8.40971388e-01     
H    9.54657185e-01      4.81706178e-01      -1.84215291e+00     
C    -1.10690818e+00     1.05315502e+00      -1.91941703e+00     
O    -2.14325735e+00     5.16135868e-01      -1.59125454e+00     
O    -9.48526177e-01     1.85510681e+00      -2.97408002e+00     
H    -1.81127116e+00     1.92441590e+00      -3.42142169e+00     
O    -1.97402060e+00     1.39264047e+00      1.32054912e+00      
H    -2.81466310e+00     1.31560640e+00      8.59569720e-01      
H    -2.19307615e+00     1.58963902e+00      2.23532690e+00      
O    2.56010428e+00      -2.38588304e-02     1.07377455e+00      
H    2.87594411e+00      5.04327637e-01      1.81080897e+00      
H    3.22740630e+00      -7.02348283e-01     9.46043892e-01      
O    -9.12057526e-01     -2.25342706e+00     -1.29239783e+00     
H    -1.81194121e+00     -2.12708850e+00     -1.60761816e+00     
H    -7.97138421e-01     -3.20302948e+00     -1.19933216e+00     
20
85.056951
N    -1.05322258e-03     1.49528158e-02      -2.12950868e-02     
H    9.02373784e-01      -8.34460825e-02     4.83181429e-01      
H    -3.38238886e-01     -9.14557402e-01     -3.55851896e-01     
H    -7.28573038e-01     4.25592906e-01      6.04565282e-01      
C    2.02802929e-01      9.05610576e-01      -1.18125242e+00     
H    5.48038896e-01      1.87907819e+00      -8.41343338e-01     
H    9.54931415e-01      4.82058016e-01      -1.84251735e+00     
C    -1.10693990e+00     1.05254354e+00      -1.91857833e+00     
O    -2.14290646e+00     5.15154274e-01      -1.58974749e+00     
O    -9.49616442e-01     1.85435261e+00      -2.97347124e+00     
H    -1.81268342e+00     1.92316605e+00      -3.42025478e+00     
O    -1.97488093e+00     1.39207355e+00      1.31768086e+00      
H    -2.81437603e+00     1.31285268e+00      8.55018253e-01      
H    -2.19620842e+00     1.59007047e+00      2.23168908e+00      
O    2.56177396e+00      -2.40473824e-02     1.07471643e+00      
H    2.87754704e+00      5.04059401e-01      1.81183384e+00      
H    3.22900993e+00      -7.02613880e-01     9.47065676e-01      
O    -9.13784173e-01     -2.25102355e+00     -1.29314017e+00     
H    -1.81387790e+00     -2.12220381e+00     -1.60670235e+00     
H    -8.00737413e-01     -3.20101524e+00     -1.20183816e+00     
20
85.056951
N    5.22813146e-03      1.58500832e-02      -1.99908118e-02     
H    9.09466658e-01      -8.15497465e-02     4.83420411e-01      
H    -3.32388566e-01     -9.13718828e-01     -3.54011894e-01     
H    -7.22557638e-01     4.25865258e-01      6.06002966e-01      
C    2.04868761e-01      9.06053814e-01      -1.18102360e+00     
H    5.49137500e-01      1.88044145e+00      -8.42831138e-01     
H    9.56028335e-01      4.83465370e-01      -1.84397513e+00     
C    -1.10706676e+00     1.05009758e+00      -1.91522353e+00     
O    -2.14150288e+00     5.11227900e-01      -1.58371925e+00     
O    -9.53977504e-01     1.85133585e+00      -2.97103612e+00     
H    -1.81833248e+00     1.91816665e+00      -3.41558716e+00     
O    -1.97832225e+00     1.38980585e+00      1.30620780e+00      
H    -2.81322777e+00     1.30183778e+00      8.36812389e-01      
H    -2.20873752e+00     1.59179625e+00      2.21713780e+00      
O    2.56845268e+00      -2.48015904e-02     1.07848397e+00      
H    2.88395872e+00      5.02986459e-01      1.81593334e+00      
H    3.23542447e+00      -7.03676268e-01     9.51152812e-01      
O    -9.20690759e-01     -2.24140951e+00     -1.29610957e+00     
H    -1.82162466e+00     -2.10266507e+00     -1.60303909e+00     
H    -8.15133377e-01     -3.19295826e+00     -1.21186218e+00     
20
85.056951
N    6.79846997e-03      1.60744001e-02      -1.96647431e-02     
H    9.11239877e-01      -8.10756625e-02     4.83480156e-01      
H    -3.30925985e-01     -9.13509185e-01     -3.53551894e-01     
H    -7.21053788e-01     4.25933346e-01      6.06362387e-01      
C    2.05385219e-01      9.06164624e-01      -1.18096639e+00     
H    5.49412151e-01      1.88078226e+00      -8.43203088e-01     
H    9.56302565e-01      4.83817208e-01      -1.84433957e+00     
C    -1.10709848e+00     1.04948610e+00      -1.91438483e+00     
O    -2.14115199e+00     5.10246306e-01      -1.58221220e+00     
O    -9.55067769e-01     1.85058165e+00      -2.97042734e+00     
H    -1.81974474e+00     1.91691680e+00      -3.41442025e+00     
O    -1.97918258e+00     1.38923893e+00      1.30333954e+00      
H    -2.81294070e+00     1.29908406e+00      8.32260922e-01      
H    -2.21186979e+00     1.59222770e+00      2.21349998e+00      
O    2.57012236e+00      -2.49901424e-02     1.07942585e+00      
H    2.88556165e+00      5.02718223e-01      1.81695821e+00      
H    3.23702810e+00      -7.03941865e-01     9.52174596e-01      
O    -9.22417406e-01     -2.23900600e+00     -1.29685191e+00     
H    -1.82356135e+00     -2.09778038e+00     -1.60212328e+00     
H    -8.18732369e-01     -3.19094402e+00     -1.21436818e+00     
20
85.056951
N    8.36880849e-03      1.62987170e-02      -1.93386743e-02     
H    9.13013095e-01      -8.06015785e-02     4.83539902e-01      
H    -3.29463405e-01     -9.13299542e-01     -3.53091893e-01     
H    -7.19549938e-01     4.26001434e-01      6.06721808e-01      
C    2.05901677e-01      9.06275433e-01      -1.18090918e+00     
H    5.49686803e-01      1.88112308e+00      -8.43575038e-01     
H    9.56576795e-01      4.84169046e-01      -1.84470402e+00     
C    -1.10713019e+00     1.04887461e+00      -1.91354613e+00     
O    -2.14080109e+00     5.09264713e-01      -1.58070514e+00     
O    -9.56158035e-01     1.84982746e+00      -2.96981856e+00     
H    -1.82115700e+00     1.91566695e+00      -3.41325335e+00     
O    -1.98004290e+00     1.38867200e+00      1.30047127e+00      
H    -2.81265364e+00     1.29633033e+00      8.27709456e-01      
H    -2.21500206e+00     1.59265915e+00      2.20986216e+00      
O    2.57179203e+00      -2.51786944e-02     1.08036774e+00      
H    2.88716457e+00      5.02449988e-01      1.81798309e+00      
H    3.23863174e+00      -7.04207462e-01     9.53196381e-01      
O    -9.24144053e-01     -2.23660249e+00     -1.29759426e+00     
H    -1.82549804e+00     -2.09289569e+00     -1.60120747e+00     
H    -8.22331360e-01     -3.18892977e+00     -1.21687418e+00     
20
85.056951
N    1.15094855e-02      1.67473507e-02      -1.86865368e-02     
H    9.16559533e-01      -7.96534105e-02     4.83659393e-01      
H    -3.26538245e-01     -9.12880255e-01     -3.52171893e-01     
H    -7.16542238e-01     4.26137610e-01      6.07440650e-01      
C    2.06934593e-01      9.06497052e-01      -1.18079477e+00     
H    5.50236105e-01      1.88180470e+00      -8.44318938e-01     
H    9.57125255e-01      4.84872723e-01      -1.84543291e+00     
C    -1.10719363e+00     1.04765163e+00      -1.91186874e+00     
O    -2.14009930e+00     5.07301526e-01      -1.57769102e+00     
O    -9.58338566e-01     1.84831908e+00      -2.96860100e+00     
H    -1.82398153e+00     1.91316726e+00      -3.41091954e+00     
O    -1.98176356e+00     1.38753816e+00      1.29473474e+00      
H    -2.81207950e+00     1.29082289e+00      8.18606524e-01      
H    -2.22126661e+00     1.59352204e+00      2.20258651e+00      
O    2.57513139e+00      -2.55557984e-02     1.08225151e+00      
H    2.89037041e+00      5.01913516e-01      1.82003283e+00      
H    3.24183901e+00      -7.04738655e-01     9.55239949e-01      
O    -9.27597346e-01     -2.23179547e+00     -1.29907896e+00     
H    -1.82937142e+00     -2.08312632e+00     -1.59937584e+00     
H    -8.29529342e-01     -3.18490128e+00     -1.22188619e+00     
20
85.056951
N    1.46501625e-02      1.71959844e-02      -1.80343993e-02     
H    9.20105970e-01      -7.87052425e-02     4.83778884e-01      
H    -3.23613084e-01     -9.12460969e-01     -3.51251892e-01     
H    -7.13534538e-01     4.26273786e-01      6.08159492e-01      
C    2.07967510e-01      9.06718672e-01      -1.18068036e+00     
H    5.50785407e-01      1.88248633e+00      -8.45062838e-01     
H    9.57673715e-01      4.85576399e-01      -1.84616180e+00     
C    -1.10725706e+00     1.04642866e+00      -1.91019134e+00     
O    -2.13939751e+00     5.05338339e-01      -1.57467690e+00     
O    -9.60519097e-01     1.84681069e+00      -2.96738345e+00     
H    -1.82680605e+00     1.91066756e+00      -3.40858573e+00     
O    -1.98348422e+00     1.38640431e+00      1.28899821e+00      
H    -2.81150537e+00     1.28531544e+00      8.09503591e-01      
H    -2.22753115e+00     1.59438493e+00      2.19531087e+00      
O    2.57847075e+00      -2.59329023e-02     1.08413528e+00      
H    2.89357625e+00      5.01377045e-01      1.82208258e+00      
H    3.24504628e+00      -7.05269849e-01     9.57283517e-01      
O    -9.31050640e-01     -2.22698845e+00     -1.30056365e+00     
H    -1.83324480e+00     -2.07335695e+00     -1.59754422e+00     
H    -8.36727325e-01     -3.18087279e+00     -1.22689819e+00     
20
85.056951
N    1.77908396e-02      1.76446181e-02      -1.73822618e-02     
H    9.23652407e-01      -7.77570745e-02     4.83898375e-01      
H    -3.20687924e-01     -9.12041682e-01     -3.50331891e-01     
H    -7.10526838e-01     4.26409962e-01      6.08878333e-01      
C    2.09000426e-01      9.06940291e-01      -1.18056594e+00     
H    5.51334709e-01      1.88316796e+00      -8.45806738e-01     
H    9.58222175e-01      4.86280076e-01      -1.84689069e+00     
C    -1.10732049e+00     1.04520568e+00      -1.90851394e+00     
O    -2.13869572e+00     5.03375151e-01      -1.57166279e+00     
O    -9.62699628e-01     1.84530231e+00      -2.96616589e+00     
H    -1.82963058e+00     1.90816786e+00      -3.40625192e+00     
O    -1.98520487e+00     1.38527046e+00      1.28326168e+00      
H    -2.81093124e+00     1.27980799e+00      8.00400659e-01      
H    -2.23379570e+00     1.59524782e+00      2.18803523e+00      
O    2.58181011e+00      -2.63100063e-02     1.08601905e+00      
H    2.89678210e+00      5.00840574e-01      1.82413233e+00      
H    3.24825354e+00      -7.05801043e-01     9.59327086e-01      
O    -9.34503933e-01     -2.22218143e+00     -1.30204835e+00     
H    -1.83711818e+00     -2.06358757e+00     -1.59571259e+00     
H    -8.43925307e-01     -3.17684431e+00     -1.23191020e+00     
20
85.056951
N    2.09315166e-02      1.80932519e-02      -1.67301243e-02     
H    9.27198844e-01      -7.68089065e-02     4.84017866e-01      
H    -3.17762763e-01     -9.11622396e-01     -3.49411890e-01     
H    -7.07519138e-01     4.26546138e-01      6.09597175e-01      
C    2.10033342e-01      9.07161910e-01      -1.18045153e+00     
H    5.51884012e-01      1.88384959e+00      -8.46550638e-01     
H    9.58770635e-01      4.86983752e-01      -1.84761958e+00     
C    -1.10738392e+00     1.04398270e+00      -1.90683654e+00     
O    -2.13799393e+00     5.01411964e-01      -1.56864867e+00     
O    -9.64880159e-01     1.84379393e+00      -2.96494833e+00     
H    -1.83245511e+00     1.90566816e+00      -3.40391811e+00     
O    -1.98692553e+00     1.38413661e+00      1.27752516e+00      
H    -2.81035711e+00     1.27430054e+00      7.91297726e-01      
H    -2.24006025e+00     1.59611072e+00      2.18075959e+00      
O    2.58514946e+00      -2.66871103e-02     1.08790282e+00      
H    2.89998794e+00      5.00304103e-01      1.82618208e+00      
H    3.25146081e+00      -7.06332237e-01     9.61370654e-01      
O    -9.37957227e-01     -2.21737441e+00     -1.30353304e+00     
H    -1.84099156e+00     -2.05381820e+00     -1.59388097e+00     
H    -8.51123290e-01     -3.17281582e+00     -1.23692220e+00     
20
85.056951
N    2.72128706e-02      1.89905193e-02      -1.54258493e-02     
H    9.34291719e-01      -7.49125704e-02     4.84256847e-01      
H    -3.11912442e-01     -9.10783823e-01     -3.47571888e-01     
H    -7.01503739e-01     4.26818490e-01      6.11034859e-01      
C    2.12099174e-01      9.07605148e-01      -1.18022270e+00     
H    5.52982616e-01      1.88521285e+00      -8.48038438e-01     
H    9.59867555e-01      4.88391106e-01      -1.84907736e+00     
C    -1.10751078e+00     1.04153675e+00      -1.90348175e+00     
O    -2.13659035e+00     4.97485590e-01      -1.56262044e+00     
O    -9.69241221e-01     1.84077716e+00      -2.96251321e+00     
H    -1.83810416e+00     1.90066877e+00      -3.39925049e+00     
O    -1.99036685e+00     1.38186891e+00      1.26605210e+00      
H    -2.80920884e+00     1.26328564e+00      7.73091861e-01      
H    -2.25258934e+00     1.59783650e+00      2.16620830e+00      
O    2.59182818e+00      -2.74413183e-02     1.09167036e+00      
H    2.90639963e+00      4.99231160e-01      1.83028157e+00      
H    3.25787535e+00      -7.07394624e-01     9.65457791e-01      
O    -9.44863814e-01     -2.20776037e+00     -1.30650244e+00     
H    -1.84873832e+00     -2.03427945e+00     -1.59021772e+00     
H    -8.65519254e-01     -3.16475884e+00     -1.24694621e+00     
