20
125.423150
N    -7.53919521e-04     2.51568244e-02      -1.36517558e-02     
H    9.02139089e-01      -6.95160313e-02     4.92604389e-01      
H    -3.48361904e-01     -9.10166346e-01     -3.20663975e-01     
H    -7.24299514e-01     4.62210135e-01      6.00006720e-01      
C    2.15913882e-01      8.64364134e-01      -1.21085611e+00     
H    6.18346607e-01      1.83388410e+00      -9.18306974e-01     
H    9.29751393e-01      3.77467537e-01      -1.87536247e+00     
C    -1.10446651e+00     1.04261082e+00      -1.92314278e+00     
O    -2.14073913e+00     5.08159363e-01      -1.59033940e+00     
O    -9.55508447e-01     1.86558709e+00      -2.96312154e+00     
H    -1.82377848e+00     1.94906205e+00      -3.39757124e+00     
O    -1.99647665e+00     1.39279620e+00      1.32670979e+00      
H    -2.84282871e+00     1.30283460e+00      8.78854222e-01      
H    -2.20355317e+00     1.61328901e+00      2.23909202e+00      
O    2.56541753e+00      -2.54689057e-02     1.07585173e+00      
H    2.88994159e+00      4.96226155e-01      1.81385775e+00      
H    3.22666981e+00      -7.08350145e-01     9.40175625e-01      
O    -9.04005004e-01     -2.22526683e+00     -1.29304615e+00     
H    -1.79876446e+00     -2.07345315e+00     -1.61310621e+00     
H    -8.18950469e-01     -3.17781439e+00     -1.19176809e+00     
20
125.423150
N    -4.35760310e-05     2.27179807e-02      -1.53995542e-02     
H    9.03084372e-01      -7.27615021e-02     4.90278522e-01      
H    -3.45099859e-01     -9.11159289e-01     -3.29230955e-01     
H    -7.24615970e-01     4.53089872e-01      6.01326071e-01      
C    2.12894372e-01      8.74731149e-01      -1.20342659e+00     
H    6.00907005e-01      1.84535303e+00      -8.99252040e-01     
H    9.36183514e-01      4.03791076e-01      -1.86733341e+00     
C    -1.10510072e+00     1.04478826e+00      -1.92158232e+00     
O    -2.14110551e+00     5.09417294e-01      -1.58943789e+00     
O    -9.54580578e-01     1.86240137e+00      -2.96540457e+00     
H    -1.82171084e+00     1.94196312e+00      -3.40265867e+00     
O    -1.99150789e+00     1.39233207e+00      1.32301842e+00      
H    -2.83557201e+00     1.30396226e+00      8.70619497e-01      
H    -2.20328312e+00     1.60770010e+00      2.23542238e+00      
O    2.56534148e+00      -2.52078009e-02     1.07603884e+00      
H    2.88764442e+00      4.98050349e-01      1.81386421e+00      
H    3.22805665e+00      -7.07048877e-01     9.42409030e-01      
O    -9.07313119e-01     -2.23050425e+00     -1.29344083e+00     
H    -1.80351117e+00     -2.08319847e+00     -1.61104734e+00     
H    -8.16196701e-01     -3.18260748e+00     -1.19553861e+00     
20
125.423150
N    3.11595714e-04      2.14985588e-02      -1.62734533e-02     
H    9.03557014e-01      -7.43842375e-02     4.89115588e-01      
H    -3.43468837e-01     -9.11655760e-01     -3.33514445e-01     
H    -7.24774198e-01     4.48529740e-01      6.01985747e-01      
C    2.11384618e-01      8.79914657e-01      -1.19971182e+00     
H    5.92187204e-01      1.85108749e+00      -8.89724573e-01     
H    9.39399574e-01      4.16952845e-01      -1.86331889e+00     
C    -1.10541782e+00     1.04587697e+00      -1.92080209e+00     
O    -2.14128871e+00     5.10046260e-01      -1.58898714e+00     
O    -9.54116644e-01     1.86080852e+00      -2.96654609e+00     
H    -1.82067703e+00     1.93841366e+00      -3.40520239e+00     
O    -1.98902351e+00     1.39210001e+00      1.32117274e+00      
H    -2.83194366e+00     1.30452609e+00      8.66502134e-01      
H    -2.20314810e+00     1.60490564e+00      2.23358755e+00      
O    2.56530345e+00      -2.50772485e-02     1.07613240e+00      
H    2.88649583e+00      4.98962446e-01      1.81386744e+00      
H    3.22875008e+00      -7.06398243e-01     9.43525732e-01      
O    -9.08967177e-01     -2.23312297e+00     -1.29363817e+00     
H    -1.80588452e+00     -2.08807114e+00     -1.61001790e+00     
H    -8.14819816e-01     -3.18500403e+00     -1.19742387e+00     
20
125.423150
N    6.66767459e-04      2.02791370e-02      -1.71473525e-02     
H    9.04029655e-01      -7.60069729e-02     4.87952655e-01      
H    -3.41837815e-01     -9.12152231e-01     -3.37797935e-01     
H    -7.24932426e-01     4.43969608e-01      6.02645422e-01      
C    2.09874863e-01      8.85098164e-01      -1.19599706e+00     
H    5.83467403e-01      1.85682196e+00      -8.80197106e-01     
H    9.42615634e-01      4.30114615e-01      -1.85930436e+00     
C    -1.10573492e+00     1.04696569e+00      -1.92002186e+00     
O    -2.14147190e+00     5.10675225e-01      -1.58853639e+00     
O    -9.53652710e-01     1.85921566e+00      -2.96768761e+00     
H    -1.81964321e+00     1.93486420e+00      -3.40774611e+00     
O    -1.98653912e+00     1.39186795e+00      1.31932706e+00      
H    -2.82831531e+00     1.30508992e+00      8.62384772e-01      
H    -2.20301307e+00     1.60211118e+00      2.23175273e+00      
O    2.56526542e+00      -2.49466960e-02     1.07622596e+00      
H    2.88534724e+00      4.99874543e-01      1.81387067e+00      
H    3.22944350e+00      -7.05747609e-01     9.44642435e-01      
O    -9.10621235e-01     -2.23574168e+00     -1.29383551e+00     
H    -1.80825787e+00     -2.09294380e+00     -1.60898846e+00     
H    -8.13442932e-01     -3.18740057e+00     -1.19930913e+00     
20
125.423150
N    1.02193920e-03      1.90597151e-02      -1.80212517e-02     
H    9.04502297e-01      -7.76297083e-02     4.86789721e-01      
H    -3.40206793e-01     -9.12648702e-01     -3.42081425e-01     
H    -7.25090654e-01     4.39409477e-01      6.03305098e-01      
C    2.08365109e-01      8.90281672e-01      -1.19228230e+00     
H    5.74747601e-01      1.86255642e+00      -8.70669639e-01     
H    9.45831694e-01      4.43276384e-01      -1.85528983e+00     
C    -1.10605202e+00     1.04805441e+00      -1.91924163e+00     
O    -2.14165509e+00     5.11304191e-01      -1.58808563e+00     
O    -9.53188776e-01     1.85762280e+00      -2.96882913e+00     
H    -1.81860940e+00     1.93131474e+00      -3.41028982e+00     
O    -1.98405474e+00     1.39163589e+00      1.31748138e+00      
H    -2.82468695e+00     1.30565374e+00      8.58267409e-01      
H    -2.20287805e+00     1.59931673e+00      2.22991791e+00      
O    2.56522740e+00      -2.48161436e-02     1.07631952e+00      
H    2.88419865e+00      5.00786639e-01      1.81387390e+00      
H    3.23013693e+00      -7.05096976e-01     9.45759137e-01      
O    -9.12275293e-01     -2.23836039e+00     -1.29403285e+00     
H    -1.81063122e+00     -2.09781646e+00     -1.60795903e+00     
H    -8.12066048e-01     -3.18979712e+00     -1.20119439e+00     
20
125.423150
N    1.37711095e-03      1.78402932e-02      -1.88951509e-02     
H    9.04974938e-01      -7.92524437e-02     4.85626787e-01      
H    -3.38575770e-01     -9.13145173e-01     -3.46364915e-01     
H    -7.25248882e-01     4.34849345e-01      6.03964773e-01      
C    2.06855354e-01      8.95465180e-01      -1.18856754e+00     
H    5.66027800e-01      1.86829089e+00      -8.61142172e-01     
H    9.49047755e-01      4.56438154e-01      -1.85127530e+00     
C    -1.10636913e+00     1.04914313e+00      -1.91846139e+00     
O    -2.14183828e+00     5.11933156e-01      -1.58763488e+00     
O    -9.52724841e-01     1.85602994e+00      -2.96997064e+00     
H    -1.81757558e+00     1.92776527e+00      -3.41283354e+00     
O    -1.98157036e+00     1.39140382e+00      1.31563569e+00      
H    -2.82105860e+00     1.30621757e+00      8.54150046e-01      
H    -2.20274302e+00     1.59652227e+00      2.22808309e+00      
O    2.56518937e+00      -2.46855912e-02     1.07641308e+00      
H    2.88305006e+00      5.01698736e-01      1.81387713e+00      
H    3.23083035e+00      -7.04446342e-01     9.46875839e-01      
O    -9.13929350e-01     -2.24097910e+00     -1.29423019e+00     
H    -1.81300458e+00     -2.10268912e+00     -1.60692959e+00     
H    -8.10689164e-01     -3.19219366e+00     -1.20307965e+00     
20
125.423150
N    1.55469682e-03      1.72305823e-02      -1.93321005e-02     
H    9.05211259e-01      -8.00638114e-02     4.85045320e-01      
H    -3.37760259e-01     -9.13393408e-01     -3.48506660e-01     
H    -7.25327996e-01     4.32569279e-01      6.04294611e-01      
C    2.06100477e-01      8.98056934e-01      -1.18671015e+00     
H    5.61667900e-01      1.87115812e+00      -8.56378439e-01     
H    9.50655785e-01      4.63019039e-01      -1.84926803e+00     
C    -1.10652768e+00     1.04968748e+00      -1.91807128e+00     
O    -2.14192988e+00     5.12247639e-01      -1.58740950e+00     
O    -9.52492874e-01     1.85523352e+00      -2.97054140e+00     
H    -1.81705867e+00     1.92599054e+00      -3.41410540e+00     
O    -1.98032816e+00     1.39128779e+00      1.31471285e+00      
H    -2.81924443e+00     1.30649949e+00      8.52091365e-01      
H    -2.20267551e+00     1.59512504e+00      2.22716567e+00      
O    2.56517036e+00      -2.46203150e-02     1.07645986e+00      
H    2.88247576e+00      5.02154785e-01      1.81387875e+00      
H    3.23117706e+00      -7.04121025e-01     9.47434190e-01      
O    -9.14756379e-01     -2.24228846e+00     -1.29432886e+00     
H    -1.81419125e+00     -2.10512545e+00     -1.60641487e+00     
H    -8.10000721e-01     -3.19339193e+00     -1.20402228e+00     
20
125.423150
N    1.73228269e-03      1.66208714e-02      -1.97690501e-02     
H    9.05447580e-01      -8.08751791e-02     4.84463854e-01      
H    -3.36944748e-01     -9.13641644e-01     -3.50648405e-01     
H    -7.25407110e-01     4.30289214e-01      6.04624449e-01      
C    2.05345600e-01      9.00648687e-01      -1.18485277e+00     
H    5.57307999e-01      1.87402535e+00      -8.51614705e-01     
H    9.52263815e-01      4.69599923e-01      -1.84726077e+00     
C    -1.10668623e+00     1.05023184e+00      -1.91768116e+00     
O    -2.14202148e+00     5.12562122e-01      -1.58718412e+00     
O    -9.52260907e-01     1.85443709e+00      -2.97111216e+00     
H    -1.81654177e+00     1.92421581e+00      -3.41537725e+00     
O    -1.97908597e+00     1.39117176e+00      1.31379001e+00      
H    -2.81743025e+00     1.30678140e+00      8.50032684e-01      
H    -2.20260800e+00     1.59372782e+00      2.22624826e+00      
O    2.56515135e+00      -2.45550388e-02     1.07650664e+00      
H    2.88190147e+00      5.02610833e-01      1.81388036e+00      
H    3.23152378e+00      -7.03795708e-01     9.47992542e-01      
O    -9.15583408e-01     -2.24359782e+00     -1.29442753e+00     
H    -1.81537793e+00     -2.10756178e+00     -1.60590016e+00     
H    -8.09312279e-01     -3.19459021e+00     -1.20496491e+00     
20
125.423150
N    2.44262619e-03      1.41820276e-02      -2.15168485e-02     
H    9.06392862e-01      -8.41206499e-02     4.82137986e-01      
H    -3.33682704e-01     -9.14634586e-01     -3.59215385e-01     
H    -7.25723566e-01     4.21168950e-01      6.05943799e-01      
C    2.02326090e-01      9.11015703e-01      -1.17742325e+00     
H    5.39868397e-01      1.88549429e+00      -8.32559771e-01     
H    9.58695935e-01      4.95923463e-01      -1.83923171e+00     
C    -1.10732043e+00     1.05240928e+00      -1.91612070e+00     
O    -2.14238786e+00     5.13820052e-01      -1.58628262e+00     
O    -9.51333039e-01     1.85125137e+00      -2.97339520e+00     
H    -1.81447413e+00     1.91711689e+00      -3.42046469e+00     
O    -1.97411721e+00     1.39070764e+00      1.31009865e+00      
H    -2.81017355e+00     1.30790906e+00      8.41797958e-01      
H    -2.20233794e+00     1.58813890e+00      2.22257862e+00      
O    2.56507529e+00      -2.42939340e-02     1.07669376e+00      
H    2.87960429e+00      5.04435027e-01      1.81388682e+00      
H    3.23291062e+00      -7.02494440e-01     9.50225946e-01      
O    -9.18891524e-01     -2.24883524e+00     -1.29482221e+00     
H    -1.82012463e+00     -2.11730710e+00     -1.60384128e+00     
H    -8.06558511e-01     -3.19938329e+00     -1.20873543e+00     
20
125.423150
N    2.62021206e-03      1.35723167e-02      -2.19537981e-02     
H    9.06629183e-01      -8.49320176e-02     4.81556520e-01      
H    -3.32867193e-01     -9.14882822e-01     -3.61357130e-01     
H    -7.25802680e-01     4.18888885e-01      6.06273637e-01      
C    2.01571213e-01      9.13607456e-01      -1.17556587e+00     
H    5.35508496e-01      1.88836152e+00      -8.27796037e-01     
H    9.60303965e-01      5.02504347e-01      -1.83722445e+00     
C    -1.10747898e+00     1.05295364e+00      -1.91573058e+00     
O    -2.14247946e+00     5.14134535e-01      -1.58605724e+00     
O    -9.51101072e-01     1.85045494e+00      -2.97396596e+00     
H    -1.81395723e+00     1.91534216e+00      -3.42173654e+00     
O    -1.97287502e+00     1.39059161e+00      1.30917581e+00      
H    -2.80835937e+00     1.30819097e+00      8.39739277e-01      
H    -2.20227043e+00     1.58674168e+00      2.22166121e+00      
O    2.56505628e+00      -2.42286578e-02     1.07674054e+00      
H    2.87903000e+00      5.04891075e-01      1.81388843e+00      
H    3.23325734e+00      -7.02169123e-01     9.50784298e-01      
O    -9.19718553e-01     -2.25014460e+00     -1.29492088e+00     
H    -1.82131131e+00     -2.11974343e+00     -1.60332657e+00     
H    -8.05870069e-01     -3.20058157e+00     -1.20967806e+00     
20
125.423150
N    2.79779793e-03      1.29626058e-02      -2.23907477e-02     
H    9.06865504e-01      -8.57433853e-02     4.80975053e-01      
H    -3.32051682e-01     -9.15131057e-01     -3.63498875e-01     
H    -7.25881794e-01     4.16608819e-01      6.06603475e-01      
C    2.00816336e-01      9.16199210e-01      -1.17370848e+00     
H    5.31148596e-01      1.89122875e+00      -8.23032304e-01     
H    9.61911995e-01      5.09085232e-01      -1.83521718e+00     
C    -1.10763753e+00     1.05349799e+00      -1.91534047e+00     
O    -2.14257106e+00     5.14449018e-01      -1.58583186e+00     
O    -9.50869105e-01     1.84965852e+00      -2.97453672e+00     
H    -1.81344032e+00     1.91356743e+00      -3.42300840e+00     
O    -1.97163282e+00     1.39047558e+00      1.30825297e+00      
H    -2.80654520e+00     1.30847289e+00      8.37680596e-01      
H    -2.20220292e+00     1.58534445e+00      2.22074379e+00      
O    2.56503727e+00      -2.41633816e-02     1.07678732e+00      
H    2.87845570e+00      5.05347124e-01      1.81389005e+00      
H    3.23360405e+00      -7.01843806e-01     9.51342649e-01      
O    -9.20545582e-01     -2.25145396e+00     -1.29501955e+00     
H    -1.82249798e+00     -2.12217976e+00     -1.60281185e+00     
H    -8.05181626e-01     -3.20177984e+00     -1.21062069e+00     
20
125.423150
N    3.15296968e-03      1.17431839e-02      -2.32646469e-02     
H    9.07338145e-01      -8.73661207e-02     4.79812119e-01      
H    -3.30420659e-01     -9.15627528e-01     -3.67782365e-01     
H    -7.26040022e-01     4.12048687e-01      6.07263150e-01      
C    1.99306581e-01      9.21382718e-01      -1.16999372e+00     
H    5.22428795e-01      1.89696322e+00      -8.13504837e-01     
H    9.65128056e-01      5.22247002e-01      -1.83120265e+00     
C    -1.10795464e+00     1.05458671e+00      -1.91456023e+00     
O    -2.14275425e+00     5.15077983e-01      -1.58538111e+00     
O    -9.50405170e-01     1.84806566e+00      -2.97567823e+00     
H    -1.81240650e+00     1.91001796e+00      -3.42555212e+00     
O    -1.96914844e+00     1.39024351e+00      1.30640728e+00      
H    -2.80291685e+00     1.30903672e+00      8.33563233e-01      
H    -2.20206789e+00     1.58254999e+00      2.21890897e+00      
O    2.56499924e+00      -2.40328292e-02     1.07688088e+00      
H    2.87730711e+00      5.06259221e-01      1.81389328e+00      
H    3.23429747e+00      -7.01193172e-01     9.52459351e-01      
O    -9.22199639e-01     -2.25407267e+00     -1.29521689e+00     
H    -1.82487134e+00     -2.12705242e+00     -1.60178241e+00     
H    -8.03804742e-01     -3.20417638e+00     -1.21250595e+00     
20
125.423150
N    3.50814142e-03      1.05237620e-02      -2.41385461e-02     
H    9.07810787e-01      -8.89888561e-02     4.78649185e-01      
H    -3.28789637e-01     -9.16123999e-01     -3.72065855e-01     
H    -7.26198250e-01     4.07488556e-01      6.07922826e-01      
C    1.97796827e-01      9.26566226e-01      -1.16627896e+00     
H    5.13708993e-01      1.90269768e+00      -8.03977370e-01     
H    9.68344116e-01      5.35408771e-01      -1.82718812e+00     
C    -1.10827174e+00     1.05567543e+00      -1.91378000e+00     
O    -2.14293744e+00     5.15706949e-01      -1.58493035e+00     
O    -9.49941236e-01     1.84647280e+00      -2.97681975e+00     
H    -1.81137269e+00     1.90646850e+00      -3.42809583e+00     
O    -1.96666406e+00     1.39001145e+00      1.30456160e+00      
H    -2.79928849e+00     1.30960054e+00      8.29445870e-01      
H    -2.20193287e+00     1.57975554e+00      2.21707415e+00      
O    2.56496122e+00      -2.39022768e-02     1.07697444e+00      
H    2.87615852e+00      5.07171317e-01      1.81389651e+00      
H    3.23499090e+00      -7.00542539e-01     9.53576053e-01      
O    -9.23853697e-01     -2.25669138e+00     -1.29541423e+00     
H    -1.82724469e+00     -2.13192508e+00     -1.60075298e+00     
H    -8.02427858e-01     -3.20657293e+00     -1.21439121e+00     
20
125.423150
N    3.86331317e-03      9.30434016e-03      -2.50124453e-02     
H    9.08283428e-01      -9.06115915e-02     4.77486252e-01      
H    -3.27158615e-01     -9.16620470e-01     -3.76349345e-01     
H    -7.26356478e-01     4.02928424e-01      6.08582501e-01      
C    1.96287072e-01      9.31749733e-01      -1.16256420e+00     
H    5.04989192e-01      1.90843215e+00      -7.94449903e-01     
H    9.71560176e-01      5.48570541e-01      -1.82317359e+00     
C    -1.10858884e+00     1.05676415e+00      -1.91299977e+00     
O    -2.14312063e+00     5.16335914e-01      -1.58447960e+00     
O    -9.49477302e-01     1.84487994e+00      -2.97796127e+00     
H    -1.81033887e+00     1.90291904e+00      -3.43063955e+00     
O    -1.96417967e+00     1.38977939e+00      1.30271592e+00      
H    -2.79566014e+00     1.31016437e+00      8.25328508e-01      
H    -2.20179784e+00     1.57696108e+00      2.21523933e+00      
O    2.56492319e+00      -2.37717243e-02     1.07706800e+00      
H    2.87500993e+00      5.08083414e-01      1.81389974e+00      
H    3.23568432e+00      -6.99891905e-01     9.54692756e-01      
O    -9.25507755e-01     -2.25931009e+00     -1.29561157e+00     
H    -1.82961804e+00     -2.13679774e+00     -1.59972354e+00     
H    -8.01050974e-01     -3.20896947e+00     -1.21627647e+00     
20
125.423150
N    4.21848491e-03      8.08491829e-03      -2.58863444e-02     
H    9.08756070e-01      -9.22343269e-02     4.76323318e-01      
H    -3.25527593e-01     -9.17116941e-01     -3.80632835e-01     
H    -7.26514706e-01     3.98368292e-01      6.09242177e-01      
C    1.94777318e-01      9.36933241e-01      -1.15884943e+00     
H    4.96269391e-01      1.91416661e+00      -7.84922436e-01     
H    9.74776236e-01      5.61732310e-01      -1.81915907e+00     
C    -1.10890594e+00     1.05785286e+00      -1.91221954e+00     
O    -2.14330383e+00     5.16964880e-01      -1.58402885e+00     
O    -9.49013368e-01     1.84328709e+00      -2.97910279e+00     
H    -1.80930506e+00     1.89936958e+00      -3.43318327e+00     
O    -1.96169529e+00     1.38954733e+00      1.30087024e+00      
H    -2.79203179e+00     1.31072820e+00      8.21211145e-01      
H    -2.20166282e+00     1.57416662e+00      2.21340450e+00      
O    2.56488516e+00      -2.36411719e-02     1.07716156e+00      
H    2.87386134e+00      5.08995511e-01      1.81390297e+00      
H    3.23637775e+00      -6.99241271e-01     9.55809458e-01      
O    -9.27161813e-01     -2.26192881e+00     -1.29580891e+00     
H    -1.83199139e+00     -2.14167041e+00     -1.59869410e+00     
H    -7.99674089e-01     -3.21136602e+00     -1.21816173e+00     
20
125.423150
N    4.92882840e-03      5.64607455e-03      -2.76341428e-02     
H    9.09701353e-01      -9.54797977e-02     4.73997451e-01      
H    -3.22265548e-01     -9.18109884e-01     -3.89199815e-01     
H    -7.26831162e-01     3.89248029e-01      6.10561528e-01      
C    1.91757808e-01      9.47300256e-01      -1.15141991e+00     
H    4.78829789e-01      1.92563554e+00      -7.65867502e-01     
H    9.81208357e-01      5.88055849e-01      -1.81113001e+00     
C    -1.10954015e+00     1.06003030e+00      -1.91065908e+00     
O    -2.14367021e+00     5.18222811e-01      -1.58312734e+00     
O    -9.48085499e-01     1.84010137e+00      -2.98138582e+00     
H    -1.80723742e+00     1.89227065e+00      -3.43827070e+00     
O    -1.95672653e+00     1.38908320e+00      1.29717887e+00      
H    -2.78477509e+00     1.31185586e+00      8.12976420e-01      
H    -2.20139277e+00     1.56857771e+00      2.20973486e+00      
O    2.56480911e+00      -2.33800671e-02     1.07734867e+00      
H    2.87156417e+00      5.10819705e-01      1.81390943e+00      
H    3.23776459e+00      -6.97940003e-01     9.58042863e-01      
O    -9.30469928e-01     -2.26716623e+00     -1.29620359e+00     
H    -1.83673810e+00     -2.15141573e+00     -1.59663523e+00     
H    -7.96920321e-01     -3.21615911e+00     -1.22193225e+00     
