20
345.466027
N    3.38840629e-02      2.15839209e-02      -1.63467405e-02     
H    9.49448078e-01      -6.24564696e-02     4.73025601e-01      
H    -2.96199092e-01     -9.14467225e-01     -3.37931737e-01     
H    -6.86282188e-01     4.24823241e-01      6.21870943e-01      
C    1.98286430e-01      9.06812698e-01      -1.18476150e+00     
H    5.37103192e-01      1.88696279e+00      -8.57975936e-01     
H    9.43689106e-01      4.91013613e-01      -1.85838295e+00     
C    -1.11830110e+00     1.04539485e+00      -1.91322384e+00     
O    -2.16183805e+00     5.14804760e-01      -1.59696442e+00     
O    -9.35516693e-01     1.85071061e+00      -2.96265990e+00     
H    -1.78836311e+00     1.93478137e+00      -3.42658461e+00     
O    -1.98212288e+00     1.40648733e+00      1.31698601e+00      
H    -2.81454803e+00     1.19452105e+00      8.64265366e-01      
H    -2.22760077e+00     1.56415765e+00      2.23429980e+00      
O    2.55584607e+00      -2.50169832e-02     1.07366013e+00      
H    2.87104225e+00      5.04356242e-01      1.81011970e+00      
H    3.22286075e+00      -7.03516483e-01     9.44482949e-01      
O    -9.15189779e-01     -2.25665582e+00     -1.30820642e+00     
H    -1.85474170e+00     -2.10081454e+00     -1.49734135e+00     
H    -8.37572850e-01     -3.20828262e+00     -1.18587052e+00     
20
345.466027
N    2.59349108e-02      2.00383030e-02      -1.74207927e-02     
H    9.38566114e-01      -6.74668308e-02     4.75594431e-01      
H    -3.05977750e-01     -9.14384947e-01     -3.42181776e-01     
H    -6.96102975e-01     4.25049702e-01      6.17724238e-01      
C    1.99673784e-01      9.06567572e-01      -1.18385563e+00     
H    5.39974443e-01      1.88516205e+00      -8.54003762e-01     
H    9.46636799e-01      4.88950633e-01      -1.85459877e+00     
C    -1.11547665e+00     1.04687628e+00      -1.91414311e+00     
O    -2.15692970e+00     5.14401341e-01      -1.59440666e+00     
O    -9.39586763e-01     1.85124402e+00      -2.96505835e+00     
H    -1.79514932e+00     1.93125262e+00      -3.42441870e+00     
O    -1.98074256e+00     1.40260042e+00      1.31572559e+00      
H    -2.81436150e+00     1.22272710e+00      8.59677855e-01      
H    -2.22131882e+00     1.57085158e+00      2.23182821e+00      
O    2.55816289e+00      -2.48688590e-02     1.07439515e+00      
H    2.87346991e+00      5.04147914e-01      1.81106067e+00      
H    3.22519986e+00      -7.03423631e-01     9.45639523e-01      
O    -9.15701701e-01     -2.25404599e+00     -1.30481103e+00     
H    -1.84549410e+00     -2.10371952e+00     -1.52422369e+00     
H    -8.30163486e-01     -3.20545865e+00     -1.19111543e+00     
20
345.466027
N    2.19603348e-02      1.92654941e-02      -1.79578188e-02     
H    9.33125132e-01      -6.99720114e-02     4.76878846e-01      
H    -3.10867079e-01     -9.14343809e-01     -3.44306796e-01     
H    -7.01013369e-01     4.25162932e-01      6.15650886e-01      
C    2.00367461e-01      9.06445009e-01      -1.18340269e+00     
H    5.41410069e-01      1.88426167e+00      -8.52017674e-01     
H    9.48110645e-01      4.87919143e-01      -1.85270668e+00     
C    -1.11406443e+00     1.04761699e+00      -1.91460275e+00     
O    -2.15447553e+00     5.14199632e-01      -1.59312778e+00     
O    -9.41621798e-01     1.85151072e+00      -2.96625757e+00     
H    -1.79854243e+00     1.92948824e+00      -3.42333575e+00     
O    -1.98005239e+00     1.40065697e+00      1.31509538e+00      
H    -2.81426823e+00     1.23683012e+00      8.57384099e-01      
H    -2.21817785e+00     1.57419854e+00      2.23059241e+00      
O    2.55932129e+00      -2.47947969e-02     1.07476266e+00      
H    2.87468374e+00      5.04043750e-01      1.81153116e+00      
H    3.22636942e+00      -7.03377205e-01     9.46217810e-01      
O    -9.15957662e-01     -2.25274108e+00     -1.30311334e+00     
H    -1.84087030e+00     -2.10517200e+00     -1.53766486e+00     
H    -8.26458804e-01     -3.20404667e+00     -1.19373789e+00     
20
345.466027
N    1.79857587e-02      1.84926852e-02      -1.84948449e-02     
H    9.27684150e-01      -7.24771921e-02     4.78163261e-01      
H    -3.15756409e-01     -9.14302670e-01     -3.46431816e-01     
H    -7.05923763e-01     4.25276162e-01      6.13577534e-01      
C    2.01061137e-01      9.06322447e-01      -1.18294976e+00     
H    5.42845695e-01      1.88336130e+00      -8.50031587e-01     
H    9.49584491e-01      4.86887653e-01      -1.85081459e+00     
C    -1.11265221e+00     1.04835771e+00      -1.91506238e+00     
O    -2.15202136e+00     5.13997923e-01      -1.59184890e+00     
O    -9.43656833e-01     1.85177742e+00      -2.96745679e+00     
H    -1.80193553e+00     1.92772386e+00      -3.42225279e+00     
O    -1.97936223e+00     1.39871351e+00      1.31446517e+00      
H    -2.81417497e+00     1.25093314e+00      8.55090343e-01      
H    -2.21503687e+00     1.57754551e+00      2.22935662e+00      
O    2.56047970e+00      -2.47207348e-02     1.07513016e+00      
H    2.87589757e+00      5.03939586e-01      1.81200165e+00      
H    3.22753898e+00      -7.03330778e-01     9.46796097e-01      
O    -9.16213623e-01     -2.25143617e+00     -1.30141564e+00     
H    -1.83624649e+00     -2.10662449e+00     -1.55110603e+00     
H    -8.22754122e-01     -3.20263468e+00     -1.19636035e+00     
20
345.466027
N    1.40111826e-02      1.77198763e-02      -1.90318710e-02     
H    9.22243167e-01      -7.49823727e-02     4.79447675e-01      
H    -3.20645738e-01     -9.14261531e-01     -3.48556836e-01     
H    -7.10834157e-01     4.25389392e-01      6.11504181e-01      
C    2.01754814e-01      9.06199884e-01      -1.18249682e+00     
H    5.44281321e-01      1.88246093e+00      -8.48045500e-01     
H    9.51058337e-01      4.85856163e-01      -1.84892251e+00     
C    -1.11123999e+00     1.04909842e+00      -1.91552202e+00     
O    -2.14956719e+00     5.13796214e-01      -1.59057002e+00     
O    -9.45691868e-01     1.85204412e+00      -2.96865601e+00     
H    -1.80532864e+00     1.92595948e+00      -3.42116984e+00     
O    -1.97867207e+00     1.39677006e+00      1.31383496e+00      
H    -2.81408170e+00     1.26503616e+00      8.52796588e-01      
H    -2.21189590e+00     1.58089247e+00      2.22812082e+00      
O    2.56163810e+00      -2.46466727e-02     1.07549767e+00      
H    2.87711139e+00      5.03835422e-01      1.81247213e+00      
H    3.22870853e+00      -7.03284352e-01     9.47374383e-01      
O    -9.16469583e-01     -2.25013126e+00     -1.29971795e+00     
H    -1.83162269e+00     -2.10807698e+00     -1.56454720e+00     
H    -8.19049441e-01     -3.20122270e+00     -1.19898280e+00     
20
345.466027
N    1.00366066e-02      1.69470673e-02      -1.95688971e-02     
H    9.16802185e-01      -7.74875533e-02     4.80732090e-01      
H    -3.25535067e-01     -9.14220392e-01     -3.50681855e-01     
H    -7.15744550e-01     4.25502622e-01      6.09430829e-01      
C    2.02448491e-01      9.06077321e-01      -1.18204388e+00     
H    5.45716946e-01      1.88156056e+00      -8.46059413e-01     
H    9.52532183e-01      4.84824673e-01      -1.84703042e+00     
C    -1.10982777e+00     1.04983913e+00      -1.91598166e+00     
O    -2.14711301e+00     5.13594505e-01      -1.58929113e+00     
O    -9.47726903e-01     1.85231083e+00      -2.96985524e+00     
H    -1.80872174e+00     1.92419511e+00      -3.42008688e+00     
O    -1.97798191e+00     1.39482661e+00      1.31320475e+00      
H    -2.81398843e+00     1.27913919e+00      8.50502832e-01      
H    -2.20875492e+00     1.58423943e+00      2.22688503e+00      
O    2.56279651e+00      -2.45726106e-02     1.07586518e+00      
H    2.87832522e+00      5.03731258e-01      1.81294262e+00      
H    3.22987809e+00      -7.03237926e-01     9.47952670e-01      
O    -9.16725544e-01     -2.24882635e+00     -1.29802026e+00     
H    -1.82699889e+00     -2.10952947e+00     -1.57798838e+00     
H    -8.15344759e-01     -3.19981072e+00     -1.20160526e+00     
20
345.466027
N    8.04931853e-03      1.65606629e-02      -1.98374102e-02     
H    9.14081694e-01      -7.87401436e-02     4.81374298e-01      
H    -3.27979732e-01     -9.14199823e-01     -3.51744365e-01     
H    -7.18199747e-01     4.25559237e-01      6.08394153e-01      
C    2.02795330e-01      9.06016039e-01      -1.18181742e+00     
H    5.46434759e-01      1.88111038e+00      -8.45066369e-01     
H    9.53269106e-01      4.84308928e-01      -1.84608437e+00     
C    -1.10912166e+00     1.05020949e+00      -1.91621148e+00     
O    -2.14588593e+00     5.13493651e-01      -1.58865169e+00     
O    -9.48744421e-01     1.85244418e+00      -2.97045485e+00     
H    -1.81041829e+00     1.92331292e+00      -3.41954540e+00     
O    -1.97763683e+00     1.39385488e+00      1.31288965e+00      
H    -2.81394180e+00     1.28619070e+00      8.49355954e-01      
H    -2.20718443e+00     1.58591291e+00      2.22626713e+00      
O    2.56337571e+00      -2.45355795e-02     1.07604894e+00      
H    2.87893214e+00      5.03679176e-01      1.81317786e+00      
H    3.23046287e+00      -7.03214713e-01     9.48241814e-01      
O    -9.16853525e-01     -2.24817390e+00     -1.29717141e+00     
H    -1.82468698e+00     -2.11025571e+00     -1.58470896e+00     
H    -8.13492418e-01     -3.19910473e+00     -1.20291649e+00     
20
345.466027
N    6.06203050e-03      1.61742584e-02      -2.01059232e-02     
H    9.11361203e-01      -7.99927339e-02     4.82016505e-01      
H    -3.30424397e-01     -9.14179254e-01     -3.52806875e-01     
H    -7.20654944e-01     4.25615852e-01      6.07357476e-01      
C    2.03142168e-01      9.05954758e-01      -1.18159095e+00     
H    5.47152572e-01      1.88066019e+00      -8.44073325e-01     
H    9.54006029e-01      4.83793183e-01      -1.84513833e+00     
C    -1.10841555e+00     1.05057985e+00      -1.91644129e+00     
O    -2.14465884e+00     5.13392796e-01      -1.58801225e+00     
O    -9.49761938e-01     1.85257753e+00      -2.97105446e+00     
H    -1.81211485e+00     1.92243073e+00      -3.41900393e+00     
O    -1.97729175e+00     1.39288315e+00      1.31257454e+00      
H    -2.81389517e+00     1.29324221e+00      8.48209077e-01      
H    -2.20561395e+00     1.58758640e+00      2.22564923e+00      
O    2.56395491e+00      -2.44985485e-02     1.07623269e+00      
H    2.87953905e+00      5.03627094e-01      1.81341310e+00      
H    3.23104764e+00      -7.03191500e-01     9.48530957e-01      
O    -9.16981505e-01     -2.24752144e+00     -1.29632256e+00     
H    -1.82237508e+00     -2.11098195e+00     -1.59142955e+00     
H    -8.11640077e-01     -3.19839873e+00     -1.20422771e+00     
20
345.466027
N    -1.88712162e-03     1.46286406e-02      -2.11799754e-02     
H    9.00479239e-01      -8.50030951e-02     4.84585335e-01      
H    -3.40203055e-01     -9.14096976e-01     -3.57056915e-01     
H    -7.30475732e-01     4.25842312e-01      6.03210772e-01      
C    2.04529522e-01      9.05709632e-01      -1.18068507e+00     
H    5.50023824e-01      1.87885945e+00      -8.40101151e-01     
H    9.56953721e-01      4.81730203e-01      -1.84135415e+00     
C    -1.10559111e+00     1.05206127e+00      -1.91736057e+00     
O    -2.13975050e+00     5.12989378e-01      -1.58545449e+00     
O    -9.53832008e-01     1.85311093e+00      -2.97345290e+00     
H    -1.81890105e+00     1.91890197e+00      -3.41683801e+00     
O    -1.97591143e+00     1.38899625e+00      1.31131412e+00      
H    -2.81370863e+00     1.32144825e+00      8.43621565e-01      
H    -2.19933199e+00     1.59428032e+00      2.22317765e+00      
O    2.56627173e+00      -2.43504243e-02     1.07696771e+00      
H    2.88196671e+00      5.03418766e-01      1.81435408e+00      
H    3.23338676e+00      -7.03098648e-01     9.49687531e-01      
O    -9.17493427e-01     -2.24491162e+00     -1.29292718e+00     
H    -1.81312748e+00     -2.11388693e+00     -1.61831189e+00     
H    -8.04230713e-01     -3.19557477e+00     -1.20947263e+00     
20
345.466027
N    -3.87440965e-03     1.42422361e-02      -2.14484884e-02     
H    8.97758748e-01      -8.62556854e-02     4.85227542e-01      
H    -3.42647720e-01     -9.14076407e-01     -3.58119425e-01     
H    -7.32930929e-01     4.25898927e-01      6.02174095e-01      
C    2.04876360e-01      9.05648351e-01      -1.18045860e+00     
H    5.50741637e-01      1.87840926e+00      -8.39108107e-01     
H    9.57690644e-01      4.81214458e-01      -1.84040811e+00     
C    -1.10488500e+00     1.05243163e+00      -1.91759038e+00     
O    -2.13852341e+00     5.12888523e-01      -1.58481505e+00     
O    -9.54849525e-01     1.85324428e+00      -2.97405251e+00     
H    -1.82059761e+00     1.91801978e+00      -3.41629654e+00     
O    -1.97556635e+00     1.38802452e+00      1.31099901e+00      
H    -2.81366200e+00     1.32849976e+00      8.42474688e-01      
H    -2.19776151e+00     1.59595381e+00      2.22255975e+00      
O    2.56685093e+00      -2.43133933e-02     1.07715146e+00      
H    2.88257362e+00      5.03366684e-01      1.81458932e+00      
H    3.23397153e+00      -7.03075435e-01     9.49976674e-01      
O    -9.17621407e-01     -2.24425916e+00     -1.29207833e+00     
H    -1.81081558e+00     -2.11461317e+00     -1.62503248e+00     
H    -8.02378372e-01     -3.19486877e+00     -1.21078385e+00     
20
345.466027
N    -5.86169769e-03     1.38558317e-02      -2.17170015e-02     
H    8.95038257e-01      -8.75082757e-02     4.85869750e-01      
H    -3.45092385e-01     -9.14055838e-01     -3.59181935e-01     
H    -7.35386126e-01     4.25955542e-01      6.01137419e-01      
C    2.05223199e-01      9.05587069e-01      -1.18023214e+00     
H    5.51459450e-01      1.87795908e+00      -8.38115063e-01     
H    9.58427567e-01      4.80698713e-01      -1.83946206e+00     
C    -1.10417889e+00     1.05280199e+00      -1.91782020e+00     
O    -2.13729633e+00     5.12787669e-01      -1.58417561e+00     
O    -9.55867043e-01     1.85337763e+00      -2.97465212e+00     
H    -1.82229416e+00     1.91713759e+00      -3.41575506e+00     
O    -1.97522127e+00     1.38705279e+00      1.31068391e+00      
H    -2.81361537e+00     1.33555127e+00      8.41327810e-01      
H    -2.19619102e+00     1.59762729e+00      2.22194185e+00      
O    2.56743013e+00      -2.42763622e-02     1.07733522e+00      
H    2.88318054e+00      5.03314602e-01      1.81482456e+00      
H    3.23455631e+00      -7.03052222e-01     9.50265818e-01      
O    -9.17749388e-01     -2.24360671e+00     -1.29122948e+00     
H    -1.80850367e+00     -2.11533941e+00     -1.63175306e+00     
H    -8.00526031e-01     -3.19416278e+00     -1.21209508e+00     
20
345.466027
N    -9.83627375e-03     1.30830227e-02      -2.22540276e-02     
H    8.89597275e-01      -9.00134563e-02     4.87154165e-01      
H    -3.49981714e-01     -9.14014699e-01     -3.61306954e-01     
H    -7.40296519e-01     4.26068772e-01      5.99064067e-01      
C    2.05916876e-01      9.05464506e-01      -1.17977920e+00     
H    5.52895075e-01      1.87705871e+00      -8.36128976e-01     
H    9.59901413e-01      4.79667223e-01      -1.83756997e+00     
C    -1.10276667e+00     1.05354270e+00      -1.91827984e+00     
O    -2.13484215e+00     5.12585960e-01      -1.58289672e+00     
O    -9.57902078e-01     1.85364434e+00      -2.97585135e+00     
H    -1.82568726e+00     1.91537322e+00      -3.41467210e+00     
O    -1.97453111e+00     1.38510934e+00      1.31005370e+00      
H    -2.81352210e+00     1.34965430e+00      8.39034054e-01      
H    -2.19305004e+00     1.60097425e+00      2.22070606e+00      
O    2.56858854e+00      -2.42023001e-02     1.07770273e+00      
H    2.88439437e+00      5.03210438e-01      1.81529505e+00      
H    3.23572587e+00      -7.03005796e-01     9.50844105e-01      
O    -9.18005349e-01     -2.24230180e+00     -1.28953179e+00     
H    -1.80387987e+00     -2.11679190e+00     -1.64519424e+00     
H    -7.96821349e-01     -3.19275080e+00     -1.21471754e+00     
20
345.466027
N    -1.38108498e-02     1.23102138e-02      -2.27910537e-02     
H    8.84156292e-01      -9.25186369e-02     4.88438579e-01      
H    -3.54871043e-01     -9.13973560e-01     -3.63431974e-01     
H    -7.45206913e-01     4.26182002e-01      5.96990714e-01      
C    2.06610553e-01      9.05341943e-01      -1.17932626e+00     
H    5.54330701e-01      1.87615834e+00      -8.34142889e-01     
H    9.61375259e-01      4.78635733e-01      -1.83567789e+00     
C    -1.10135445e+00     1.05428341e+00      -1.91873948e+00     
O    -2.13238798e+00     5.12384251e-01      -1.58161784e+00     
O    -9.59937113e-01     1.85391104e+00      -2.97705057e+00     
H    -1.82908037e+00     1.91360884e+00      -3.41358915e+00     
O    -1.97384095e+00     1.38316589e+00      1.30942349e+00      
H    -2.81342883e+00     1.36375732e+00      8.36740299e-01      
H    -2.18990907e+00     1.60432121e+00      2.21947026e+00      
O    2.56974694e+00      -2.41282380e-02     1.07807024e+00      
H    2.88560819e+00      5.03106274e-01      1.81576553e+00      
H    3.23689542e+00      -7.02959370e-01     9.51422391e-01      
O    -9.18261309e-01     -2.24099689e+00     -1.28783410e+00     
H    -1.79925607e+00     -2.11824439e+00     -1.65863541e+00     
H    -7.93116668e-01     -3.19133882e+00     -1.21733999e+00     
20
345.466027
N    -1.77854259e-02     1.15374049e-02      -2.33280798e-02     
H    8.78715310e-01      -9.50238176e-02     4.89722994e-01      
H    -3.59760373e-01     -9.13932421e-01     -3.65556994e-01     
H    -7.50117307e-01     4.26295232e-01      5.94917362e-01      
C    2.07304229e-01      9.05219381e-01      -1.17887333e+00     
H    5.55766327e-01      1.87525797e+00      -8.32156802e-01     
H    9.62849105e-01      4.77604243e-01      -1.83378580e+00     
C    -1.09994223e+00     1.05502413e+00      -1.91919911e+00     
O    -2.12993381e+00     5.12182542e-01      -1.58033896e+00     
O    -9.61972148e-01     1.85417774e+00      -2.97824979e+00     
H    -1.83247347e+00     1.91184446e+00      -3.41250619e+00     
O    -1.97315079e+00     1.38122243e+00      1.30879328e+00      
H    -2.81333557e+00     1.37786034e+00      8.34446543e-01      
H    -2.18676809e+00     1.60766818e+00      2.21823447e+00      
O    2.57090535e+00      -2.40541759e-02     1.07843774e+00      
H    2.88682202e+00      5.03002110e-01      1.81623602e+00      
H    3.23806498e+00      -7.02912943e-01     9.52000678e-01      
O    -9.18517270e-01     -2.23969198e+00     -1.28613640e+00     
H    -1.79463226e+00     -2.11969688e+00     -1.67207658e+00     
H    -7.89411986e-01     -3.18992683e+00     -1.21996245e+00     
20
345.466027
N    -2.17600019e-02     1.07645960e-02      -2.38651059e-02     
H    8.73274328e-01      -9.75289982e-02     4.91007409e-01      
H    -3.64649702e-01     -9.13891283e-01     -3.67682014e-01     
H    -7.55027701e-01     4.26408462e-01      5.92844010e-01      
C    2.07997906e-01      9.05096818e-01      -1.17842039e+00     
H    5.57201953e-01      1.87435759e+00      -8.30170714e-01     
H    9.64322951e-01      4.76572753e-01      -1.83189371e+00     
C    -1.09853001e+00     1.05576484e+00      -1.91965875e+00     
O    -2.12747964e+00     5.11980833e-01      -1.57906008e+00     
O    -9.64007183e-01     1.85444444e+00      -2.97944901e+00     
H    -1.83586658e+00     1.91008008e+00      -3.41142324e+00     
O    -1.97246062e+00     1.37927898e+00      1.30816307e+00      
H    -2.81324230e+00     1.39196336e+00      8.32152787e-01      
H    -2.18362712e+00     1.61101514e+00      2.21699867e+00      
O    2.57206375e+00      -2.39801138e-02     1.07880525e+00      
H    2.88803585e+00      5.02897946e-01      1.81670651e+00      
H    3.23923454e+00      -7.02866517e-01     9.52578965e-01      
O    -9.18773231e-01     -2.23838707e+00     -1.28443871e+00     
H    -1.79000846e+00     -2.12114936e+00     -1.68551775e+00     
H    -7.85707304e-01     -3.18851485e+00     -1.22258491e+00     
20
345.466027
N    -2.97091541e-02     9.21897811e-03      -2.49391581e-02     
H    8.62392364e-01      -1.02539359e-01     4.93576239e-01      
H    -3.74428360e-01     -9.13809005e-01     -3.71932053e-01     
H    -7.64848488e-01     4.26634923e-01      5.88697305e-01      
C    2.09385260e-01      9.04851692e-01      -1.17751452e+00     
H    5.60073204e-01      1.87255685e+00      -8.26198540e-01     
H    9.67270644e-01      4.74509773e-01      -1.82810953e+00     
C    -1.09570556e+00     1.05724627e+00      -1.92057802e+00     
O    -2.12257129e+00     5.11577414e-01      -1.57650232e+00     
O    -9.68077253e-01     1.85497785e+00      -2.98184746e+00     
H    -1.84265279e+00     1.90655133e+00      -3.40925733e+00     
O    -1.97108030e+00     1.37539207e+00      1.30690265e+00      
H    -2.81305577e+00     1.42016941e+00      8.27565276e-01      
H    -2.17734517e+00     1.61770907e+00      2.21452708e+00      
O    2.57438057e+00      -2.38319896e-02     1.07954027e+00      
H    2.89046351e+00      5.02689618e-01      1.81764748e+00      
H    3.24157365e+00      -7.02773665e-01     9.53735539e-01      
O    -9.19285153e-01     -2.23577724e+00     -1.28104332e+00     
H    -1.78076086e+00     -2.12405434e+00     -1.71240009e+00     
H    -7.78297940e-01     -3.18569088e+00     -1.22782982e+00     
