20
494.324220
N    -3.11946286e-02     3.78679743e-02      -6.55188426e-02     
H    8.60929815e-01      -7.34659065e-02     4.52412898e-01      
H    -3.68090174e-01     -8.91903502e-01     -4.01701087e-01     
H    -7.58974535e-01     4.50135807e-01      5.60071551e-01      
C    1.90520140e-01      9.21837858e-01      -1.20888379e+00     
H    5.26253268e-01      1.90161544e+00      -8.77451812e-01     
H    9.34244497e-01      5.00842529e-01      -1.88131600e+00     
C    -1.12282852e+00     1.03948219e+00      -1.90681363e+00     
O    -2.14552892e+00     4.88528572e-01      -1.55367081e+00     
O    -9.06313994e-01     1.84580736e+00      -2.94394935e+00     
H    -1.73217732e+00     1.97002557e+00      -3.45292825e+00     
O    -1.97234920e+00     1.38867413e+00      1.31456934e+00      
H    -2.79439541e+00     1.29754000e+00      8.22164373e-01      
H    -2.22765268e+00     1.60973504e+00      2.21496830e+00      
O    2.57080232e+00      -2.43003241e-02     1.07873909e+00      
H    2.88700235e+00      5.02807331e-01      1.81620378e+00      
H    3.23814840e+00      -7.02768326e-01     9.52212243e-01      
O    -9.13576535e-01     -2.24645144e+00     -1.29054458e+00     
H    -1.81018124e+00     -2.08160121e+00     -1.59949812e+00     
H    -8.26057051e-01     -3.20241738e+00     -1.23366151e+00     
20
494.324220
N    -2.28741079e-02     3.22513431e-02      -5.42998693e-02     
H    8.72177417e-01      -7.57239085e-02     4.60134904e-01      
H    -3.59896062e-01     -8.97462155e-01     -3.90008789e-01     
H    -7.50622236e-01     4.44034126e-01      5.71374694e-01      
C    1.93849066e-01      9.17836442e-01      -1.20194734e+00     
H    5.31837001e-01      1.89615154e+00      -8.68610669e-01     
H    9.39553342e-01      4.96322320e-01      -1.87179856e+00     
C    -1.11887222e+00     1.04244178e+00      -1.90933545e+00     
O    -2.14469785e+00     4.94694201e-01      -1.56193645e+00     
O    -9.17684739e-01     1.84756658e+00      -2.95102543e+00     
H    -1.75300997e+00     1.95768577e+00      -3.44417643e+00     
O    -1.97341229e+00     1.38924052e+00      1.31391308e+00      
H    -2.79924704e+00     1.29999131e+00      8.28102110e-01      
H    -2.22135775e+00     1.60503462e+00      2.21732958e+00      
O    2.56938007e+00      -2.43313646e-02     1.07820437e+00      
H    2.88543998e+00      5.02986230e-01      1.81562373e+00      
H    3.23666560e+00      -7.02862513e-01     9.51436493e-01      
O    -9.14491768e-01     -2.24639272e+00     -1.29156465e+00     
H    -1.81207375e+00     -2.08930952e+00     -1.60084127e+00     
H    -8.21526637e-01     -3.20105972e+00     -1.22695867e+00     
20
494.324220
N    -1.87138475e-02     2.94430275e-02      -4.86903826e-02     
H    8.77801217e-01      -7.68529095e-02     4.63995906e-01      
H    -3.55799006e-01     -9.00241482e-01     -3.84162640e-01     
H    -7.46446086e-01     4.40983285e-01      5.77026266e-01      
C    1.95513529e-01      9.15835734e-01      -1.19847912e+00     
H    5.34628867e-01      1.89341958e+00      -8.64190097e-01     
H    9.42207764e-01      4.94062215e-01      -1.86703984e+00     
C    -1.11689407e+00     1.04392158e+00      -1.91059637e+00     
O    -2.14428232e+00     4.97777015e-01      -1.56606927e+00     
O    -9.23370111e-01     1.84844619e+00      -2.95456348e+00     
H    -1.76342630e+00     1.95151587e+00      -3.43980052e+00     
O    -1.97394384e+00     1.38952372e+00      1.31358496e+00      
H    -2.80167285e+00     1.30121696e+00      8.31070979e-01      
H    -2.21821029e+00     1.60268441e+00      2.21851022e+00      
O    2.56866894e+00      -2.43468849e-02     1.07793701e+00      
H    2.88465880e+00      5.03075680e-01      1.81533371e+00      
H    3.23592420e+00      -7.02909606e-01     9.51048618e-01      
O    -9.14949384e-01     -2.24636335e+00     -1.29207469e+00     
H    -1.81302001e+00     -2.09316367e+00     -1.60151284e+00     
H    -8.19261430e-01     -3.20038089e+00     -1.22360726e+00     
20
494.324220
N    -1.45535871e-02     2.66347119e-02      -4.30808960e-02     
H    8.83425018e-01      -7.79819105e-02     4.67856909e-01      
H    -3.51701950e-01     -9.03020808e-01     -3.78316491e-01     
H    -7.42269936e-01     4.37932445e-01      5.82677837e-01      
C    1.97177993e-01      9.13835026e-01      -1.19501090e+00     
H    5.37420733e-01      1.89068763e+00      -8.59769525e-01     
H    9.44862186e-01      4.91802111e-01      -1.86228112e+00     
C    -1.11491592e+00     1.04540138e+00      -1.91185728e+00     
O    -2.14386679e+00     5.00859830e-01      -1.57020209e+00     
O    -9.29055484e-01     1.84932580e+00      -2.95810152e+00     
H    -1.77384263e+00     1.94534596e+00      -3.43542461e+00     
O    -1.97447539e+00     1.38980691e+00      1.31325683e+00      
H    -2.80409866e+00     1.30244261e+00      8.34039847e-01      
H    -2.21506282e+00     1.60033420e+00      2.21969087e+00      
O    2.56795782e+00      -2.43624052e-02     1.07766965e+00      
H    2.88387761e+00      5.03165130e-01      1.81504369e+00      
H    3.23518280e+00      -7.02956700e-01     9.50660744e-01      
O    -9.15407001e-01     -2.24633399e+00     -1.29258472e+00     
H    -1.81396626e+00     -2.09701782e+00     -1.60218442e+00     
H    -8.16996223e-01     -3.19970206e+00     -1.22025584e+00     
20
494.324220
N    -1.03933267e-02     2.38263963e-02      -3.74714093e-02     
H    8.89048819e-01      -7.91109115e-02     4.71717912e-01      
H    -3.47604894e-01     -9.05800135e-01     -3.72470342e-01     
H    -7.38093787e-01     4.34881604e-01      5.88329409e-01      
C    1.98842456e-01      9.11834318e-01      -1.19154268e+00     
H    5.40212599e-01      1.88795568e+00      -8.55348953e-01     
H    9.47516608e-01      4.89542006e-01      -1.85752240e+00     
C    -1.11293777e+00     1.04688117e+00      -1.91311819e+00     
O    -2.14345126e+00     5.03942644e-01      -1.57433491e+00     
O    -9.34740856e-01     1.85020540e+00      -2.96163956e+00     
H    -1.78425896e+00     1.93917606e+00      -3.43104870e+00     
O    -1.97500694e+00     1.39009011e+00      1.31292871e+00      
H    -2.80652447e+00     1.30366827e+00      8.37008716e-01      
H    -2.21191536e+00     1.59798399e+00      2.22087151e+00      
O    2.56724669e+00      -2.43779255e-02     1.07740229e+00      
H    2.88309643e+00      5.03254580e-01      1.81475366e+00      
H    3.23444140e+00      -7.03003793e-01     9.50272869e-01      
O    -9.15864617e-01     -2.24630462e+00     -1.29309476e+00     
H    -1.81491252e+00     -2.10087198e+00     -1.60285599e+00     
H    -8.14731016e-01     -3.19902324e+00     -1.21690442e+00     
20
494.324220
N    -6.23306633e-03     2.10180807e-02      -3.18619226e-02     
H    8.94672620e-01      -8.02399125e-02     4.75578915e-01      
H    -3.43507838e-01     -9.08579462e-01     -3.66624193e-01     
H    -7.33917637e-01     4.31830763e-01      5.93980981e-01      
C    2.00506919e-01      9.09833611e-01      -1.18807445e+00     
H    5.43004466e-01      1.88522373e+00      -8.50928382e-01     
H    9.50171031e-01      4.87281902e-01      -1.85276368e+00     
C    -1.11095963e+00     1.04836097e+00      -1.91437910e+00     
O    -2.14303573e+00     5.07025458e-01      -1.57846773e+00     
O    -9.40426228e-01     1.85108501e+00      -2.96517760e+00     
H    -1.79467529e+00     1.93300616e+00      -3.42667279e+00     
O    -1.97553849e+00     1.39037331e+00      1.31260058e+00      
H    -2.80895028e+00     1.30489392e+00      8.39977584e-01      
H    -2.20876790e+00     1.59563378e+00      2.22205215e+00      
O    2.56653557e+00      -2.43934458e-02     1.07713492e+00      
H    2.88231525e+00      5.03344030e-01      1.81446364e+00      
H    3.23370000e+00      -7.03050887e-01     9.49884994e-01      
O    -9.16322233e-01     -2.24627526e+00     -1.29360480e+00     
H    -1.81585877e+00     -2.10472613e+00     -1.60352757e+00     
H    -8.12465809e-01     -3.19834441e+00     -1.21355300e+00     
20
494.324220
N    -4.15293614e-03     1.96139229e-02      -2.90571793e-02     
H    8.97484520e-01      -8.08044130e-02     4.77509416e-01      
H    -3.41459310e-01     -9.09969125e-01     -3.63701118e-01     
H    -7.31829562e-01     4.30305343e-01      5.96806766e-01      
C    2.01339150e-01      9.08833257e-01      -1.18634034e+00     
H    5.44400399e-01      1.88385775e+00      -8.48718096e-01     
H    9.51498242e-01      4.86151850e-01      -1.85038432e+00     
C    -1.10997055e+00     1.04910087e+00      -1.91500956e+00     
O    -2.14282797e+00     5.08566865e-01      -1.58053414e+00     
O    -9.43268915e-01     1.85152482e+00      -2.96694662e+00     
H    -1.79988346e+00     1.92992120e+00      -3.42448483e+00     
O    -1.97580427e+00     1.39051490e+00      1.31243652e+00      
H    -2.81016318e+00     1.30550675e+00      8.41462018e-01      
H    -2.20719417e+00     1.59445867e+00      2.22264248e+00      
O    2.56618001e+00      -2.44012060e-02     1.07700124e+00      
H    2.88192466e+00      5.03388755e-01      1.81431863e+00      
H    3.23332930e+00      -7.03074434e-01     9.49691056e-01      
O    -9.16551042e-01     -2.24626058e+00     -1.29385982e+00     
H    -1.81633190e+00     -2.10665321e+00     -1.60386336e+00     
H    -8.11333205e-01     -3.19800499e+00     -1.21187730e+00     
20
494.324220
N    -2.07280594e-03     1.82097651e-02      -2.62524360e-02     
H    9.00296420e-01      -8.13689135e-02     4.79439917e-01      
H    -3.39410782e-01     -9.11358788e-01     -3.60778044e-01     
H    -7.29741488e-01     4.28779923e-01      5.99632552e-01      
C    2.02171382e-01      9.07832903e-01      -1.18460623e+00     
H    5.45796332e-01      1.88249177e+00      -8.46507810e-01     
H    9.52825453e-01      4.85021797e-01      -1.84800496e+00     
C    -1.10898148e+00     1.04984076e+00      -1.91564002e+00     
O    -2.14262020e+00     5.10108273e-01      -1.58260055e+00     
O    -9.46111601e-01     1.85196462e+00      -2.96871564e+00     
H    -1.80509162e+00     1.92683625e+00      -3.42229688e+00     
O    -1.97607004e+00     1.39065650e+00      1.31227246e+00      
H    -2.81137609e+00     1.30611958e+00      8.42946453e-01      
H    -2.20562043e+00     1.59328357e+00      2.22323280e+00      
O    2.56582444e+00      -2.44089661e-02     1.07686756e+00      
H    2.88153406e+00      5.03433480e-01      1.81417361e+00      
H    3.23295860e+00      -7.03097980e-01     9.49497119e-01      
O    -9.16779850e-01     -2.24624589e+00     -1.29411483e+00     
H    -1.81680503e+00     -2.10858029e+00     -1.60419914e+00     
H    -8.10200602e-01     -3.19766558e+00     -1.21020159e+00     
20
494.324220
N    6.24771482e-03      1.25931339e-02      -1.50334626e-02     
H    9.11544022e-01      -8.36269155e-02     4.87161923e-01      
H    -3.31216670e-01     -9.16917442e-01     -3.49085746e-01     
H    -7.21389188e-01     4.22678241e-01      6.10935696e-01      
C    2.05500308e-01      9.03831487e-01      -1.17766979e+00     
H    5.51380064e-01      1.87702787e+00      -8.37666666e-01     
H    9.58134297e-01      4.80501589e-01      -1.83848752e+00     
C    -1.10502518e+00     1.05280036e+00      -1.91816184e+00     
O    -2.14178914e+00     5.16273901e-01      -1.59086619e+00     
O    -9.57482345e-01     1.85372384e+00      -2.97579172e+00     
H    -1.82592428e+00     1.91449645e+00      -3.41354506e+00     
O    -1.97713314e+00     1.39122290e+00      1.31161620e+00      
H    -2.81622771e+00     1.30857088e+00      8.48884189e-01      
H    -2.19932551e+00     1.58858315e+00      2.22559408e+00      
O    2.56440220e+00      -2.44400067e-02     1.07633284e+00      
H    2.87997170e+00      5.03612380e-01      1.81359357e+00      
H    3.23147580e+00      -7.03192168e-01     9.48721369e-01      
O    -9.17695082e-01     -2.24618717e+00     -1.29513491e+00     
H    -1.81869753e+00     -2.11628859e+00     -1.60554230e+00     
H    -8.05670188e-01     -3.19630792e+00     -1.20349875e+00     
20
494.324220
N    8.32784502e-03      1.11889761e-02      -1.22287193e-02     
H    9.14355922e-01      -8.41914160e-02     4.89092424e-01      
H    -3.29168142e-01     -9.18307105e-01     -3.46162672e-01     
H    -7.19301114e-01     4.21152821e-01      6.13761482e-01      
C    2.06332540e-01      9.02831133e-01      -1.17593568e+00     
H    5.52775997e-01      1.87566189e+00      -8.35456380e-01     
H    9.59461508e-01      4.79371536e-01      -1.83610816e+00     
C    -1.10403611e+00     1.05354025e+00      -1.91879230e+00     
O    -2.14158137e+00     5.17815309e-01      -1.59293260e+00     
O    -9.60325031e-01     1.85416364e+00      -2.97756074e+00     
H    -1.83113244e+00     1.91141150e+00      -3.41135711e+00     
O    -1.97739891e+00     1.39136450e+00      1.31145214e+00      
H    -2.81744062e+00     1.30918371e+00      8.50368624e-01      
H    -2.19775177e+00     1.58740805e+00      2.22618440e+00      
O    2.56404663e+00      -2.44477668e-02     1.07619916e+00      
H    2.87958110e+00      5.03657105e-01      1.81344855e+00      
H    3.23110510e+00      -7.03215714e-01     9.48527432e-01      
O    -9.17923890e-01     -2.24617248e+00     -1.29538992e+00     
H    -1.81917066e+00     -2.11821567e+00     -1.60587808e+00     
H    -8.04537585e-01     -3.19596851e+00     -1.20182304e+00     
20
494.324220
N    1.04079752e-02      9.78481830e-03      -9.42397597e-03     
H    9.17167822e-01      -8.47559165e-02     4.91022925e-01      
H    -3.27119614e-01     -9.19696768e-01     -3.43239597e-01     
H    -7.17213039e-01     4.19627401e-01      6.16587267e-01      
C    2.07164771e-01      9.01830779e-01      -1.17420157e+00     
H    5.54171930e-01      1.87429591e+00      -8.33246094e-01     
H    9.60788719e-01      4.78241484e-01      -1.83372880e+00     
C    -1.10304703e+00     1.05428015e+00      -1.91942276e+00     
O    -2.14137361e+00     5.19356716e-01      -1.59499901e+00     
O    -9.63167718e-01     1.85460345e+00      -2.97932976e+00     
H    -1.83634061e+00     1.90832654e+00      -3.40916915e+00     
O    -1.97766469e+00     1.39150609e+00      1.31128808e+00      
H    -2.81865352e+00     1.30979654e+00      8.51853058e-01      
H    -2.19617804e+00     1.58623294e+00      2.22677473e+00      
O    2.56369107e+00      -2.44555270e-02     1.07606548e+00      
H    2.87919051e+00      5.03701830e-01      1.81330354e+00      
H    3.23073440e+00      -7.03239261e-01     9.48333494e-01      
O    -9.18152699e-01     -2.24615780e+00     -1.29564494e+00     
H    -1.81964379e+00     -2.12014275e+00     -1.60621387e+00     
H    -8.03404981e-01     -3.19562909e+00     -1.20014734e+00     
20
494.324220
N    1.45682356e-02      6.97650269e-03      -3.81448930e-03     
H    9.22791623e-01      -8.58849175e-02     4.94883928e-01      
H    -3.23022558e-01     -9.22476095e-01     -3.37393448e-01     
H    -7.13036889e-01     4.16576560e-01      6.22238839e-01      
C    2.08829234e-01      8.99830072e-01      -1.17073334e+00     
H    5.56963797e-01      1.87156396e+00      -8.28825523e-01     
H    9.63443142e-01      4.75981380e-01      -1.82897008e+00     
C    -1.10106889e+00     1.05575995e+00      -1.92068367e+00     
O    -2.14095808e+00     5.22439530e-01      -1.59913183e+00     
O    -9.68853090e-01     1.85548306e+00      -2.98286780e+00     
H    -1.84675694e+00     1.90215664e+00      -3.40479324e+00     
O    -1.97819624e+00     1.39178929e+00      1.31095995e+00      
H    -2.82107933e+00     1.31102219e+00      8.54821926e-01      
H    -2.19303058e+00     1.58388273e+00      2.22795537e+00      
O    2.56297995e+00      -2.44710473e-02     1.07579811e+00      
H    2.87840933e+00      5.03791280e-01      1.81301352e+00      
H    3.22999300e+00      -7.03286355e-01     9.47945619e-01      
O    -9.18610315e-01     -2.24612844e+00     -1.29615498e+00     
H    -1.82059004e+00     -2.12399690e+00     -1.60688545e+00     
H    -8.01139774e-01     -3.19495026e+00     -1.19679592e+00     
20
494.324220
N    1.87284960e-02      4.16818709e-03      1.79499737e-03      
H    9.28415424e-01      -8.70139185e-02     4.98744931e-01      
H    -3.18925502e-01     -9.25255422e-01     -3.31547299e-01     
H    -7.08860740e-01     4.13525719e-01      6.27890411e-01      
C    2.10493697e-01      8.97829364e-01      -1.16726512e+00     
H    5.59755663e-01      1.86883201e+00      -8.24404951e-01     
H    9.66097564e-01      4.73721275e-01      -1.82421136e+00     
C    -1.09909074e+00     1.05723974e+00      -1.92194458e+00     
O    -2.14054255e+00     5.25522344e-01      -1.60326465e+00     
O    -9.74538462e-01     1.85636266e+00      -2.98640584e+00     
H    -1.85717327e+00     1.89598674e+00      -3.40041733e+00     
O    -1.97872779e+00     1.39207249e+00      1.31063183e+00      
H    -2.82350514e+00     1.31224785e+00      8.57790795e-01      
H    -2.18988312e+00     1.58153252e+00      2.22913601e+00      
O    2.56226882e+00      -2.44865676e-02     1.07553075e+00      
H    2.87762815e+00      5.03880730e-01      1.81272349e+00      
H    3.22925160e+00      -7.03333448e-01     9.47557744e-01      
O    -9.19067931e-01     -2.24609907e+00     -1.29666502e+00     
H    -1.82153630e+00     -2.12785106e+00     -1.60755702e+00     
H    -7.98874567e-01     -3.19427144e+00     -1.19344450e+00     
20
494.324220
N    2.28887564e-02      1.35987149e-03      7.40448403e-03      
H    9.34039225e-01      -8.81429195e-02     5.02605934e-01      
H    -3.14828446e-01     -9.28034748e-01     -3.25701150e-01     
H    -7.04684590e-01     4.10474879e-01      6.33541982e-01      
C    2.12158161e-01      8.95828656e-01      -1.16379690e+00     
H    5.62547529e-01      1.86610006e+00      -8.19984379e-01     
H    9.68751986e-01      4.71461171e-01      -1.81945264e+00     
C    -1.09711259e+00     1.05871954e+00      -1.92320549e+00     
O    -2.14012702e+00     5.28605159e-01      -1.60739747e+00     
O    -9.80223835e-01     1.85724227e+00      -2.98994388e+00     
H    -1.86758960e+00     1.88981683e+00      -3.39604142e+00     
O    -1.97925934e+00     1.39235568e+00      1.31030370e+00      
H    -2.82593095e+00     1.31347350e+00      8.60759663e-01      
H    -2.18673565e+00     1.57918231e+00      2.23031666e+00      
O    2.56155770e+00      -2.45020879e-02     1.07526339e+00      
H    2.87684696e+00      5.03970180e-01      1.81243347e+00      
H    3.22851020e+00      -7.03380542e-01     9.47169870e-01      
O    -9.19525548e-01     -2.24606971e+00     -1.29717505e+00     
H    -1.82248255e+00     -2.13170521e+00     -1.60822860e+00     
H    -7.96609360e-01     -3.19359261e+00     -1.19009308e+00     
20
494.324220
N    2.70490167e-02      -1.44844411e-03     1.30139707e-02      
H    9.39663025e-01      -8.92719205e-02     5.06466936e-01      
H    -3.10731390e-01     -9.30814075e-01     -3.19855001e-01     
H    -7.00508440e-01     4.07424038e-01      6.39193554e-01      
C    2.13822624e-01      8.93827948e-01      -1.16032868e+00     
H    5.65339395e-01      1.86336810e+00      -8.15563807e-01     
H    9.71406408e-01      4.69201066e-01      -1.81469392e+00     
C    -1.09513444e+00     1.06019934e+00      -1.92446641e+00     
O    -2.13971149e+00     5.31687973e-01      -1.61153029e+00     
O    -9.85909207e-01     1.85812188e+00      -2.99348193e+00     
H    -1.87800593e+00     1.88364693e+00      -3.39166551e+00     
O    -1.97979089e+00     1.39263888e+00      1.30997558e+00      
H    -2.82835676e+00     1.31469915e+00      8.63728532e-01      
H    -2.18358819e+00     1.57683210e+00      2.23149730e+00      
O    2.56084657e+00      -2.45176082e-02     1.07499603e+00      
H    2.87606578e+00      5.04059630e-01      1.81214345e+00      
H    3.22776880e+00      -7.03427635e-01     9.46781995e-01      
O    -9.19983164e-01     -2.24604034e+00     -1.29768509e+00     
H    -1.82342881e+00     -2.13555936e+00     -1.60890017e+00     
H    -7.94344153e-01     -3.19291378e+00     -1.18674167e+00     
20
494.324220
N    3.53695375e-02      -7.06507532e-03     2.42329440e-02      
H    9.50910627e-01      -9.15299225e-02     5.14188942e-01      
H    -3.02537278e-01     -9.36372728e-01     -3.08162703e-01     
H    -6.92156141e-01     4.01322357e-01      6.50496697e-01      
C    2.17151550e-01      8.89826532e-01      -1.15339223e+00     
H    5.70923128e-01      1.85790420e+00      -8.06722664e-01     
H    9.76715253e-01      4.64680857e-01      -1.80517648e+00     
C    -1.09117814e+00     1.06315893e+00      -1.92698823e+00     
O    -2.13888042e+00     5.37853602e-01      -1.61979593e+00     
O    -9.97279952e-01     1.85988110e+00      -3.00055801e+00     
H    -1.89883858e+00     1.87130713e+00      -3.38291369e+00     
O    -1.98085398e+00     1.39320527e+00      1.30931932e+00      
H    -2.83320839e+00     1.31715046e+00      8.69666269e-01      
H    -2.17729326e+00     1.57213168e+00      2.23385858e+00      
O    2.55942432e+00      -2.45486487e-02     1.07446131e+00      
H    2.87450341e+00      5.04238529e-01      1.81156340e+00      
H    3.22628600e+00      -7.03521822e-01     9.46006245e-01      
O    -9.20898397e-01     -2.24598162e+00     -1.29870516e+00     
H    -1.82532132e+00     -2.14326767e+00     -1.61024332e+00     
H    -7.89813739e-01     -3.19155612e+00     -1.18003883e+00     
