20
660.439704
N    1.65181046e-03      1.68971723e-02      -1.95710093e-02     
H    8.83657299e-01      -6.06155726e-03     5.38078953e-01      
H    -2.43598685e-01     -9.42879683e-01     -3.60550543e-01     
H    -7.95603252e-01     3.80045571e-01      5.57566121e-01      
C    2.04927618e-01      9.02083585e-01      -1.18382444e+00     
H    5.40779257e-01      1.88053266e+00      -8.48194622e-01     
H    9.63773285e-01      4.80325214e-01      -1.83833106e+00     
C    -1.10551651e+00     1.04621578e+00      -1.92055930e+00     
O    -2.14308356e+00     5.16208678e-01      -1.58457077e+00     
O    -9.53916406e-01     1.86012107e+00      -2.96703878e+00     
H    -1.79368728e+00     1.84574851e+00      -3.47161088e+00     
O    -1.97392135e+00     1.39232801e+00      1.31472442e+00      
H    -2.80368502e+00     1.28510076e+00      8.38460349e-01      
H    -2.21823652e+00     1.60268908e+00      2.22028265e+00      
O    2.56597079e+00      -2.73684382e-02     1.07449038e+00      
H    2.86361300e+00      5.07832656e-01      1.81469943e+00      
H    3.24575389e+00      -6.95084452e-01     9.57158938e-01      
O    -9.20865244e-01     -2.24435161e+00     -1.29507354e+00     
H    -1.81674056e+00     -2.12839487e+00     -1.62479521e+00     
H    -7.97050480e-01     -3.19199254e+00     -1.19071551e+00     
20
660.439704
N    1.76072146e-03      1.65232416e-02      -1.98389943e-02     
H    8.89223030e-01      -2.51706466e-02     5.24384445e-01      
H    -2.66527445e-01     -9.35694291e-01     -3.59145881e-01     
H    -7.78093773e-01     3.91466449e-01      5.69495622e-01      
C    2.04654675e-01      9.03020737e-01      -1.18315283e+00     
H    5.42731493e-01      1.88033945e+00      -8.46667776e-01     
H    9.61699933e-01      4.80934333e-01      -1.83955985e+00     
C    -1.10588821e+00     1.04749197e+00      -1.91964471e+00     
O    -2.14286384e+00     5.15454280e-01      -1.58511142e+00     
O    -9.53386548e-01     1.85830186e+00      -2.96834250e+00     
H    -1.79914245e+00     1.86447797e+00      -3.45818840e+00     
O    -1.97459141e+00     1.39198094e+00      1.31402940e+00      
H    -2.80621424e+00     1.29066187e+00      8.40324092e-01      
H    -2.21429563e+00     1.59975015e+00      2.22131535e+00      
O    2.56575643e+00      -2.66324502e-02     1.07501784e+00      
H    2.86789797e+00      5.06755224e-01      1.81449547e+00      
H    3.24236972e+00      -6.97099608e-01     9.55146514e-01      
O    -9.19958300e-01     -2.24481784e+00     -1.29496137e+00     
H    -1.81699324e+00     -2.12440476e+00     -1.61981409e+00     
H    -7.99771709e-01     -3.19324109e+00     -1.19474918e+00     
20
660.439704
N    1.81517695e-03      1.63362762e-02      -1.99729868e-02     
H    8.92005895e-01      -3.47251912e-02     5.17537190e-01      
H    -2.77991825e-01     -9.32101595e-01     -3.58443550e-01     
H    -7.69339034e-01     3.97176887e-01      5.75460372e-01      
C    2.04518203e-01      9.03489313e-01      -1.18281703e+00     
H    5.43707610e-01      1.88024284e+00      -8.45904353e-01     
H    9.60663256e-01      4.81238893e-01      -1.84017425e+00     
C    -1.10607407e+00     1.04813007e+00      -1.91918741e+00     
O    -2.14275398e+00     5.15077081e-01      -1.58538174e+00     
O    -9.53121619e-01     1.85739225e+00      -2.96899437e+00     
H    -1.80187003e+00     1.87384270e+00      -3.45147716e+00     
O    -1.97492644e+00     1.39180740e+00      1.31368189e+00      
H    -2.80747885e+00     1.29344243e+00      8.41255964e-01      
H    -2.21232519e+00     1.59828068e+00      2.22183170e+00      
O    2.56564924e+00      -2.62644563e-02     1.07528156e+00      
H    2.87004046e+00      5.06216509e-01      1.81439349e+00      
H    3.24067763e+00      -6.98107185e-01     9.54140303e-01      
O    -9.19504827e-01     -2.24505096e+00     -1.29490529e+00     
H    -1.81711958e+00     -2.12240971e+00     -1.61732353e+00     
H    -8.01132323e-01     -3.19386537e+00     -1.19676601e+00     
20
660.439704
N    1.86963245e-03      1.61493109e-02      -2.01069793e-02     
H    8.94788760e-01      -4.42797359e-02     5.10689936e-01      
H    -2.89456205e-01     -9.28508899e-01     -3.57741219e-01     
H    -7.60584295e-01     4.02887326e-01      5.81425122e-01      
C    2.04381731e-01      9.03957890e-01      -1.18248122e+00     
H    5.44683728e-01      1.88014624e+00      -8.45140930e-01     
H    9.59626580e-01      4.81543453e-01      -1.84078865e+00     
C    -1.10625992e+00     1.04876817e+00      -1.91873012e+00     
O    -2.14264412e+00     5.14699882e-01      -1.58565207e+00     
O    -9.52856690e-01     1.85648265e+00      -2.96964623e+00     
H    -1.80459762e+00     1.88320743e+00      -3.44476592e+00     
O    -1.97526147e+00     1.39163386e+00      1.31333437e+00      
H    -2.80874346e+00     1.29622299e+00      8.42187835e-01      
H    -2.21035474e+00     1.59681122e+00      2.22234805e+00      
O    2.56554206e+00      -2.58964623e-02     1.07554529e+00      
H    2.87218294e+00      5.05677793e-01      1.81429151e+00      
H    3.23898555e+00      -6.99114763e-01     9.53134091e-01      
O    -9.19051355e-01     -2.24528407e+00     -1.29484920e+00     
H    -1.81724592e+00     -2.12041466e+00     -1.61483297e+00     
H    -8.02492937e-01     -3.19448964e+00     -1.19878284e+00     
20
660.439704
N    1.92408795e-03      1.59623455e-02      -2.02409718e-02     
H    8.97571625e-01      -5.38342805e-02     5.03842682e-01      
H    -3.00920586e-01     -9.24916203e-01     -3.57038888e-01     
H    -7.51829556e-01     4.08597765e-01      5.87389873e-01      
C    2.04245260e-01      9.04426466e-01      -1.18214542e+00     
H    5.45659845e-01      1.88004963e+00      -8.44377507e-01     
H    9.58589904e-01      4.81848013e-01      -1.84140305e+00     
C    -1.10644577e+00     1.04940627e+00      -1.91827282e+00     
O    -2.14253425e+00     5.14322684e-01      -1.58592239e+00     
O    -9.52591761e-01     1.85557304e+00      -2.97029809e+00     
H    -1.80732520e+00     1.89257216e+00      -3.43805469e+00     
O    -1.97559650e+00     1.39146032e+00      1.31298686e+00      
H    -2.81000807e+00     1.29900355e+00      8.43119707e-01      
H    -2.20838430e+00     1.59534175e+00      2.22286440e+00      
O    2.56543487e+00      -2.55284683e-02     1.07580902e+00      
H    2.87432543e+00      5.05139077e-01      1.81418953e+00      
H    3.23729346e+00      -7.00122341e-01     9.52127879e-01      
O    -9.18597883e-01     -2.24551719e+00     -1.29479312e+00     
H    -1.81737226e+00     -2.11841960e+00     -1.61234241e+00     
H    -8.03853552e-01     -3.19511392e+00     -1.20079967e+00     
20
660.439704
N    1.97854345e-03      1.57753802e-02      -2.03749643e-02     
H    9.00354491e-01      -6.33888252e-02     4.96995428e-01      
H    -3.12384966e-01     -9.21323507e-01     -3.56336557e-01     
H    -7.43074816e-01     4.14308204e-01      5.93354623e-01      
C    2.04108788e-01      9.04895042e-01      -1.18180962e+00     
H    5.46635963e-01      1.87995303e+00      -8.43614084e-01     
H    9.57553228e-01      4.82152573e-01      -1.84201744e+00     
C    -1.10663162e+00     1.05004436e+00      -1.91781552e+00     
O    -2.14242439e+00     5.13945485e-01      -1.58619272e+00     
O    -9.52326831e-01     1.85466344e+00      -2.97094995e+00     
H    -1.81005278e+00     1.90193689e+00      -3.43134345e+00     
O    -1.97593153e+00     1.39128678e+00      1.31263935e+00      
H    -2.81127268e+00     1.30178411e+00      8.44051578e-01      
H    -2.20641386e+00     1.59387229e+00      2.22338074e+00      
O    2.56532769e+00      -2.51604743e-02     1.07607275e+00      
H    2.87646791e+00      5.04600361e-01      1.81408755e+00      
H    3.23560137e+00      -7.01129919e-01     9.51121667e-01      
O    -9.18144411e-01     -2.24575030e+00     -1.29473704e+00     
H    -1.81749860e+00     -2.11642455e+00     -1.60985184e+00     
H    -8.05214166e-01     -3.19573820e+00     -1.20281651e+00     
20
660.439704
N    2.00577119e-03      1.56818975e-02      -2.04419605e-02     
H    9.01745923e-01      -6.81660975e-02     4.93571801e-01      
H    -3.18117156e-01     -9.19527159e-01     -3.55985392e-01     
H    -7.38697447e-01     4.17163424e-01      5.96336998e-01      
C    2.04040552e-01      9.05129331e-01      -1.18164172e+00     
H    5.47124022e-01      1.87990473e+00      -8.43232373e-01     
H    9.57034889e-01      4.82304853e-01      -1.84232464e+00     
C    -1.10672455e+00     1.05036341e+00      -1.91758687e+00     
O    -2.14236946e+00     5.13756885e-01      -1.58632788e+00     
O    -9.52194367e-01     1.85420864e+00      -2.97127589e+00     
H    -1.81141657e+00     1.90661926e+00      -3.42798783e+00     
O    -1.97609905e+00     1.39120001e+00      1.31246560e+00      
H    -2.81190499e+00     1.30317439e+00      8.44517514e-01      
H    -2.20542864e+00     1.59313756e+00      2.22363892e+00      
O    2.56527410e+00      -2.49764774e-02     1.07620461e+00      
H    2.87753915e+00      5.04331004e-01      1.81403656e+00      
H    3.23475533e+00      -7.01633707e-01     9.50618562e-01      
O    -9.17917674e-01     -2.24586686e+00     -1.29470900e+00     
H    -1.81756177e+00     -2.11542702e+00     -1.60860656e+00     
H    -8.05894473e-01     -3.19605033e+00     -1.20382492e+00     
20
660.439704
N    2.03299894e-03      1.55884148e-02      -2.05089568e-02     
H    9.03137356e-01      -7.29433698e-02     4.90148174e-01      
H    -3.23849346e-01     -9.17730811e-01     -3.55634226e-01     
H    -7.34320077e-01     4.20018643e-01      5.99319374e-01      
C    2.03972317e-01      9.05363619e-01      -1.18147381e+00     
H    5.47612080e-01      1.87985642e+00      -8.42850661e-01     
H    9.56516551e-01      4.82457133e-01      -1.84263184e+00     
C    -1.10681748e+00     1.05068246e+00      -1.91735823e+00     
O    -2.14231453e+00     5.13568286e-01      -1.58646304e+00     
O    -9.52061902e-01     1.85375383e+00      -2.97160182e+00     
H    -1.81278037e+00     1.91130162e+00      -3.42463221e+00     
O    -1.97626656e+00     1.39111324e+00      1.31229184e+00      
H    -2.81253729e+00     1.30456467e+00      8.44983450e-01      
H    -2.20444341e+00     1.59240282e+00      2.22389709e+00      
O    2.56522050e+00      -2.47924804e-02     1.07633647e+00      
H    2.87861040e+00      5.04061646e-01      1.81398557e+00      
H    3.23390929e+00      -7.02137496e-01     9.50115456e-01      
O    -9.17690938e-01     -2.24598342e+00     -1.29468095e+00     
H    -1.81762494e+00     -2.11442949e+00     -1.60736128e+00     
H    -8.06574781e-01     -3.19636247e+00     -1.20483334e+00     
20
660.439704
N    2.14190994e-03      1.52144842e-02      -2.07769418e-02     
H    9.08703086e-01      -9.20524592e-02     4.76453666e-01      
H    -3.46778106e-01     -9.10545419e-01     -3.54229564e-01     
H    -7.16810599e-01     4.31439521e-01      6.11248874e-01      
C    2.03699373e-01      9.06300771e-01      -1.18080221e+00     
H    5.49564316e-01      1.87966322e+00      -8.41323815e-01     
H    9.54443199e-01      4.83066253e-01      -1.84386064e+00     
C    -1.10718918e+00     1.05195866e+00      -1.91644363e+00     
O    -2.14209481e+00     5.12813888e-01      -1.58700370e+00     
O    -9.51532044e-01     1.85193463e+00      -2.97290554e+00     
H    -1.81823553e+00     1.93003108e+00      -3.41120973e+00     
O    -1.97693662e+00     1.39076616e+00      1.31159682e+00      
H    -2.81506651e+00     1.31012579e+00      8.46847192e-01      
H    -2.20050253e+00     1.58946390e+00      2.22492979e+00      
O    2.56500614e+00      -2.40564924e-02     1.07686393e+00      
H    2.88289536e+00      5.02984214e-01      1.81378161e+00      
H    3.23052511e+00      -7.04152652e-01     9.48103032e-01      
O    -9.16783994e-01     -2.24644964e+00     -1.29456879e+00     
H    -1.81787762e+00     -2.11043939e+00     -1.60238016e+00     
H    -8.09296009e-01     -3.19761103e+00     -1.20886700e+00     
20
660.439704
N    2.16913769e-03      1.51210015e-02      -2.08439381e-02     
H    9.10094519e-01      -9.68297315e-02     4.73030039e-01      
H    -3.52510296e-01     -9.08749071e-01     -3.53878398e-01     
H    -7.12433229e-01     4.34294740e-01      6.14231250e-01      
C    2.03631138e-01      9.06535059e-01      -1.18063430e+00     
H    5.50052374e-01      1.87961491e+00      -8.40942103e-01     
H    9.53924861e-01      4.83218533e-01      -1.84416784e+00     
C    -1.10728211e+00     1.05227771e+00      -1.91621499e+00     
O    -2.14203988e+00     5.12625289e-01      -1.58713886e+00     
O    -9.51399579e-01     1.85147982e+00      -2.97323147e+00     
H    -1.81959933e+00     1.93471344e+00      -3.40785411e+00     
O    -1.97710413e+00     1.39067939e+00      1.31142306e+00      
H    -2.81569881e+00     1.31151607e+00      8.47313128e-01      
H    -2.19951730e+00     1.58872916e+00      2.22518796e+00      
O    2.56495254e+00      -2.38724954e-02     1.07699579e+00      
H    2.88396661e+00      5.02714856e-01      1.81373062e+00      
H    3.22967907e+00      -7.04656441e-01     9.47599926e-01      
O    -9.16557258e-01     -2.24656620e+00     -1.29454074e+00     
H    -1.81794079e+00     -2.10944186e+00     -1.60113488e+00     
H    -8.09976317e-01     -3.19792317e+00     -1.20987542e+00     
20
660.439704
N    2.19636543e-03      1.50275188e-02      -2.09109343e-02     
H    9.11485951e-01      -1.01607004e-01     4.69606412e-01      
H    -3.58242486e-01     -9.06952723e-01     -3.53527233e-01     
H    -7.08055860e-01     4.37149960e-01      6.17213625e-01      
C    2.03562902e-01      9.06769348e-01      -1.18046640e+00     
H    5.50540433e-01      1.87956661e+00      -8.40560392e-01     
H    9.53406522e-01      4.83370813e-01      -1.84447504e+00     
C    -1.10737504e+00     1.05259676e+00      -1.91598634e+00     
O    -2.14198495e+00     5.12436689e-01      -1.58727402e+00     
O    -9.51267115e-01     1.85102502e+00      -2.97355741e+00     
H    -1.82096312e+00     1.93939581e+00      -3.40449849e+00     
O    -1.97727165e+00     1.39059262e+00      1.31124931e+00      
H    -2.81633112e+00     1.31290635e+00      8.47779064e-01      
H    -2.19853208e+00     1.58799443e+00      2.22544614e+00      
O    2.56489895e+00      -2.36884985e-02     1.07712765e+00      
H    2.88503785e+00      5.02445499e-01      1.81367963e+00      
H    3.22883303e+00      -7.05160229e-01     9.47096821e-01      
O    -9.16330521e-01     -2.24668276e+00     -1.29451270e+00     
H    -1.81800396e+00     -2.10844433e+00     -1.59988960e+00     
H    -8.10656624e-01     -3.19823530e+00     -1.21088383e+00     
20
660.439704
N    2.25082093e-03      1.48405535e-02      -2.10449268e-02     
H    9.14268817e-01      -1.11161548e-01     4.62759158e-01      
H    -3.69706866e-01     -9.03360027e-01     -3.52824902e-01     
H    -6.99301120e-01     4.42860399e-01      6.23178375e-01      
C    2.03426430e-01      9.07237924e-01      -1.18013060e+00     
H    5.51516551e-01      1.87947001e+00      -8.39796969e-01     
H    9.52369846e-01      4.83675373e-01      -1.84508943e+00     
C    -1.10756089e+00     1.05323485e+00      -1.91552904e+00     
O    -2.14187509e+00     5.12059490e-01      -1.58754435e+00     
O    -9.51002185e-01     1.85011542e+00      -2.97420927e+00     
H    -1.82369070e+00     1.94876054e+00      -3.39778725e+00     
O    -1.97760668e+00     1.39041908e+00      1.31090180e+00      
H    -2.81759573e+00     1.31568691e+00      8.48710935e-01      
H    -2.19656164e+00     1.58652497e+00      2.22596248e+00      
O    2.56479177e+00      -2.33205045e-02     1.07739138e+00      
H    2.88718033e+00      5.01906783e-01      1.81357765e+00      
H    3.22714094e+00      -7.06167807e-01     9.46090609e-01      
O    -9.15877049e-01     -2.24691587e+00     -1.29445662e+00     
H    -1.81813030e+00     -2.10644928e+00     -1.59739903e+00     
H    -8.12017238e-01     -3.19885958e+00     -1.21290067e+00     
20
660.439704
N    2.30527643e-03      1.46535881e-02      -2.11789193e-02     
H    9.17051682e-01      -1.20716093e-01     4.55911904e-01      
H    -3.81171247e-01     -8.99767331e-01     -3.52122571e-01     
H    -6.90546381e-01     4.48570838e-01      6.29143126e-01      
C    2.03289959e-01      9.07706500e-01      -1.17979480e+00     
H    5.52492668e-01      1.87937340e+00      -8.39033546e-01     
H    9.51333170e-01      4.83979933e-01      -1.84570383e+00     
C    -1.10774674e+00     1.05387295e+00      -1.91507174e+00     
O    -2.14176522e+00     5.11682292e-01      -1.58781467e+00     
O    -9.50737256e-01     1.84920581e+00      -2.97486113e+00     
H    -1.82641828e+00     1.95812527e+00      -3.39107602e+00     
O    -1.97794171e+00     1.39024554e+00      1.31055429e+00      
H    -2.81886034e+00     1.31846747e+00      8.49642807e-01      
H    -2.19459120e+00     1.58505550e+00      2.22647883e+00      
O    2.56468458e+00      -2.29525105e-02     1.07765511e+00      
H    2.88932282e+00      5.01368067e-01      1.81347567e+00      
H    3.22544885e+00      -7.07175385e-01     9.45084397e-01      
O    -9.15423577e-01     -2.24714899e+00     -1.29440054e+00     
H    -1.81825664e+00     -2.10445422e+00     -1.59490847e+00     
H    -8.13377853e-01     -3.19948386e+00     -1.21491750e+00     
20
660.439704
N    2.35973193e-03      1.44666228e-02      -2.13129118e-02     
H    9.19834547e-01      -1.30270638e-01     4.49064650e-01      
H    -3.92635627e-01     -8.96174635e-01     -3.51420240e-01     
H    -6.81791642e-01     4.54281277e-01      6.35107876e-01      
C    2.03153487e-01      9.08175077e-01      -1.17945899e+00     
H    5.53468786e-01      1.87927680e+00      -8.38270123e-01     
H    9.50296494e-01      4.84284493e-01      -1.84631823e+00     
C    -1.10793259e+00     1.05451105e+00      -1.91461445e+00     
O    -2.14165536e+00     5.11305093e-01      -1.58808500e+00     
O    -9.50472327e-01     1.84829621e+00      -2.97551299e+00     
H    -1.82914587e+00     1.96749000e+00      -3.38436478e+00     
O    -1.97827674e+00     1.39007200e+00      1.31020677e+00      
H    -2.82012495e+00     1.32124803e+00      8.50574678e-01      
H    -2.19262075e+00     1.58358604e+00      2.22699518e+00      
O    2.56457740e+00      -2.25845165e-02     1.07791884e+00      
H    2.89146530e+00      5.00829351e-01      1.81337369e+00      
H    3.22375677e+00      -7.08182963e-01     9.44078185e-01      
O    -9.14970105e-01     -2.24738210e+00     -1.29434445e+00     
H    -1.81838298e+00     -2.10245917e+00     -1.59241791e+00     
H    -8.14738467e-01     -3.20010813e+00     -1.21693433e+00     
20
660.439704
N    2.41418742e-03      1.42796574e-02      -2.14469043e-02     
H    9.22617412e-01      -1.39825182e-01     4.42217395e-01      
H    -4.04100007e-01     -8.92581939e-01     -3.50717909e-01     
H    -6.73036903e-01     4.59991715e-01      6.41072626e-01      
C    2.03017015e-01      9.08643653e-01      -1.17912319e+00     
H    5.54444903e-01      1.87918019e+00      -8.37506700e-01     
H    9.49259817e-01      4.84589053e-01      -1.84693263e+00     
C    -1.10811845e+00     1.05514915e+00      -1.91415715e+00     
O    -2.14154550e+00     5.10927894e-01      -1.58835532e+00     
O    -9.50207398e-01     1.84738660e+00      -2.97616486e+00     
H    -1.83187345e+00     1.97685473e+00      -3.37765354e+00     
O    -1.97861177e+00     1.38989846e+00      1.30985926e+00      
H    -2.82138956e+00     1.32402859e+00      8.51506550e-01      
H    -2.19065031e+00     1.58211657e+00      2.22751153e+00      
O    2.56447021e+00      -2.22165226e-02     1.07818256e+00      
H    2.89360779e+00      5.00290636e-01      1.81327171e+00      
H    3.22206468e+00      -7.09190540e-01     9.43071974e-01      
O    -9.14516632e-01     -2.24761522e+00     -1.29428837e+00     
H    -1.81850932e+00     -2.10046412e+00     -1.58992735e+00     
H    -8.16099081e-01     -3.20073241e+00     -1.21895116e+00     
20
660.439704
N    2.52309842e-03      1.39057267e-02      -2.17148893e-02     
H    9.28183143e-01      -1.58934272e-01     4.28522887e-01      
H    -4.27028767e-01     -8.85396547e-01     -3.49313247e-01     
H    -6.55527424e-01     4.71412593e-01      6.53002127e-01      
C    2.02744072e-01      9.09580805e-01      -1.17845158e+00     
H    5.56397139e-01      1.87898698e+00      -8.35979854e-01     
H    9.47186465e-01      4.85198172e-01      -1.84816142e+00     
C    -1.10849015e+00     1.05642534e+00      -1.91324256e+00     
O    -2.14132578e+00     5.10173496e-01      -1.58889597e+00     
O    -9.49677540e-01     1.84556739e+00      -2.97746858e+00     
H    -1.83732862e+00     1.99558419e+00      -3.36423106e+00     
O    -1.97928183e+00     1.38955139e+00      1.30916424e+00      
H    -2.82391878e+00     1.32958970e+00      8.53370293e-01      
H    -2.18670942e+00     1.57917764e+00      2.22854423e+00      
O    2.56425585e+00      -2.14805346e-02     1.07871002e+00      
H    2.89789276e+00      4.99213204e-01      1.81306775e+00      
H    3.21868051e+00      -7.11205696e-01     9.41059550e-01      
O    -9.13609688e-01     -2.24808145e+00     -1.29417620e+00     
H    -1.81876200e+00     -2.09647401e+00     -1.58494623e+00     
H    -8.18820310e-01     -3.20198096e+00     -1.22298483e+00     
