20
312.047244
N    3.98204505e-03      8.89853368e-03      -2.53032179e-02     
H    9.14972148e-01      -1.13573098e-01     4.61030321e-01      
H    -3.59885327e-01     -9.10416112e-01     -3.62990217e-01     
H    -7.02852203e-01     4.28392834e-01      6.17919835e-01      
C    2.03848941e-01      9.05787040e-01      -1.18117044e+00     
H    5.47483834e-01      1.87853425e+00      -8.37524756e-01     
H    9.55721834e-01      4.86947692e-01      -1.84568771e+00     
C    -1.10728659e+00     1.05229263e+00      -1.91620426e+00     
O    -2.14202295e+00     5.12566513e-01      -1.58718117e+00     
O    -9.51379366e-01     1.85141041e+00      -2.97328121e+00     
H    -1.81616420e+00     1.92291960e+00      -3.41630625e+00     
O    -1.97918067e+00     1.40200369e+00      1.31673880e+00      
H    -2.80553873e+00     1.20718517e+00      8.50081814e-01      
H    -2.23463961e+00     1.57702730e+00      2.22766604e+00      
O    2.56718036e+00      -3.15219722e-02     1.07151366e+00      
H    2.80371310e+00      5.35077291e-01      1.81505799e+00      
H    3.28927253e+00      -6.66088432e-01     9.97105425e-01      
O    -9.20216509e-01     -2.23819824e+00     -1.28574265e+00     
H    -1.78971986e+00     -2.13686975e+00     -1.69833890e+00     
H    -7.74966632e-01     -3.18584263e+00     -1.21208915e+00     
20
312.047244
N    3.50839740e-03      1.05242626e-02      -2.41381507e-02     
H    9.12709166e-01      -1.05804302e-01     4.66597971e-01      
H    -3.53742427e-01     -9.11346613e-01     -3.60975636e-01     
H    -7.08530486e-01     4.27726896e-01      6.14760908e-01      
C    2.03845667e-01      9.05798329e-01      -1.18116233e+00     
H    5.47759925e-01      1.87884064e+00      -8.38665376e-01     
H    9.55661345e-01      4.85901193e-01      -1.84507734e+00     
C    -1.10721578e+00     1.05204962e+00      -1.91637843e+00     
O    -2.14206838e+00     5.12722656e-01      -1.58706922e+00     
O    -9.51483768e-01     1.85176886e+00      -2.97302433e+00     
H    -1.81600013e+00     1.92235628e+00      -3.41670993e+00     
O    -1.97853590e+00     1.39923770e+00      1.31554018e+00      
H    -2.80760453e+00     1.23222519e+00      8.49040191e-01      
H    -2.22659795e+00     1.58050381e+00      2.22685289e+00      
O    2.56666360e+00      -2.97476007e-02     1.07278529e+00      
H    2.82297304e+00      5.27188701e-01      1.81476439e+00      
H    3.27500870e+00      -6.75352592e-01     9.85106380e-01      
O    -9.19471748e-01     -2.24020281e+00     -1.28796320e+00     
H    -1.79672771e+00     -2.13076092e+00     -1.67497185e+00     
H    -7.83208823e-01     -3.18862866e+00     -1.21077941e+00     
20
312.047244
N    3.27157357e-03      1.13371271e-02      -2.35556172e-02     
H    9.11577675e-01      -1.01919904e-01     4.69381796e-01      
H    -3.50670977e-01     -9.11811863e-01     -3.59968346e-01     
H    -7.11369628e-01     4.27393927e-01      6.13181444e-01      
C    2.03844030e-01      9.05803973e-01      -1.18115828e+00     
H    5.47897970e-01      1.87899384e+00      -8.39235686e-01     
H    9.55631100e-01      4.85377943e-01      -1.84477216e+00     
C    -1.10718037e+00     1.05192811e+00      -1.91646551e+00     
O    -2.14209110e+00     5.12800728e-01      -1.58701324e+00     
O    -9.51535969e-01     1.85194809e+00      -2.97289588e+00     
H    -1.81591810e+00     1.92207463e+00      -3.41691177e+00     
O    -1.97821351e+00     1.39785470e+00      1.31494087e+00      
H    -2.80863742e+00     1.24474520e+00      8.48519379e-01      
H    -2.22257712e+00     1.58224207e+00      2.22644631e+00      
O    2.56640522e+00      -2.88604150e-02     1.07342111e+00      
H    2.83260302e+00      5.23244406e-01      1.81461759e+00      
H    3.26787678e+00      -6.79984673e-01     9.79106857e-01      
O    -9.19099368e-01     -2.24120510e+00     -1.28907348e+00     
H    -1.80023164e+00     -2.12770651e+00     -1.66328833e+00     
H    -7.87329918e-01     -3.19002167e+00     -1.21012454e+00     
20
312.047244
N    3.03474975e-03      1.21499916e-02      -2.29730836e-02     
H    9.10446184e-01      -9.80355063e-02     4.72165620e-01      
H    -3.47599526e-01     -9.12277114e-01     -3.58961056e-01     
H    -7.14208770e-01     4.27060958e-01      6.11601980e-01      
C    2.03842393e-01      9.05809618e-01      -1.18115423e+00     
H    5.48036016e-01      1.87914703e+00      -8.39805997e-01     
H    9.55600855e-01      4.84854693e-01      -1.84446697e+00     
C    -1.10714496e+00     1.05180660e+00      -1.91655260e+00     
O    -2.14211381e+00     5.12878800e-01      -1.58695727e+00     
O    -9.51588169e-01     1.85212732e+00      -2.97276744e+00     
H    -1.81583607e+00     1.92179297e+00      -3.41711361e+00     
O    -1.97789113e+00     1.39647170e+00      1.31434156e+00      
H    -2.80967032e+00     1.25726520e+00      8.47998568e-01      
H    -2.21855629e+00     1.58398033e+00      2.22603974e+00      
O    2.56614684e+00      -2.79732293e-02     1.07405693e+00      
H    2.84223299e+00      5.19300111e-01      1.81447079e+00      
H    3.26074486e+00      -6.84616753e-01     9.73107335e-01      
O    -9.18726988e-01     -2.24220739e+00     -1.29018376e+00     
H    -1.80373557e+00     -2.12465210e+00     -1.65160481e+00     
H    -7.91451014e-01     -3.19141469e+00     -1.20946966e+00     
20
312.047244
N    2.79792592e-03      1.29628561e-02      -2.23905500e-02     
H    9.09314693e-01      -9.41511084e-02     4.74949445e-01      
H    -3.44528076e-01     -9.12742364e-01     -3.57953766e-01     
H    -7.17047912e-01     4.26727989e-01      6.10022516e-01      
C    2.03840756e-01      9.05815262e-01      -1.18115017e+00     
H    5.48174061e-01      1.87930023e+00      -8.40376307e-01     
H    9.55570610e-01      4.84331443e-01      -1.84416179e+00     
C    -1.10710955e+00     1.05168509e+00      -1.91663968e+00     
O    -2.14213653e+00     5.12956872e-01      -1.58690129e+00     
O    -9.51640370e-01     1.85230655e+00      -2.97263900e+00     
H    -1.81575404e+00     1.92151132e+00      -3.41731545e+00     
O    -1.97756874e+00     1.39508870e+00      1.31374226e+00      
H    -2.81070321e+00     1.26978521e+00      8.47477756e-01      
H    -2.21453546e+00     1.58571859e+00      2.22563316e+00      
O    2.56588846e+00      -2.70860436e-02     1.07469275e+00      
H    2.85186296e+00      5.15355815e-01      1.81432399e+00      
H    3.25361295e+00      -6.89248833e-01     9.67107812e-01      
O    -9.18354607e-01     -2.24320967e+00     -1.29129404e+00     
H    -1.80723950e+00     -2.12159768e+00     -1.63992129e+00     
H    -7.95572109e-01     -3.19280770e+00     -1.20881479e+00     
20
312.047244
N    2.56110209e-03      1.37757205e-02      -2.18080164e-02     
H    9.08183203e-01      -9.02667104e-02     4.77733270e-01      
H    -3.41456626e-01     -9.13207614e-01     -3.56946475e-01     
H    -7.19887054e-01     4.26395020e-01      6.08443052e-01      
C    2.03839119e-01      9.05820906e-01      -1.18114612e+00     
H    5.48312107e-01      1.87945343e+00      -8.40946617e-01     
H    9.55540365e-01      4.83808193e-01      -1.84385661e+00     
C    -1.10707415e+00     1.05156358e+00      -1.91672676e+00     
O    -2.14215924e+00     5.13034943e-01      -1.58684532e+00     
O    -9.51692571e-01     1.85248577e+00      -2.97251056e+00     
H    -1.81567201e+00     1.92122966e+00      -3.41751729e+00     
O    -1.97724636e+00     1.39370570e+00      1.31314295e+00      
H    -2.81173611e+00     1.28230522e+00      8.46956944e-01      
H    -2.21051463e+00     1.58745684e+00      2.22522659e+00      
O    2.56563008e+00      -2.61988578e-02     1.07532856e+00      
H    2.86149293e+00      5.11411520e-01      1.81417719e+00      
H    3.24648103e+00      -6.93880913e-01     9.61108289e-01      
O    -9.17982227e-01     -2.24421196e+00     -1.29240431e+00     
H    -1.81074342e+00     -2.11854327e+00     -1.62823776e+00     
H    -7.99693204e-01     -3.19420072e+00     -1.20815992e+00     
20
312.047244
N    2.44269018e-03      1.41821528e-02      -2.15167497e-02     
H    9.07617457e-01      -8.83245114e-02     4.79125183e-01      
H    -3.39920901e-01     -9.13440239e-01     -3.56442830e-01     
H    -7.21306625e-01     4.26228536e-01      6.07653320e-01      
C    2.03838301e-01      9.05823729e-01      -1.18114409e+00     
H    5.48381130e-01      1.87953002e+00      -8.41231773e-01     
H    9.55525242e-01      4.83546568e-01      -1.84370402e+00     
C    -1.10705644e+00     1.05150282e+00      -1.91677030e+00     
O    -2.14217060e+00     5.13073979e-01      -1.58681733e+00     
O    -9.51718672e-01     1.85257539e+00      -2.97244634e+00     
H    -1.81563100e+00     1.92108883e+00      -3.41761821e+00     
O    -1.97708517e+00     1.39301420e+00      1.31284329e+00      
H    -2.81225256e+00     1.28856522e+00      8.46696539e-01      
H    -2.20850421e+00     1.58832597e+00      2.22502330e+00      
O    2.56550089e+00      -2.57552650e-02     1.07564647e+00      
H    2.86630792e+00      5.09439373e-01      1.81410379e+00      
H    3.24291507e+00      -6.96196954e-01     9.58108528e-01      
O    -9.17796037e-01     -2.24471310e+00     -1.29295945e+00     
H    -1.81249539e+00     -2.11701606e+00     -1.62239600e+00     
H    -8.01753752e-01     -3.19489723e+00     -1.20783248e+00     
20
312.047244
N    2.32427827e-03      1.45885850e-02      -2.12254829e-02     
H    9.07051712e-01      -8.63823125e-02     4.80517095e-01      
H    -3.38385176e-01     -9.13672865e-01     -3.55939185e-01     
H    -7.22726196e-01     4.26062051e-01      6.06863588e-01      
C    2.03837482e-01      9.05826551e-01      -1.18114206e+00     
H    5.48450152e-01      1.87960662e+00      -8.41516928e-01     
H    9.55510120e-01      4.83284943e-01      -1.84355142e+00     
C    -1.10703874e+00     1.05144207e+00      -1.91681385e+00     
O    -2.14218196e+00     5.13113015e-01      -1.58678934e+00     
O    -9.51744772e-01     1.85266500e+00      -2.97238212e+00     
H    -1.81558998e+00     1.92094801e+00      -3.41771913e+00     
O    -1.97692397e+00     1.39232270e+00      1.31254364e+00      
H    -2.81276900e+00     1.29482522e+00      8.46436133e-01      
H    -2.20649380e+00     1.58919510e+00      2.22482001e+00      
O    2.56537170e+00      -2.53116721e-02     1.07596438e+00      
H    2.87112291e+00      5.07467225e-01      1.81403039e+00      
H    3.23934912e+00      -6.98512994e-01     9.55108767e-01      
O    -9.17609846e-01     -2.24521424e+00     -1.29351459e+00     
H    -1.81424735e+00     -2.11548885e+00     -1.61655424e+00     
H    -8.03814300e-01     -3.19559373e+00     -1.20750504e+00     
20
312.047244
N    1.85063061e-03      1.62143140e-02      -2.00604157e-02     
H    9.04788730e-01      -7.86135165e-02     4.86084745e-01      
H    -3.32242276e-01     -9.14603365e-01     -3.53924605e-01     
H    -7.28404480e-01     4.25396113e-01      6.03704660e-01      
C    2.03834208e-01      9.05837839e-01      -1.18113396e+00     
H    5.48726244e-01      1.87991302e+00      -8.42657548e-01     
H    9.55449630e-01      4.82238443e-01      -1.84294106e+00     
C    -1.10696792e+00     1.05119905e+00      -1.91698801e+00     
O    -2.14222738e+00     5.13269159e-01      -1.58667740e+00     
O    -9.51849174e-01     1.85302346e+00      -2.97212524e+00     
H    -1.81542592e+00     1.92038469e+00      -3.41812281e+00     
O    -1.97627921e+00     1.38955670e+00      1.31134502e+00      
H    -2.81483480e+00     1.31986524e+00      8.45394509e-01      
H    -2.19845214e+00     1.59267162e+00      2.22400687e+00      
O    2.56485494e+00      -2.35373007e-02     1.07723602e+00      
H    2.89038285e+00      4.99578635e-01      1.81373679e+00      
H    3.22508528e+00      -7.07777154e-01     9.43109721e-01      
O    -9.16865086e-01     -2.24721882e+00     -1.29573515e+00     
H    -1.82125521e+00     -2.10938003e+00     -1.59318720e+00     
H    -8.12056490e-01     -3.19837977e+00     -1.20619530e+00     
20
312.047244
N    1.73221870e-03      1.66207462e-02      -1.97691489e-02     
H    9.04222985e-01      -7.66713176e-02     4.87476657e-01      
H    -3.30706551e-01     -9.14835991e-01     -3.53420960e-01     
H    -7.29824051e-01     4.25229628e-01      6.02914928e-01      
C    2.03833389e-01      9.05840661e-01      -1.18113193e+00     
H    5.48795266e-01      1.87998962e+00      -8.42942703e-01     
H    9.55434508e-01      4.81976818e-01      -1.84278846e+00     
C    -1.10695022e+00     1.05113830e+00      -1.91703156e+00     
O    -2.14223874e+00     5.13308195e-01      -1.58664941e+00     
O    -9.51875274e-01     1.85311307e+00      -2.97206102e+00     
H    -1.81538490e+00     1.92024387e+00      -3.41822373e+00     
O    -1.97611801e+00     1.38886520e+00      1.31104537e+00      
H    -2.81535124e+00     1.32612524e+00      8.45134103e-01      
H    -2.19644173e+00     1.59354075e+00      2.22380358e+00      
O    2.56472575e+00      -2.30937078e-02     1.07755393e+00      
H    2.89519784e+00      4.97606487e-01      1.81366339e+00      
H    3.22151933e+00      -7.10093194e-01     9.40109960e-01      
O    -9.16678895e-01     -2.24771996e+00     -1.29629029e+00     
H    -1.82300717e+00     -2.10785282e+00     -1.58734544e+00     
H    -8.14117038e-01     -3.19907627e+00     -1.20586786e+00     
20
312.047244
N    1.61380679e-03      1.70271785e-02      -1.94778822e-02     
H    9.03657239e-01      -7.47291186e-02     4.88868570e-01      
H    -3.29170826e-01     -9.15068616e-01     -3.52917315e-01     
H    -7.31243622e-01     4.25063144e-01      6.02125196e-01      
C    2.03832571e-01      9.05843484e-01      -1.18112990e+00     
H    5.48864289e-01      1.88006621e+00      -8.43227859e-01     
H    9.55419385e-01      4.81715193e-01      -1.84263587e+00     
C    -1.10693251e+00     1.05107754e+00      -1.91707510e+00     
O    -2.14225010e+00     5.13347231e-01      -1.58662142e+00     
O    -9.51901375e-01     1.85320269e+00      -2.97199680e+00     
H    -1.81534389e+00     1.92010304e+00      -3.41832465e+00     
O    -1.97595682e+00     1.38817370e+00      1.31074571e+00      
H    -2.81586769e+00     1.33238524e+00      8.44873698e-01      
H    -2.19443131e+00     1.59440988e+00      2.22360029e+00      
O    2.56459656e+00      -2.26501150e-02     1.07787184e+00      
H    2.90001283e+00      4.95634340e-01      1.81358999e+00      
H    3.21795337e+00      -7.12409235e-01     9.37110199e-01      
O    -9.16492705e-01     -2.24822110e+00     -1.29684543e+00     
H    -1.82475914e+00     -2.10632561e+00     -1.58150368e+00     
H    -8.16177586e-01     -3.19977278e+00     -1.20554042e+00     
20
312.047244
N    1.37698296e-03      1.78400429e-02      -1.88953486e-02     
H    9.02525749e-01      -7.08447206e-02     4.91652395e-01      
H    -3.26099376e-01     -9.15533866e-01     -3.51910024e-01     
H    -7.34082764e-01     4.24730175e-01      6.00545732e-01      
C    2.03830934e-01      9.05849128e-01      -1.18112585e+00     
H    5.49002335e-01      1.88021941e+00      -8.43798169e-01     
H    9.55389140e-01      4.81191943e-01      -1.84233069e+00     
C    -1.10689711e+00     1.05095603e+00      -1.91716218e+00     
O    -2.14227281e+00     5.13425302e-01      -1.58656545e+00     
O    -9.51953576e-01     1.85338191e+00      -2.97186836e+00     
H    -1.81526186e+00     1.91982138e+00      -3.41852649e+00     
O    -1.97563444e+00     1.38679070e+00      1.31014640e+00      
H    -2.81690059e+00     1.34490525e+00      8.44352886e-01      
H    -2.19041048e+00     1.59614813e+00      2.22319372e+00      
O    2.56433818e+00      -2.17629292e-02     1.07850765e+00      
H    2.90964280e+00      4.91690045e-01      1.81344319e+00      
H    3.21082145e+00      -7.17041315e-01     9.31110676e-01      
O    -9.16120325e-01     -2.24922339e+00     -1.29795570e+00     
H    -1.82826306e+00     -2.10327120e+00     -1.56982015e+00     
H    -8.20298681e-01     -3.20116580e+00     -1.20488555e+00     
20
312.047244
N    1.14015913e-03      1.86529074e-02      -1.83128150e-02     
H    9.01394258e-01      -6.69603227e-02     4.94436220e-01      
H    -3.23027926e-01     -9.15999116e-01     -3.50902734e-01     
H    -7.36921906e-01     4.24397206e-01      5.98966268e-01      
C    2.03829297e-01      9.05854772e-01      -1.18112179e+00     
H    5.49140380e-01      1.88037261e+00      -8.44368479e-01     
H    9.55358895e-01      4.80668693e-01      -1.84202551e+00     
C    -1.10686170e+00     1.05083452e+00      -1.91724926e+00     
O    -2.14229553e+00     5.13503374e-01      -1.58650947e+00     
O    -9.52005777e-01     1.85356114e+00      -2.97173992e+00     
H    -1.81517983e+00     1.91953973e+00      -3.41872833e+00     
O    -1.97531205e+00     1.38540770e+00      1.30954710e+00      
H    -2.81793348e+00     1.35742526e+00      8.43832074e-01      
H    -2.18638965e+00     1.59788639e+00      2.22278714e+00      
O    2.56407980e+00      -2.08757435e-02     1.07914347e+00      
H    2.91927277e+00      4.87745749e-01      1.81329639e+00      
H    3.20368954e+00      -7.21673395e-01     9.25111153e-01      
O    -9.15747944e-01     -2.25022567e+00     -1.29906598e+00     
H    -1.83176699e+00     -2.10021678e+00     -1.55813663e+00     
H    -8.24419776e-01     -3.20255881e+00     -1.20423068e+00     
20
312.047244
N    9.03335306e-04      1.94657719e-02      -1.77302814e-02     
H    9.00262767e-01      -6.30759247e-02     4.97220044e-01      
H    -3.19956475e-01     -9.16464367e-01     -3.49895444e-01     
H    -7.39761048e-01     4.24064237e-01      5.97386804e-01      
C    2.03827660e-01      9.05860417e-01      -1.18111774e+00     
H    5.49278426e-01      1.88052580e+00      -8.44938790e-01     
H    9.55328650e-01      4.80145443e-01      -1.84172032e+00     
C    -1.10682629e+00     1.05071301e+00      -1.91733635e+00     
O    -2.14231824e+00     5.13581446e-01      -1.58645350e+00     
O    -9.52057977e-01     1.85374037e+00      -2.97161148e+00     
H    -1.81509780e+00     1.91925807e+00      -3.41893017e+00     
O    -1.97498967e+00     1.38402470e+00      1.30894779e+00      
H    -2.81896638e+00     1.36994526e+00      8.43311263e-01      
H    -2.18236882e+00     1.59962465e+00      2.22238057e+00      
O    2.56382142e+00      -1.99885578e-02     1.07977929e+00      
H    2.92890274e+00      4.83801454e-01      1.81314959e+00      
H    3.19655762e+00      -7.26305475e-01     9.19111631e-01      
O    -9.15375564e-01     -2.25122796e+00     -1.30017626e+00     
H    -1.83527092e+00     -2.09716237e+00     -1.54645311e+00     
H    -8.28540872e-01     -3.20395183e+00     -1.20357580e+00     
20
312.047244
N    6.66511479e-04      2.02786364e-02      -1.71477479e-02     
H    8.99131276e-01      -5.91915267e-02     5.00003869e-01      
H    -3.16885025e-01     -9.16929617e-01     -3.48888154e-01     
H    -7.42600190e-01     4.23731268e-01      5.95807340e-01      
C    2.03826023e-01      9.05866061e-01      -1.18111369e+00     
H    5.49416471e-01      1.88067900e+00      -8.45509100e-01     
H    9.55298405e-01      4.79622193e-01      -1.84141514e+00     
C    -1.10679088e+00     1.05059150e+00      -1.91742343e+00     
O    -2.14234096e+00     5.13659518e-01      -1.58639752e+00     
O    -9.52110178e-01     1.85391960e+00      -2.97148303e+00     
H    -1.81501577e+00     1.91897642e+00      -3.41913201e+00     
O    -1.97466728e+00     1.38264170e+00      1.30834848e+00      
H    -2.81999927e+00     1.38246527e+00      8.42790451e-01      
H    -2.17834799e+00     1.60136291e+00      2.22197399e+00      
O    2.56356304e+00      -1.91013721e-02     1.08041511e+00      
H    2.93853272e+00      4.79857159e-01      1.81300279e+00      
H    3.18942570e+00      -7.30937556e-01     9.13112108e-01      
O    -9.15003184e-01     -2.25223025e+00     -1.30128654e+00     
H    -1.83877485e+00     -2.09410796e+00     -1.53476959e+00     
H    -8.32661967e-01     -3.20534484e+00     -1.20292093e+00     
20
312.047244
N    1.92863826e-04      2.19043653e-02      -1.59826807e-02     
H    8.96868294e-01      -5.14227308e-02     5.05571519e-01      
H    -3.10742125e-01     -9.17860118e-01     -3.46873573e-01     
H    -7.48278473e-01     4.23065330e-01      5.92648413e-01      
C    2.03822749e-01      9.05877350e-01      -1.18110558e+00     
H    5.49692562e-01      1.88098539e+00      -8.46649720e-01     
H    9.55237916e-01      4.78575694e-01      -1.84080477e+00     
C    -1.10672007e+00     1.05034849e+00      -1.91759760e+00     
O    -2.14238639e+00     5.13815661e-01      -1.58628557e+00     
O    -9.52214580e-01     1.85427805e+00      -2.97122615e+00     
H    -1.81485170e+00     1.91841310e+00      -3.41953569e+00     
O    -1.97402251e+00     1.37987571e+00      1.30714986e+00      
H    -2.82206507e+00     1.40750529e+00      8.41748828e-01      
H    -2.17030633e+00     1.60483942e+00      2.22116084e+00      
O    2.56304628e+00      -1.73270006e-02     1.08168674e+00      
H    2.95779266e+00      4.71968569e-01      1.81270919e+00      
H    3.17516187e+00      -7.40201716e-01     9.01113063e-01      
O    -9.14258423e-01     -2.25423482e+00     -1.30350709e+00     
H    -1.84578270e+00     -2.08799913e+00     -1.51140254e+00     
H    -8.40904158e-01     -3.20813087e+00     -1.20161119e+00     
