20
1373.668091
N    -2.73871623e-03     3.19713326e-02      -8.76815279e-03     
H    9.16811037e-01      -1.19889983e-01     4.56503998e-01      
H    -3.06983389e-01     -8.80060859e-01     -4.31284265e-01     
H    -7.43366249e-01     3.55500722e-01      6.55729045e-01      
C    2.07400716e-01      8.93592864e-01      -1.18990936e+00     
H    5.61043382e-01      1.82843353e+00      -7.53082215e-01     
H    9.39805981e-01      5.45137986e-01      -1.92433223e+00     
C    -1.10611183e+00     1.04825977e+00      -1.91909440e+00     
O    -2.14232577e+00     5.13606869e-01      -1.58643540e+00     
O    -9.51897858e-01     1.85319058e+00      -2.97200548e+00     
H    -1.81503176e+00     1.91903159e+00      -3.41909263e+00     
O    -1.97618235e+00     1.39123370e+00      1.31132983e+00      
H    -2.81618423e+00     1.30759817e+00      8.49601197e-01      
H    -2.20428410e+00     1.59052340e+00      2.22411024e+00      
O    2.56499590e+00      -2.40213650e-02     1.07688910e+00      
H    2.88292243e+00      5.03037623e-01      1.81382474e+00      
H    3.23047018e+00      -7.04110427e-01     9.48128445e-01      
O    -9.17558860e-01     -2.24684647e+00     -1.29425113e+00     
H    -1.81667666e+00     -2.10819757e+00     -1.60533897e+00     
H    -8.06087907e-01     -3.19670158e+00     -1.20663641e+00     
20
1373.668091
N    -1.53217356e-03     2.78288618e-02      -1.17368519e-02     
H    9.14088333e-01      -1.10541966e-01     4.63203229e-01      
H    -3.14065973e-01     -8.88580173e-01     -4.12196173e-01     
H    -7.38916022e-01     3.73057812e-01      6.43117815e-01      
C    2.06509499e-01      8.96652697e-01      -1.18771652e+00     
H    5.57929586e-01      1.84126510e+00      -7.75333471e-01     
H    9.43724455e-01      5.29543913e-01      -1.90406074e+00     
C    -1.10633470e+00     1.04902496e+00      -1.91854603e+00     
O    -2.14229550e+00     5.13502923e-01      -1.58650990e+00     
O    -9.51872636e-01     1.85310400e+00      -2.97206753e+00     
H    -1.81515081e+00     1.91944028e+00      -3.41879971e+00     
O    -1.97628716e+00     1.39116020e+00      1.31148346e+00      
H    -2.81558865e+00     1.30753494e+00      8.48679728e-01      
H    -2.20383132e+00     1.59062589e+00      2.22418604e+00      
O    2.56502526e+00      -2.41221454e-02     1.07681687e+00      
H    2.88238005e+00      5.03158950e-01      1.81383945e+00      
H    3.23090694e+00      -7.03869089e-01     9.48373645e-01      
O    -9.17478512e-01     -2.24668899e+00     -1.29434456e+00     
H    -1.81694531e+00     -2.10925679e+00     -1.60522191e+00     
H    -8.06549779e-01     -3.19677287e+00     -1.20668985e+00     
20
1373.668091
N    -9.28902227e-04     2.57576264e-02      -1.32212015e-02     
H    9.12726981e-01      -1.05867957e-01     4.66552844e-01      
H    -3.17607266e-01     -8.92839830e-01     -4.02652126e-01     
H    -7.36690908e-01     3.81836357e-01      6.36812199e-01      
C    2.06063890e-01      8.98182613e-01      -1.18662010e+00     
H    5.56372688e-01      1.84768089e+00      -7.86459098e-01     
H    9.45683691e-01      5.21746876e-01      -1.89392499e+00     
C    -1.10644614e+00     1.04940756e+00      -1.91827185e+00     
O    -2.14228036e+00     5.13450951e-01      -1.58654714e+00     
O    -9.51860026e-01     1.85306070e+00      -2.97209856e+00     
H    -1.81521033e+00     1.91964462e+00      -3.41865326e+00     
O    -1.97633956e+00     1.39112345e+00      1.31156027e+00      
H    -2.81529086e+00     1.30750332e+00      8.48218993e-01      
H    -2.20360492e+00     1.59067713e+00      2.22422394e+00      
O    2.56503994e+00      -2.41725355e-02     1.07678076e+00      
H    2.88210885e+00      5.03219613e-01      1.81384681e+00      
H    3.23112532e+00      -7.03748420e-01     9.48496244e-01      
O    -9.17438337e-01     -2.24661024e+00     -1.29439128e+00     
H    -1.81707964e+00     -2.10978639e+00     -1.60516338e+00     
H    -8.06780715e-01     -3.19680852e+00     -1.20671657e+00     
20
1373.668091
N    -3.25630893e-04     2.36863910e-02      -1.47055510e-02     
H    9.11365629e-01      -1.01193949e-01     4.69902459e-01      
H    -3.21148558e-01     -8.97099487e-01     -3.93108080e-01     
H    -7.34465794e-01     3.90614902e-01      6.30506584e-01      
C    2.05618281e-01      8.99712530e-01      -1.18552368e+00     
H    5.54815790e-01      1.85409668e+00      -7.97584726e-01     
H    9.47642928e-01      5.13949840e-01      -1.88378924e+00     
C    -1.10655758e+00     1.04979016e+00      -1.91799767e+00     
O    -2.14226522e+00     5.13398978e-01      -1.58658439e+00     
O    -9.51847415e-01     1.85301741e+00      -2.97212958e+00     
H    -1.81526986e+00     1.91984897e+00      -3.41850680e+00     
O    -1.97639197e+00     1.39108670e+00      1.31163708e+00      
H    -2.81499307e+00     1.30747170e+00      8.47758259e-01      
H    -2.20337853e+00     1.59072838e+00      2.22426184e+00      
O    2.56505461e+00      -2.42229257e-02     1.07674465e+00      
H    2.88183766e+00      5.03280276e-01      1.81385417e+00      
H    3.23134369e+00      -7.03627751e-01     9.48618844e-01      
O    -9.17398163e-01     -2.24653150e+00     -1.29443800e+00     
H    -1.81721397e+00     -2.11031600e+00     -1.60510485e+00     
H    -8.07011651e-01     -3.19684417e+00     -1.20674329e+00     
20
1373.668091
N    2.77640440e-04      2.16151557e-02      -1.61899006e-02     
H    9.10004277e-01      -9.65199401e-02     4.73252074e-01      
H    -3.24689850e-01     -9.01359144e-01     -3.83564034e-01     
H    -7.32240680e-01     3.99393447e-01      6.24200969e-01      
C    2.05172672e-01      9.01242446e-01      -1.18442726e+00     
H    5.53258892e-01      1.86051246e+00      -8.08710354e-01     
H    9.49602165e-01      5.06152803e-01      -1.87365349e+00     
C    -1.10666902e+00     1.05017276e+00      -1.91772348e+00     
O    -2.14225008e+00     5.13347005e-01      -1.58662163e+00     
O    -9.51834805e-01     1.85297411e+00      -2.97216061e+00     
H    -1.81532938e+00     1.92005331e+00      -3.41836034e+00     
O    -1.97644437e+00     1.39104995e+00      1.31171389e+00      
H    -2.81469528e+00     1.30744008e+00      8.47297524e-01      
H    -2.20315214e+00     1.59077962e+00      2.22429974e+00      
O    2.56506929e+00      -2.42733159e-02     1.07670854e+00      
H    2.88156646e+00      5.03340940e-01      1.81386152e+00      
H    3.23156207e+00      -7.03507081e-01     9.48741444e-01      
O    -9.17357989e-01     -2.24645276e+00     -1.29448472e+00     
H    -1.81734830e+00     -2.11084561e+00     -1.60504631e+00     
H    -8.07242587e-01     -3.19687981e+00     -1.20677001e+00     
20
1373.668091
N    8.80911773e-04      1.95439203e-02      -1.76742502e-02     
H    9.08642925e-01      -9.18459316e-02     4.76601690e-01      
H    -3.28231142e-01     -9.05618801e-01     -3.74019988e-01     
H    -7.30015566e-01     4.08171992e-01      6.17895354e-01      
C    2.04727063e-01      9.02772362e-01      -1.18333085e+00     
H    5.51701994e-01      1.86692825e+00      -8.19835982e-01     
H    9.51561402e-01      4.98355766e-01      -1.86351774e+00     
C    -1.10678045e+00     1.05055536e+00      -1.91744930e+00     
O    -2.14223495e+00     5.13295032e-01      -1.58665888e+00     
O    -9.51822194e-01     1.85293082e+00      -2.97219163e+00     
H    -1.81538890e+00     1.92025766e+00      -3.41821388e+00     
O    -1.97649678e+00     1.39101320e+00      1.31179071e+00      
H    -2.81439748e+00     1.30740847e+00      8.46836790e-01      
H    -2.20292575e+00     1.59083087e+00      2.22433764e+00      
O    2.56508397e+00      -2.43237061e-02     1.07667242e+00      
H    2.88129527e+00      5.03401603e-01      1.81386888e+00      
H    3.23178045e+00      -7.03386412e-01     9.48864044e-01      
O    -9.17317815e-01     -2.24637402e+00     -1.29453143e+00     
H    -1.81748262e+00     -2.11137522e+00     -1.60498778e+00     
H    -8.07473523e-01     -3.19691546e+00     -1.20679673e+00     
20
1373.668091
N    1.18254744e-03      1.85083026e-02      -1.84164250e-02     
H    9.07962249e-01      -8.95089273e-02     4.78276497e-01      
H    -3.30001788e-01     -9.07748630e-01     -3.69247964e-01     
H    -7.28903009e-01     4.12561265e-01      6.14742547e-01      
C    2.04504258e-01      9.03537320e-01      -1.18278264e+00     
H    5.50923545e-01      1.87013614e+00      -8.25398796e-01     
H    9.52541020e-01      4.94457248e-01      -1.85844986e+00     
C    -1.10683617e+00     1.05074666e+00      -1.91731221e+00     
O    -2.14222738e+00     5.13269046e-01      -1.58667750e+00     
O    -9.51815889e-01     1.85290917e+00      -2.97220714e+00     
H    -1.81541866e+00     1.92035983e+00      -3.41814066e+00     
O    -1.97652298e+00     1.39099482e+00      1.31182911e+00      
H    -2.81424859e+00     1.30739266e+00      8.46606423e-01      
H    -2.20281256e+00     1.59085649e+00      2.22435659e+00      
O    2.56509130e+00      -2.43489011e-02     1.07665437e+00      
H    2.88115967e+00      5.03431935e-01      1.81387256e+00      
H    3.23188963e+00      -7.03326078e-01     9.48925344e-01      
O    -9.17297727e-01     -2.24633464e+00     -1.29455479e+00     
H    -1.81754979e+00     -2.11164003e+00     -1.60495852e+00     
H    -8.07588991e-01     -3.19693328e+00     -1.20681009e+00     
20
1373.668091
N    1.48418311e-03      1.74726849e-02      -1.91585997e-02     
H    9.07281573e-01      -8.71719230e-02     4.79951305e-01      
H    -3.31772434e-01     -9.09878458e-01     -3.64475941e-01     
H    -7.27790452e-01     4.16950537e-01      6.11589739e-01      
C    2.04281454e-01      9.04302279e-01      -1.18223443e+00     
H    5.50145096e-01      1.87334403e+00      -8.30961610e-01     
H    9.53520638e-01      4.90558730e-01      -1.85338199e+00     
C    -1.10689189e+00     1.05093796e+00      -1.91717511e+00     
O    -2.14221981e+00     5.13243060e-01      -1.58669612e+00     
O    -9.51809584e-01     1.85288752e+00      -2.97222266e+00     
H    -1.81544843e+00     1.92046200e+00      -3.41806743e+00     
O    -1.97654918e+00     1.39097645e+00      1.31186752e+00      
H    -2.81409969e+00     1.30737685e+00      8.46376055e-01      
H    -2.20269936e+00     1.59088211e+00      2.22437554e+00      
O    2.56509864e+00      -2.43740962e-02     1.07663631e+00      
H    2.88102407e+00      5.03462267e-01      1.81387623e+00      
H    3.23199882e+00      -7.03265743e-01     9.48986644e-01      
O    -9.17277640e-01     -2.24629527e+00     -1.29457815e+00     
H    -1.81761695e+00     -2.11190483e+00     -1.60492925e+00     
H    -8.07704459e-01     -3.19695110e+00     -1.20682345e+00     
20
1373.668091
N    2.69072577e-03      1.33302141e-02      -2.21272989e-02     
H    9.04558869e-01      -7.78239060e-02     4.86650535e-01      
H    -3.38855018e-01     -9.18397772e-01     -3.45387849e-01     
H    -7.23340224e-01     4.34507627e-01      5.98978509e-01      
C    2.03390236e-01      9.07362111e-01      -1.18004159e+00     
H    5.47031300e-01      1.88617561e+00      -8.53212866e-01     
H    9.57439112e-01      4.74964656e-01      -1.83311049e+00     
C    -1.10711477e+00     1.05170316e+00      -1.91662675e+00     
O    -2.14218953e+00     5.13139114e-01      -1.58677062e+00     
O    -9.51784362e-01     1.85280094e+00      -2.97228470e+00     
H    -1.81556747e+00     1.92087070e+00      -3.41777451e+00     
O    -1.97665400e+00     1.39090295e+00      1.31202114e+00      
H    -2.81350411e+00     1.30731361e+00      8.45454587e-01      
H    -2.20224658e+00     1.59098461e+00      2.22445134e+00      
O    2.56512800e+00      -2.44748766e-02     1.07656409e+00      
H    2.88048169e+00      5.03583593e-01      1.81389095e+00      
H    3.23243558e+00      -7.03024405e-01     9.49231844e-01      
O    -9.17197292e-01     -2.24613779e+00     -1.29467159e+00     
H    -1.81788561e+00     -2.11296405e+00     -1.60481219e+00     
H    -8.08166331e-01     -3.19702240e+00     -1.20687689e+00     
20
1373.668091
N    2.99236144e-03      1.22945964e-02      -2.28694736e-02     
H    9.03878193e-01      -7.54869017e-02     4.88325343e-01      
H    -3.40625664e-01     -9.20527600e-01     -3.40615826e-01     
H    -7.22227667e-01     4.38896899e-01      5.95825701e-01      
C    2.03167432e-01      9.08127070e-01      -1.17949338e+00     
H    5.46252851e-01      1.88938350e+00      -8.58775680e-01     
H    9.58418730e-01      4.71066138e-01      -1.82804262e+00     
C    -1.10717049e+00     1.05189446e+00      -1.91648965e+00     
O    -2.14218196e+00     5.13113128e-01      -1.58678924e+00     
O    -9.51778057e-01     1.85277929e+00      -2.97230022e+00     
H    -1.81559724e+00     1.92097287e+00      -3.41770128e+00     
O    -1.97668020e+00     1.39088458e+00      1.31205955e+00      
H    -2.81335521e+00     1.30729780e+00      8.45224219e-01      
H    -2.20213338e+00     1.59101023e+00      2.22447029e+00      
O    2.56513534e+00      -2.45000717e-02     1.07654603e+00      
H    2.88034609e+00      5.03613925e-01      1.81389462e+00      
H    3.23254477e+00      -7.02964070e-01     9.49293144e-01      
O    -9.17177205e-01     -2.24609842e+00     -1.29469495e+00     
H    -1.81795277e+00     -2.11322885e+00     -1.60478292e+00     
H    -8.08281799e-01     -3.19704022e+00     -1.20689025e+00     
20
1373.668091
N    3.29399711e-03      1.12589787e-02      -2.36116484e-02     
H    9.03197517e-01      -7.31498974e-02     4.90000150e-01      
H    -3.42396310e-01     -9.22657429e-01     -3.35843802e-01     
H    -7.21115110e-01     4.43286172e-01      5.92672894e-01      
C    2.02944627e-01      9.08892028e-01      -1.17894517e+00     
H    5.45474402e-01      1.89259139e+00      -8.64338494e-01     
H    9.59398348e-01      4.67167620e-01      -1.82297474e+00     
C    -1.10722621e+00     1.05208576e+00      -1.91635256e+00     
O    -2.14217439e+00     5.13087142e-01      -1.58680786e+00     
O    -9.51771752e-01     1.85275764e+00      -2.97231573e+00     
H    -1.81562700e+00     1.92107504e+00      -3.41762806e+00     
O    -1.97670640e+00     1.39086620e+00      1.31209795e+00      
H    -2.81320632e+00     1.30728199e+00      8.44993852e-01      
H    -2.20202019e+00     1.59103585e+00      2.22448924e+00      
O    2.56514267e+00      -2.45252667e-02     1.07652798e+00      
H    2.88021049e+00      5.03644257e-01      1.81389830e+00      
H    3.23265395e+00      -7.02903736e-01     9.49354444e-01      
O    -9.17157117e-01     -2.24605904e+00     -1.29471831e+00     
H    -1.81801994e+00     -2.11349366e+00     -1.60475366e+00     
H    -8.08397267e-01     -3.19705804e+00     -1.20690361e+00     
20
1373.668091
N    3.89726844e-03      9.18774334e-03      -2.50959980e-02     
H    9.01836165e-01      -6.84758889e-02     4.93349766e-01      
H    -3.45937602e-01     -9.26917086e-01     -3.26299756e-01     
H    -7.18889996e-01     4.52064717e-01      5.86367279e-01      
C    2.02499018e-01      9.10421944e-01      -1.17784876e+00     
H    5.43917504e-01      1.89900718e+00      -8.75464122e-01     
H    9.61357585e-01      4.59370583e-01      -1.81283899e+00     
C    -1.10733764e+00     1.05246836e+00      -1.91607838e+00     
O    -2.14215926e+00     5.13035169e-01      -1.58684511e+00     
O    -9.51759141e-01     1.85271435e+00      -2.97234675e+00     
H    -1.81568652e+00     1.92127939e+00      -3.41748160e+00     
O    -1.97675881e+00     1.39082945e+00      1.31217477e+00      
H    -2.81290852e+00     1.30725038e+00      8.44533118e-01      
H    -2.20179380e+00     1.59108710e+00      2.22452714e+00      
O    2.56515735e+00      -2.45756569e-02     1.07649186e+00      
H    2.87993930e+00      5.03704920e-01      1.81390566e+00      
H    3.23287233e+00      -7.02783067e-01     9.49477044e-01      
O    -9.17116943e-01     -2.24598030e+00     -1.29476502e+00     
H    -1.81815426e+00     -2.11402327e+00     -1.60469513e+00     
H    -8.08628203e-01     -3.19709369e+00     -1.20693033e+00     
20
1373.668091
N    4.50053977e-03      7.11650796e-03      -2.65803476e-02     
H    9.00474813e-01      -6.38018803e-02     4.96699381e-01      
H    -3.49478894e-01     -9.31176743e-01     -3.16755710e-01     
H    -7.16664882e-01     4.60843262e-01      5.80061664e-01      
C    2.02053409e-01      9.11951860e-01      -1.17675234e+00     
H    5.42360606e-01      1.90542296e+00      -8.86589750e-01     
H    9.63316822e-01      4.51573546e-01      -1.80270324e+00     
C    -1.10744908e+00     1.05285096e+00      -1.91580419e+00     
O    -2.14214412e+00     5.12983196e-01      -1.58688235e+00     
O    -9.51746531e-01     1.85267105e+00      -2.97237778e+00     
H    -1.81574604e+00     1.92148373e+00      -3.41733514e+00     
O    -1.97681121e+00     1.39079270e+00      1.31225158e+00      
H    -2.81261073e+00     1.30721876e+00      8.44072383e-01      
H    -2.20156741e+00     1.59113834e+00      2.22456504e+00      
O    2.56517203e+00      -2.46260471e-02     1.07645575e+00      
H    2.87966810e+00      5.03765584e-01      1.81391301e+00      
H    3.23309071e+00      -7.02662397e-01     9.49599644e-01      
O    -9.17076769e-01     -2.24590156e+00     -1.29481174e+00     
H    -1.81828859e+00     -2.11455288e+00     -1.60463659e+00     
H    -8.08859139e-01     -3.19712933e+00     -1.20695705e+00     
20
1373.668091
N    5.10381111e-03      5.04527257e-03      -2.80646971e-02     
H    8.99113461e-01      -5.91278718e-02     5.00048996e-01      
H    -3.53020186e-01     -9.35436400e-01     -3.07211664e-01     
H    -7.14439768e-01     4.69621807e-01      5.73756049e-01      
C    2.01607800e-01      9.13481777e-01      -1.17565592e+00     
H    5.40803708e-01      1.91183875e+00      -8.97715378e-01     
H    9.65276059e-01      4.43776510e-01      -1.79256749e+00     
C    -1.10756052e+00     1.05323356e+00      -1.91553001e+00     
O    -2.14212898e+00     5.12931223e-01      -1.58691960e+00     
O    -9.51733920e-01     1.85262776e+00      -2.97240880e+00     
H    -1.81580557e+00     1.92168808e+00      -3.41718868e+00     
O    -1.97686362e+00     1.39075595e+00      1.31232839e+00      
H    -2.81231294e+00     1.30718714e+00      8.43611649e-01      
H    -2.20134102e+00     1.59118959e+00      2.22460294e+00      
O    2.56518670e+00      -2.46764373e-02     1.07641964e+00      
H    2.87939691e+00      5.03826247e-01      1.81392037e+00      
H    3.23330908e+00      -7.02541728e-01     9.49722244e-01      
O    -9.17036595e-01     -2.24582282e+00     -1.29485846e+00     
H    -1.81842292e+00     -2.11508249e+00     -1.60457806e+00     
H    -8.09090075e-01     -3.19716498e+00     -1.20698377e+00     
20
1373.668091
N    5.70708244e-03      2.97403718e-03      -2.95490467e-02     
H    8.97752109e-01      -5.44538632e-02     5.03398611e-01      
H    -3.56561479e-01     -9.39696057e-01     -2.97667617e-01     
H    -7.12214654e-01     4.78400352e-01      5.67450433e-01      
C    2.01162191e-01      9.15011693e-01      -1.17455950e+00     
H    5.39246810e-01      1.91825454e+00      -9.08841005e-01     
H    9.67235295e-01      4.35979473e-01      -1.78243174e+00     
C    -1.10767196e+00     1.05361616e+00      -1.91525583e+00     
O    -2.14211384e+00     5.12879251e-01      -1.58695684e+00     
O    -9.51721310e-01     1.85258446e+00      -2.97243983e+00     
H    -1.81586509e+00     1.92189242e+00      -3.41704223e+00     
O    -1.97691602e+00     1.39071920e+00      1.31240520e+00      
H    -2.81201515e+00     1.30715552e+00      8.43150914e-01      
H    -2.20111462e+00     1.59124083e+00      2.22464084e+00      
O    2.56520138e+00      -2.47268274e-02     1.07638353e+00      
H    2.87912571e+00      5.03886910e-01      1.81392773e+00      
H    3.23352746e+00      -7.02421059e-01     9.49844843e-01      
O    -9.16996420e-01     -2.24574407e+00     -1.29490518e+00     
H    -1.81855725e+00     -2.11561209e+00     -1.60451953e+00     
H    -8.09321011e-01     -3.19720063e+00     -1.20701049e+00     
20
1373.668091
N    6.91362511e-03      -1.16843359e-03     -3.25177458e-02     
H    8.95029405e-01      -4.51058462e-02     5.10097842e-01      
H    -3.63644063e-01     -9.48215371e-01     -2.78579525e-01     
H    -7.07764427e-01     4.95957442e-01      5.54839203e-01      
C    2.00270974e-01      9.18071526e-01      -1.17236666e+00     
H    5.36133014e-01      1.93108611e+00      -9.31092261e-01     
H    9.71153769e-01      4.20385400e-01      -1.76216025e+00     
C    -1.10789483e+00     1.05438135e+00      -1.91470746e+00     
O    -2.14208357e+00     5.12775305e-01      -1.58703134e+00     
O    -9.51696088e-01     1.85249788e+00      -2.97250188e+00     
H    -1.81598414e+00     1.92230111e+00      -3.41674931e+00     
O    -1.97702083e+00     1.39064570e+00      1.31255883e+00      
H    -2.81141957e+00     1.30709229e+00      8.42229445e-01      
H    -2.20066184e+00     1.59134332e+00      2.22471664e+00      
O    2.56523074e+00      -2.48276078e-02     1.07631130e+00      
H    2.87858333e+00      5.04008237e-01      1.81394244e+00      
H    3.23396422e+00      -7.02179721e-01     9.50090043e-01      
O    -9.16916072e-01     -2.24558659e+00     -1.29499861e+00     
H    -1.81882590e+00     -2.11667131e+00     -1.60440247e+00     
H    -8.09782883e-01     -3.19727192e+00     -1.20706393e+00     
