20
683.485207
N    2.35441678e-03      1.44849128e-02      -2.12997598e-02     
H    9.19698596e-01      -1.29803603e-01     4.49399282e-01      
H    -3.96803193e-01     -8.97355945e-01     -3.41871424e-01     
H    -6.80129749e-01     4.64065636e-01      6.31724619e-01      
C    2.05280789e-01      9.00871038e-01      -1.18469343e+00     
H    5.04825641e-01      1.88838599e+00      -8.36986069e-01     
H    9.90121132e-01      5.05451754e-01      -1.82590463e+00     
C    -1.10147790e+00     1.03234978e+00      -1.93049639e+00     
O    -2.14499036e+00     5.22755305e-01      -1.57987909e+00     
O    -9.55767067e-01     1.86647509e+00      -2.96248520e+00     
H    -1.78136506e+00     1.80344217e+00      -3.50192977e+00     
O    -1.97867170e+00     1.39053269e+00      1.31030152e+00      
H    -2.82099540e+00     1.31306342e+00      8.53075950e-01      
H    -2.19160347e+00     1.58388484e+00      2.22737641e+00      
O    2.56457603e+00      -2.25798105e-02     1.07792221e+00      
H    2.89160273e+00      5.00225986e-01      1.81374759e+00      
H    3.22375614e+00      -7.08049367e-01     9.43367653e-01      
O    -9.14809712e-01     -2.24703746e+00     -1.29386207e+00     
H    -1.81527543e+00     -2.10195535e+00     -1.60042359e+00     
H    -8.15856217e-01     -3.20006194e+00     -1.21706829e+00     
20
683.485207
N    2.28767620e-03      1.47140470e-02      -2.11355571e-02     
H    9.16254002e-01      -1.17977181e-01     4.57874692e-01      
H    -3.81430826e-01     -9.01551488e-01     -3.45136542e-01     
H    -6.91488646e-01     4.54481498e-01      6.25114495e-01      
C    2.04919553e-01      9.02111327e-01      -1.18380458e+00     
H    5.15766280e-01      1.88622945e+00      -8.38261361e-01     
H    9.81460818e-01      4.99779239e-01      -1.83024003e+00     
C    -1.10285926e+00     1.03709247e+00      -1.92709752e+00     
O    -2.14429393e+00     5.20364250e-01      -1.58159266e+00     
O    -9.54774543e-01     1.86306737e+00      -2.96492732e+00     
H    -1.78990078e+00     1.83274822e+00      -3.48092757e+00     
O    -1.97815417e+00     1.39063444e+00      1.31071223e+00      
H    -2.81919703e+00     1.31163387e+00      8.51285793e-01      
H    -2.19432084e+00     1.58564697e+00      2.22663567e+00      
O    2.56471035e+00      -2.30409795e-02     1.07759170e+00      
H    2.88889027e+00      5.01050222e-01      1.81378159e+00      
H    3.22587140e+00      -7.06823294e-01     9.44803051e-01      
O    -9.15416650e-01     -2.24683223e+00     -1.29405277e+00     
H    -1.81589439e+00     -2.10457512e+00     -1.60153537e+00     
H    -8.13876011e-01     -3.19929315e+00     -1.21451376e+00     
20
683.485207
N    2.25430590e-03      1.48286141e-02      -2.10534558e-02     
H    9.14531705e-01      -1.12063970e-01     4.62112396e-01      
H    -3.73744643e-01     -9.03649259e-01     -3.46769101e-01     
H    -6.97168095e-01     4.49689428e-01      6.21809433e-01      
C    2.04738935e-01      9.02731472e-01      -1.18336015e+00     
H    5.21236600e-01      1.88515117e+00      -8.38899007e-01     
H    9.77130661e-01      4.96942981e-01      -1.83240774e+00     
C    -1.10354994e+00     1.03946382e+00      -1.92539809e+00     
O    -2.14394572e+00     5.19168723e-01      -1.58244945e+00     
O    -9.54278282e-01     1.86136352e+00      -2.96614838e+00     
H    -1.79416864e+00     1.84740124e+00      -3.47042647e+00     
O    -1.97789541e+00     1.39068532e+00      1.31091758e+00      
H    -2.81829784e+00     1.31091910e+00      8.50390714e-01      
H    -2.19567953e+00     1.58652804e+00      2.22626529e+00      
O    2.56477751e+00      -2.32715640e-02     1.07742645e+00      
H    2.88753404e+00      5.01462340e-01      1.81379859e+00      
H    3.22692904e+00      -7.06210257e-01     9.45520750e-01      
O    -9.15720120e-01     -2.24672961e+00     -1.29414812e+00     
H    -1.81620387e+00     -2.10588501e+00     -1.60209126e+00     
H    -8.12885909e-01     -3.19890875e+00     -1.21323650e+00     
20
683.485207
N    2.22093561e-03      1.49431812e-02      -2.09713545e-02     
H    9.12809408e-01      -1.06150759e-01     4.66350101e-01      
H    -3.66058460e-01     -9.05747030e-01     -3.48401660e-01     
H    -7.02847543e-01     4.44897359e-01      6.18504371e-01      
C    2.04558317e-01      9.03351616e-01      -1.18291572e+00     
H    5.26706920e-01      1.88407290e+00      -8.39536653e-01     
H    9.72800504e-01      4.94106724e-01      -1.83457544e+00     
C    -1.10424061e+00     1.04183517e+00      -1.92369866e+00     
O    -2.14359751e+00     5.17973196e-01      -1.58330623e+00     
O    -9.53782020e-01     1.85965966e+00      -2.96736944e+00     
H    -1.79843650e+00     1.86205426e+00      -3.45992537e+00     
O    -1.97763664e+00     1.39073620e+00      1.31112293e+00      
H    -2.81739865e+00     1.31020433e+00      8.49495636e-01      
H    -2.19703822e+00     1.58740910e+00      2.22589492e+00      
O    2.56484467e+00      -2.35021485e-02     1.07726120e+00      
H    2.88617781e+00      5.01874458e-01      1.81381559e+00      
H    3.22798667e+00      -7.05597220e-01     9.46238449e-01      
O    -9.16023589e-01     -2.24662699e+00     -1.29424347e+00     
H    -1.81651335e+00     -2.10719489e+00     -1.60264715e+00     
H    -8.11895806e-01     -3.19852435e+00     -1.21195923e+00     
20
683.485207
N    2.18756532e-03      1.50577483e-02      -2.08892532e-02     
H    9.11087112e-01      -1.00237548e-01     4.70587806e-01      
H    -3.58372276e-01     -9.07844801e-01     -3.50034218e-01     
H    -7.08526992e-01     4.40105290e-01      6.15199309e-01      
C    2.04377699e-01      9.03971761e-01      -1.18247129e+00     
H    5.32177239e-01      1.88299463e+00      -8.40174300e-01     
H    9.68470347e-01      4.91270466e-01      -1.83674314e+00     
C    -1.10493129e+00     1.04420652e+00      -1.92199923e+00     
O    -2.14324930e+00     5.16777669e-01      -1.58416302e+00     
O    -9.53285758e-01     1.85795580e+00      -2.96859050e+00     
H    -1.80270437e+00     1.87670728e+00      -3.44942427e+00     
O    -1.97737788e+00     1.39078707e+00      1.31132828e+00      
H    -2.81649946e+00     1.30948955e+00      8.48600557e-01      
H    -2.19839691e+00     1.58829017e+00      2.22552455e+00      
O    2.56491183e+00      -2.37327329e-02     1.07709595e+00      
H    2.88482157e+00      5.02286576e-01      1.81383259e+00      
H    3.22904430e+00      -7.04984184e-01     9.46956147e-01      
O    -9.16327058e-01     -2.24652438e+00     -1.29433882e+00     
H    -1.81682284e+00     -2.10850478e+00     -1.60320304e+00     
H    -8.10905703e-01     -3.19813995e+00     -1.21068197e+00     
20
683.485207
N    2.15419503e-03      1.51723153e-02      -2.08071519e-02     
H    9.09364815e-01      -9.43243367e-02     4.74825511e-01      
H    -3.50686093e-01     -9.09942573e-01     -3.51666777e-01     
H    -7.14206441e-01     4.35313221e-01      6.11894248e-01      
C    2.04197081e-01      9.04591906e-01      -1.18202687e+00     
H    5.37647559e-01      1.88191636e+00      -8.40811946e-01     
H    9.64140189e-01      4.88434208e-01      -1.83891084e+00     
C    -1.10562197e+00     1.04657786e+00      -1.92029979e+00     
O    -2.14290109e+00     5.15582141e-01      -1.58501980e+00     
O    -9.52789496e-01     1.85625194e+00      -2.96981156e+00     
H    -1.80697223e+00     1.89136031e+00      -3.43892317e+00     
O    -1.97711912e+00     1.39083795e+00      1.31153363e+00      
H    -2.81560028e+00     1.30877478e+00      8.47705478e-01      
H    -2.19975559e+00     1.58917123e+00      2.22515418e+00      
O    2.56497900e+00      -2.39633174e-02     1.07693070e+00      
H    2.88346534e+00      5.02698694e-01      1.81384959e+00      
H    3.23010193e+00      -7.04371147e-01     9.47673846e-01      
O    -9.16630527e-01     -2.24642176e+00     -1.29443417e+00     
H    -1.81713232e+00     -2.10981467e+00     -1.60375894e+00     
H    -8.09915600e-01     -3.19775555e+00     -1.20940470e+00     
20
683.485207
N    2.13750988e-03      1.52295989e-02      -2.07661013e-02     
H    9.08503666e-01      -9.13677311e-02     4.76944363e-01      
H    -3.46843001e-01     -9.10991458e-01     -3.52483057e-01     
H    -7.17046165e-01     4.32917186e-01      6.10241717e-01      
C    2.04106772e-01      9.04901978e-01      -1.18180465e+00     
H    5.40382719e-01      1.88137723e+00      -8.41130769e-01     
H    9.61975111e-01      4.87016079e-01      -1.83999469e+00     
C    -1.10596731e+00     1.04776354e+00      -1.91945008e+00     
O    -2.14272699e+00     5.14984378e-01      -1.58544819e+00     
O    -9.52541366e-01     1.85540002e+00      -2.97042209e+00     
H    -1.80910616e+00     1.89868682e+00      -3.43367262e+00     
O    -1.97698974e+00     1.39086339e+00      1.31163630e+00      
H    -2.81515068e+00     1.30841739e+00      8.47257939e-01      
H    -2.20043494e+00     1.58961176e+00      2.22496900e+00      
O    2.56501258e+00      -2.40786097e-02     1.07684808e+00      
H    2.88278723e+00      5.02904753e-01      1.81385809e+00      
H    3.23063075e+00      -7.04064629e-01     9.48032696e-01      
O    -9.16782262e-01     -2.24637045e+00     -1.29448184e+00     
H    -1.81728706e+00     -2.11046961e+00     -1.60403688e+00     
H    -8.09420549e-01     -3.19756335e+00     -1.20876607e+00     
20
683.485207
N    2.12082473e-03      1.52868824e-02      -2.07250506e-02     
H    9.07642518e-01      -8.84111256e-02     4.79063215e-01      
H    -3.42999909e-01     -9.12040344e-01     -3.53299336e-01     
H    -7.19885889e-01     4.30521151e-01      6.08589186e-01      
C    2.04016463e-01      9.05212050e-01      -1.18158244e+00     
H    5.43117878e-01      1.88083809e+00      -8.41449592e-01     
H    9.59810032e-01      4.85597951e-01      -1.84107854e+00     
C    -1.10631265e+00     1.04894921e+00      -1.91860036e+00     
O    -2.14255288e+00     5.14386614e-01      -1.58587659e+00     
O    -9.52293235e-01     1.85454809e+00      -2.97103262e+00     
H    -1.81124009e+00     1.90601333e+00      -3.42842207e+00     
O    -1.97686035e+00     1.39088882e+00      1.31173898e+00      
H    -2.81470109e+00     1.30806000e+00      8.46810400e-01      
H    -2.20111428e+00     1.59005230e+00      2.22478381e+00      
O    2.56504616e+00      -2.41939019e-02     1.07676545e+00      
H    2.88210911e+00      5.03110812e-01      1.81386659e+00      
H    3.23115957e+00      -7.03758111e-01     9.48391545e-01      
O    -9.16933997e-01     -2.24631915e+00     -1.29452952e+00     
H    -1.81744180e+00     -2.11112455e+00     -1.60431483e+00     
H    -8.08925498e-01     -3.19737115e+00     -1.20812744e+00     
20
683.485207
N    2.05408415e-03      1.55160166e-02      -2.05608480e-02     
H    9.04197924e-01      -7.65847034e-02     4.87538625e-01      
H    -3.27627543e-01     -9.16235886e-01     -3.56564454e-01     
H    -7.31244787e-01     4.20937013e-01      6.01979062e-01      
C    2.03655227e-01      9.06452340e-01      -1.18069358e+00     
H    5.54058518e-01      1.87868155e+00      -8.42724884e-01     
H    9.51149718e-01      4.79925435e-01      -1.84541394e+00     
C    -1.10769401e+00     1.05369191e+00      -1.91520150e+00     
O    -2.14185646e+00     5.11995560e-01      -1.58759015e+00     
O    -9.51300711e-01     1.85114037e+00      -2.97347474e+00     
H    -1.81977581e+00     1.93531937e+00      -3.40741987e+00     
O    -1.97634283e+00     1.39099058e+00      1.31214968e+00      
H    -2.81290271e+00     1.30663046e+00      8.45020242e-01      
H    -2.20383166e+00     1.59181442e+00      2.22404307e+00      
O    2.56518048e+00      -2.46550709e-02     1.07643495e+00      
H    2.87939665e+00      5.03935048e-01      1.81390059e+00      
H    3.23327483e+00      -7.02532037e-01     9.49826943e-01      
O    -9.17540935e-01     -2.24611391e+00     -1.29472022e+00     
H    -1.81806076e+00     -2.11374433e+00     -1.60542661e+00     
H    -8.06945292e-01     -3.19660235e+00     -1.20557290e+00     
20
683.485207
N    2.03739900e-03      1.55733001e-02      -2.05197973e-02     
H    9.03336776e-01      -7.36280979e-02     4.89657477e-01      
H    -3.23784451e-01     -9.17284772e-01     -3.57380733e-01     
H    -7.34084511e-01     4.18540978e-01      6.00326531e-01      
C    2.03564918e-01      9.06762412e-01      -1.18047137e+00     
H    5.56793677e-01      1.87814241e+00      -8.43043707e-01     
H    9.48984639e-01      4.78507307e-01      -1.84649779e+00     
C    -1.10803935e+00     1.05487758e+00      -1.91435178e+00     
O    -2.14168235e+00     5.11397796e-01      -1.58801855e+00     
O    -9.51052580e-01     1.85028844e+00      -2.97408527e+00     
H    -1.82190974e+00     1.94264588e+00      -3.40216932e+00     
O    -1.97621344e+00     1.39101601e+00      1.31225236e+00      
H    -2.81245312e+00     1.30627307e+00      8.44572703e-01      
H    -2.20451100e+00     1.59225496e+00      2.22385788e+00      
O    2.56521406e+00      -2.47703631e-02     1.07635232e+00      
H    2.87871853e+00      5.04141107e-01      1.81390909e+00      
H    3.23380365e+00      -7.02225519e-01     9.50185792e-01      
O    -9.17692670e-01     -2.24606261e+00     -1.29476790e+00     
H    -1.81821550e+00     -2.11439927e+00     -1.60570456e+00     
H    -8.06450241e-01     -3.19641015e+00     -1.20493427e+00     
20
683.485207
N    2.02071385e-03      1.56305837e-02      -2.04787467e-02     
H    9.02475627e-01      -7.06714923e-02     4.91776329e-01      
H    -3.19941359e-01     -9.18333657e-01     -3.58197013e-01     
H    -7.36924235e-01     4.16144943e-01      5.98674000e-01      
C    2.03474609e-01      9.07072484e-01      -1.18024915e+00     
H    5.59528837e-01      1.87760328e+00      -8.43362530e-01     
H    9.46819561e-01      4.77089178e-01      -1.84758164e+00     
C    -1.10838469e+00     1.05606326e+00      -1.91350207e+00     
O    -2.14150825e+00     5.10800033e-01      -1.58844694e+00     
O    -9.50804450e-01     1.84943652e+00      -2.97469580e+00     
H    -1.82404367e+00     1.94997239e+00      -3.39691877e+00     
O    -1.97608406e+00     1.39104145e+00      1.31235503e+00      
H    -2.81200352e+00     1.30591568e+00      8.44125164e-01      
H    -2.20519035e+00     1.59269549e+00      2.22367270e+00      
O    2.56524764e+00      -2.48856554e-02     1.07626970e+00      
H    2.87804042e+00      5.04347166e-01      1.81391759e+00      
H    3.23433247e+00      -7.01919001e-01     9.50544642e-01      
O    -9.17844405e-01     -2.24601130e+00     -1.29481557e+00     
H    -1.81837024e+00     -2.11505421e+00     -1.60598250e+00     
H    -8.05955190e-01     -3.19621795e+00     -1.20429564e+00     
20
683.485207
N    1.98734356e-03      1.57451507e-02      -2.03966454e-02     
H    9.00753330e-01      -6.47582812e-02     4.96014034e-01      
H    -3.12255176e-01     -9.20431429e-01     -3.59829572e-01     
H    -7.42603684e-01     4.11352874e-01      5.95368939e-01      
C    2.03293991e-01      9.07692629e-01      -1.17980473e+00     
H    5.64999157e-01      1.87652501e+00      -8.44000176e-01     
H    9.42489403e-01      4.74252920e-01      -1.84974934e+00     
C    -1.10907537e+00     1.05843460e+00      -1.91180263e+00     
O    -2.14116004e+00     5.09604505e-01      -1.58930372e+00     
O    -9.50308188e-01     1.84773266e+00      -2.97591686e+00     
H    -1.82831153e+00     1.96462542e+00      -3.38641767e+00     
O    -1.97582530e+00     1.39109233e+00      1.31256038e+00      
H    -2.81110434e+00     1.30520091e+00      8.43230085e-01      
H    -2.20654903e+00     1.59357655e+00      2.22330233e+00      
O    2.56531481e+00      -2.51162399e-02     1.07610445e+00      
H    2.87668419e+00      5.04759284e-01      1.81393459e+00      
H    3.23539010e+00      -7.01305964e-01     9.51262341e-01      
O    -9.18147874e-01     -2.24590868e+00     -1.29491092e+00     
H    -1.81867972e+00     -2.11636410e+00     -1.60653840e+00     
H    -8.04965087e-01     -3.19583355e+00     -1.20301837e+00     
20
683.485207
N    1.95397327e-03      1.58597178e-02      -2.03145441e-02     
H    8.99031034e-01      -5.88450701e-02     5.00251739e-01      
H    -3.04568992e-01     -9.22529200e-01     -3.61462130e-01     
H    -7.48283133e-01     4.06560805e-01      5.92063877e-01      
C    2.03113373e-01      9.08312774e-01      -1.17936030e+00     
H    5.70469476e-01      1.87544674e+00      -8.44637823e-01     
H    9.38159246e-01      4.71416662e-01      -1.85191704e+00     
C    -1.10976605e+00     1.06080595e+00      -1.91010320e+00     
O    -2.14081183e+00     5.08408978e-01      -1.59016051e+00     
O    -9.49811926e-01     1.84602880e+00      -2.97713792e+00     
H    -1.83257940e+00     1.97927844e+00      -3.37591657e+00     
O    -1.97556654e+00     1.39114320e+00      1.31276573e+00      
H    -2.81020515e+00     1.30448613e+00      8.42335006e-01      
H    -2.20790772e+00     1.59445762e+00      2.22293196e+00      
O    2.56538197e+00      -2.53468243e-02     1.07593920e+00      
H    2.87532795e+00      5.05171402e-01      1.81395159e+00      
H    3.23644773e+00      -7.00692928e-01     9.51980039e-01      
O    -9.18451343e-01     -2.24580607e+00     -1.29500627e+00     
H    -1.81898921e+00     -2.11767399e+00     -1.60709429e+00     
H    -8.03974984e-01     -3.19544915e+00     -1.20174111e+00     
20
683.485207
N    1.92060298e-03      1.59742849e-02      -2.02324428e-02     
H    8.97308737e-01      -5.29318591e-02     5.04489444e-01      
H    -2.96882809e-01     -9.24626971e-01     -3.63094689e-01     
H    -7.53962581e-01     4.01768736e-01      5.88758815e-01      
C    2.02932755e-01      9.08932918e-01      -1.17891587e+00     
H    5.75939796e-01      1.87436847e+00      -8.45275469e-01     
H    9.33829089e-01      4.68580405e-01      -1.85408474e+00     
C    -1.11045672e+00     1.06317730e+00      -1.90840377e+00     
O    -2.14046362e+00     5.07213451e-01      -1.59101729e+00     
O    -9.49315664e-01     1.84432494e+00      -2.97835898e+00     
H    -1.83684726e+00     1.99393146e+00      -3.36541547e+00     
O    -1.97530777e+00     1.39119408e+00      1.31297108e+00      
H    -2.80930596e+00     1.30377136e+00      8.41439928e-01      
H    -2.20926641e+00     1.59533868e+00      2.22256159e+00      
O    2.56544913e+00      -2.55774088e-02     1.07577395e+00      
H    2.87397172e+00      5.05583520e-01      1.81396859e+00      
H    3.23750536e+00      -7.00079891e-01     9.52697738e-01      
O    -9.18754812e-01     -2.24570345e+00     -1.29510162e+00     
H    -1.81929869e+00     -2.11898387e+00     -1.60765018e+00     
H    -8.02984881e-01     -3.19506475e+00     -1.20046384e+00     
20
683.485207
N    1.88723268e-03      1.60888520e-02      -2.01503415e-02     
H    8.95586440e-01      -4.70186480e-02     5.08727148e-01      
H    -2.89196626e-01     -9.26724742e-01     -3.64727248e-01     
H    -7.59642030e-01     3.96976666e-01      5.85453753e-01      
C    2.02752137e-01      9.09553063e-01      -1.17847144e+00     
H    5.81410116e-01      1.87329019e+00      -8.45913115e-01     
H    9.29498932e-01      4.65744147e-01      -1.85625245e+00     
C    -1.11114740e+00     1.06554865e+00      -1.90670434e+00     
O    -2.14011541e+00     5.06017924e-01      -1.59187408e+00     
O    -9.48819403e-01     1.84262109e+00      -2.97958004e+00     
H    -1.84111512e+00     2.00858448e+00      -3.35491437e+00     
O    -1.97504901e+00     1.39124496e+00      1.31317643e+00      
H    -2.80840677e+00     1.30305659e+00      8.40544849e-01      
H    -2.21062510e+00     1.59621975e+00      2.22219121e+00      
O    2.56551629e+00      -2.58079933e-02     1.07560870e+00      
H    2.87261549e+00      5.05995638e-01      1.81398559e+00      
H    3.23856300e+00      -6.99466854e-01     9.53415437e-01      
O    -9.19058282e-01     -2.24560083e+00     -1.29519697e+00     
H    -1.81960817e+00     -2.12029376e+00     -1.60820607e+00     
H    -8.01994779e-01     -3.19468035e+00     -1.19918658e+00     
20
683.485207
N    1.82049210e-03      1.63179862e-02      -1.99861388e-02     
H    8.92141846e-01      -3.51922258e-02     5.17202558e-01      
H    -2.73824259e-01     -9.30920285e-01     -3.67992366e-01     
H    -7.71000927e-01     3.87392528e-01      5.78843629e-01      
C    2.02390901e-01      9.10793352e-01      -1.17758259e+00     
H    5.92350755e-01      1.87113365e+00      -8.47188407e-01     
H    9.20838618e-01      4.60071632e-01      -1.86058785e+00     
C    -1.11252876e+00     1.07029134e+00      -1.90330547e+00     
O    -2.13941898e+00     5.03626869e-01      -1.59358765e+00     
O    -9.47826879e-01     1.83921337e+00      -2.98202216e+00     
H    -1.84965084e+00     2.03789053e+00      -3.33391217e+00     
O    -1.97453148e+00     1.39134671e+00      1.31358714e+00      
H    -2.80660840e+00     1.30162704e+00      8.38754692e-01      
H    -2.21334247e+00     1.59798188e+00      2.22145047e+00      
O    2.56565061e+00      -2.62691623e-02     1.07527819e+00      
H    2.86990303e+00      5.06819874e-01      1.81401959e+00      
H    3.24067826e+00      -6.98240781e-01     9.54850835e-01      
O    -9.19665220e-01     -2.24539560e+00     -1.29538767e+00     
H    -1.82022713e+00     -2.12291353e+00     -1.60931785e+00     
H    -8.00014573e-01     -3.19391156e+00     -1.19663205e+00     
