20
873.577459
N    3.16339286e-03      8.59875421e-03      -1.07133064e-02     
H    8.72349755e-01      -1.34815860e-01     5.42660728e-01      
H    -3.54169185e-01     -9.03876501e-01     -3.72930396e-01     
H    -7.43380478e-01     4.32418659e-01      5.84725547e-01      
C    2.63680838e-01      9.18070622e-01      -1.17389308e+00     
H    6.17376307e-01      1.88184233e+00      -8.12428470e-01     
H    1.02547149e+00      4.80712472e-01      -1.81654850e+00     
C    -1.13840026e+00     1.04863904e+00      -1.92591944e+00     
O    -2.17374932e+00     4.95811660e-01      -1.57530287e+00     
O    -9.50342646e-01     1.86660063e+00      -2.99085804e+00     
H    -1.77649023e+00     1.98977549e+00      -3.49849713e+00     
O    -1.97591535e+00     1.39062982e+00      1.31233375e+00      
H    -2.81133595e+00     1.30638756e+00      8.43143421e-01      
H    -2.20493193e+00     1.59232051e+00      2.22355346e+00      
O    2.56484172e+00      -2.41140588e-02     1.07605663e+00      
H    2.88131018e+00      5.03864034e-01      1.81305832e+00      
H    3.23262423e+00      -7.02287566e-01     9.48654068e-01      
O    -9.16635297e-01     -2.24623778e+00     -1.29402861e+00     
H    -1.81662004e+00     -2.10880961e+00     -1.60435857e+00     
H    -8.09852402e-01     -3.19746024e+00     -1.20904358e+00     
20
873.577459
N    2.89440825e-03      1.02994280e-02      -1.31957171e-02     
H    8.80742372e-01      -1.21736374e-01     5.27820776e-01      
H    -3.49455320e-01     -9.06441904e-01     -3.68430771e-01     
H    -7.38926693e-01     4.30746265e-01      5.89865191e-01      
C    2.48719590e-01      9.15011015e-01      -1.17570431e+00     
H    6.00179280e-01      1.88132170e+00      -8.19843162e-01     
H    1.00797358e+00      4.81224777e-01      -1.82322294e+00     
C    -1.13055102e+00     1.04930942e+00      -1.92366482e+00     
O    -2.16586315e+00     5.00156517e-01      -1.57816050e+00     
O    -9.50706228e-01     1.86316153e+00      -2.98620695e+00     
H    -1.78624466e+00     1.97249821e+00      -3.47835309e+00     
O    -1.97608691e+00     1.39070729e+00      1.31223639e+00      
H    -2.81195244e+00     1.30662698e+00      8.43836396e-01      
H    -2.20431719e+00     1.59197373e+00      2.22376846e+00      
O    2.56490962e+00      -2.41916657e-02     1.07619252e+00      
H    2.88117086e+00      5.03778758e-01      1.81326464e+00      
H    3.23252247e+00      -7.02501943e-01     9.48767862e-01      
O    -9.16785839e-01     -2.24623246e+00     -1.29417767e+00     
H    -1.81690285e+00     -2.10971582e+00     -1.60448660e+00     
H    -8.09373150e-01     -3.19734187e+00     -1.20849522e+00     
20
873.577459
N    2.75991595e-03      1.11497649e-02      -1.44369225e-02     
H    8.84938680e-01      -1.15196631e-01     5.20400800e-01      
H    -3.47098388e-01     -9.07724606e-01     -3.66180958e-01     
H    -7.36699801e-01     4.29910068e-01      5.92435013e-01      
C    2.41238966e-01      9.13481212e-01      -1.17660993e+00     
H    5.91580766e-01      1.88106139e+00      -8.23550508e-01     
H    9.99224632e-01      4.81480930e-01      -1.82656015e+00     
C    -1.12662641e+00     1.04964461e+00      -1.92253750e+00     
O    -2.16192007e+00     5.02328945e-01      -1.57958931e+00     
O    -9.50888019e-01     1.86144198e+00      -2.98388140e+00     
H    -1.79112187e+00     1.96385957e+00      -3.46828107e+00     
O    -1.97617269e+00     1.39074603e+00      1.31218772e+00      
H    -2.81226068e+00     1.30674669e+00      8.44182884e-01      
H    -2.20400982e+00     1.59180033e+00      2.22387595e+00      
O    2.56494357e+00      -2.42304692e-02     1.07626047e+00      
H    2.88110119e+00      5.03736120e-01      1.81336780e+00      
H    3.23247160e+00      -7.02609131e-01     9.48824759e-01      
O    -9.16861110e-01     -2.24622981e+00     -1.29425220e+00     
H    -1.81704426e+00     -2.11016892e+00     -1.60455062e+00     
H    -8.09133524e-01     -3.19728268e+00     -1.20822105e+00     
20
873.577459
N    2.62542365e-03      1.20001019e-02      -1.56781279e-02     
H    8.89134988e-01      -1.08656887e-01     5.12980824e-01      
H    -3.44741455e-01     -9.09007308e-01     -3.63931146e-01     
H    -7.34472908e-01     4.29073871e-01      5.95004835e-01      
C    2.33758342e-01      9.11951408e-01      -1.17751554e+00     
H    5.82982253e-01      1.88080107e+00      -8.27257854e-01     
H    9.90475681e-01      4.81737082e-01      -1.82989737e+00     
C    -1.12270179e+00     1.04997980e+00      -1.92141019e+00     
O    -2.15797699e+00     5.04501373e-01      -1.58101812e+00     
O    -9.51069810e-01     1.85972243e+00      -2.98155586e+00     
H    -1.79599909e+00     1.95522092e+00      -3.45820905e+00     
O    -1.97625847e+00     1.39078476e+00      1.31213904e+00      
H    -2.81256892e+00     1.30686639e+00      8.44529371e-01      
H    -2.20370245e+00     1.59162694e+00      2.22398345e+00      
O    2.56497752e+00      -2.42692726e-02     1.07632842e+00      
H    2.88103153e+00      5.03693482e-01      1.81347096e+00      
H    3.23242072e+00      -7.02716320e-01     9.48881656e-01      
O    -9.16936381e-01     -2.24622715e+00     -1.29432674e+00     
H    -1.81718566e+00     -2.11062203e+00     -1.60461464e+00     
H    -8.08893898e-01     -3.19722350e+00     -1.20794687e+00     
20
873.577459
N    2.49093135e-03      1.28504388e-02      -1.69193332e-02     
H    8.93331296e-01      -1.02117144e-01     5.05560848e-01      
H    -3.42384523e-01     -9.10290010e-01     -3.61681333e-01     
H    -7.32246016e-01     4.28237673e-01      5.97574658e-01      
C    2.26277718e-01      9.10421605e-01      -1.17842116e+00     
H    5.74383739e-01      1.88054076e+00      -8.30965200e-01     
H    9.81726729e-01      4.81993235e-01      -1.83323459e+00     
C    -1.11877718e+00     1.05031499e+00      -1.92028287e+00     
O    -2.15403391e+00     5.06673802e-01      -1.58244693e+00     
O    -9.51251600e-01     1.85800288e+00      -2.97923031e+00     
H    -1.80087630e+00     1.94658228e+00      -3.44813703e+00     
O    -1.97634425e+00     1.39082350e+00      1.31209036e+00      
H    -2.81287717e+00     1.30698610e+00      8.44875859e-01      
H    -2.20339508e+00     1.59145354e+00      2.22409095e+00      
O    2.56501147e+00      -2.43080761e-02     1.07639636e+00      
H    2.88096187e+00      5.03650844e-01      1.81357411e+00      
H    3.23236984e+00      -7.02823508e-01     9.48938553e-01      
O    -9.17011653e-01     -2.24622450e+00     -1.29440127e+00     
H    -1.81732707e+00     -2.11107513e+00     -1.60467866e+00     
H    -8.08654273e-01     -3.19716431e+00     -1.20767270e+00     
20
873.577459
N    2.35643904e-03      1.37007757e-02      -1.81605386e-02     
H    8.97527605e-01      -9.55774010e-02     4.98140872e-01      
H    -3.40027591e-01     -9.11572711e-01     -3.59431520e-01     
H    -7.30019123e-01     4.27401476e-01      6.00144480e-01      
C    2.18797093e-01      9.08891802e-01      -1.17932678e+00     
H    5.65785225e-01      1.88028045e+00      -8.34672546e-01     
H    9.72977778e-01      4.82249388e-01      -1.83657181e+00     
C    -1.11485256e+00     1.05065018e+00      -1.91915556e+00     
O    -2.15009083e+00     5.08846230e-01      -1.58387575e+00     
O    -9.51433391e-01     1.85628333e+00      -2.97690477e+00     
H    -1.80575352e+00     1.93794364e+00      -3.43806501e+00     
O    -1.97643003e+00     1.39086223e+00      1.31204168e+00      
H    -2.81318541e+00     1.30710581e+00      8.45222346e-01      
H    -2.20308771e+00     1.59128015e+00      2.22419845e+00      
O    2.56504542e+00      -2.43468795e-02     1.07646431e+00      
H    2.88089221e+00      5.03608206e-01      1.81367727e+00      
H    3.23231896e+00      -7.02930697e-01     9.48995450e-01      
O    -9.17086924e-01     -2.24622184e+00     -1.29447580e+00     
H    -1.81746847e+00     -2.11152823e+00     -1.60474268e+00     
H    -8.08414647e-01     -3.19710512e+00     -1.20739852e+00     
20
873.577459
N    2.28919289e-03      1.41259441e-02      -1.87811413e-02     
H    8.99625759e-01      -9.23075293e-02     4.94430884e-01      
H    -3.38849125e-01     -9.12214062e-01     -3.58306614e-01     
H    -7.28905677e-01     4.26983378e-01      6.01429391e-01      
C    2.15056781e-01      9.08126900e-01      -1.17977959e+00     
H    5.61485968e-01      1.88015029e+00      -8.36526219e-01     
H    9.68603302e-01      4.82377464e-01      -1.83824041e+00     
C    -1.11289025e+00     1.05081778e+00      -1.91859190e+00     
O    -2.14811929e+00     5.09932444e-01      -1.58459015e+00     
O    -9.51524287e-01     1.85542356e+00      -2.97574200e+00     
H    -1.80819213e+00     1.93362431e+00      -3.43302900e+00     
O    -1.97647292e+00     1.39088160e+00      1.31201735e+00      
H    -2.81333953e+00     1.30716567e+00      8.45395590e-01      
H    -2.20293403e+00     1.59119345e+00      2.22425219e+00      
O    2.56506240e+00      -2.43662812e-02     1.07649828e+00      
H    2.88085737e+00      5.03586887e-01      1.81372885e+00      
H    3.23229352e+00      -7.02984291e-01     9.49023898e-01      
O    -9.17124559e-01     -2.24622051e+00     -1.29451307e+00     
H    -1.81753917e+00     -2.11175479e+00     -1.60477469e+00     
H    -8.08294834e-01     -3.19707553e+00     -1.20726143e+00     
20
873.577459
N    2.22194674e-03      1.45511126e-02      -1.94017439e-02     
H    9.01723913e-01      -8.90376577e-02     4.90720896e-01      
H    -3.37670658e-01     -9.12855413e-01     -3.57181708e-01     
H    -7.27792231e-01     4.26565279e-01      6.02714302e-01      
C    2.11316469e-01      9.07361998e-01      -1.18023239e+00     
H    5.57186712e-01      1.88002013e+00      -8.38379892e-01     
H    9.64228826e-01      4.82505540e-01      -1.83990902e+00     
C    -1.11092795e+00     1.05098537e+00      -1.91802824e+00     
O    -2.14614775e+00     5.11018659e-01      -1.58530456e+00     
O    -9.51615182e-01     1.85456378e+00      -2.97457922e+00     
H    -1.81063073e+00     1.92930499e+00      -3.42799299e+00     
O    -1.97651581e+00     1.39090097e+00      1.31199301e+00      
H    -2.81349366e+00     1.30722552e+00      8.45568834e-01      
H    -2.20278034e+00     1.59110675e+00      2.22430594e+00      
O    2.56507937e+00      -2.43856830e-02     1.07653225e+00      
H    2.88082254e+00      5.03565568e-01      1.81378043e+00      
H    3.23226808e+00      -7.03037885e-01     9.49052347e-01      
O    -9.17162195e-01     -2.24621919e+00     -1.29455034e+00     
H    -1.81760988e+00     -2.11198134e+00     -1.60480670e+00     
H    -8.08175021e-01     -3.19704594e+00     -1.20712435e+00     
20
873.577459
N    1.95296214e-03      1.62517864e-02      -2.18841547e-02     
H    9.10116529e-01      -7.59581713e-02     4.75880944e-01      
H    -3.32956794e-01     -9.15420817e-01     -3.52682082e-01     
H    -7.23338445e-01     4.24892885e-01      6.07853946e-01      
C    1.96355221e-01      9.04302392e-01      -1.18204363e+00     
H    5.39989684e-01      1.87949951e+00      -8.45794584e-01     
H    9.46730924e-01      4.83017846e-01      -1.84658346e+00     
C    -1.10307871e+00     1.05165575e+00      -1.91577362e+00     
O    -2.13826159e+00     5.15363515e-01      -1.58816218e+00     
O    -9.51978764e-01     1.85112468e+00      -2.96992814e+00     
H    -1.82038517e+00     1.91202771e+00      -3.40784895e+00     
O    -1.97668737e+00     1.39097843e+00      1.31189565e+00      
H    -2.81411014e+00     1.30746494e+00      8.46261808e-01      
H    -2.20216560e+00     1.59075997e+00      2.22452094e+00      
O    2.56514727e+00      -2.44632898e-02     1.07666815e+00      
H    2.88068322e+00      5.03480292e-01      1.81398675e+00      
H    3.23216632e+00      -7.03252263e-01     9.49166141e-01      
O    -9.17312737e-01     -2.24621387e+00     -1.29469940e+00     
H    -1.81789268e+00     -2.11288754e+00     -1.60493474e+00     
H    -8.07695769e-01     -3.19692756e+00     -1.20657599e+00     
20
873.577459
N    1.88571599e-03      1.66769549e-02      -2.25047573e-02     
H    9.12214683e-01      -7.26882997e-02     4.72170956e-01      
H    -3.31778327e-01     -9.16062168e-01     -3.51557176e-01     
H    -7.22224999e-01     4.24474786e-01      6.09138857e-01      
C    1.92614909e-01      9.03537490e-01      -1.18249643e+00     
H    5.35690428e-01      1.87936935e+00      -8.47648257e-01     
H    9.42356448e-01      4.83145922e-01      -1.84825207e+00     
C    -1.10111641e+00     1.05182334e+00      -1.91520996e+00     
O    -2.13629005e+00     5.16449730e-01      -1.58887659e+00     
O    -9.52069659e-01     1.85026490e+00      -2.96876536e+00     
H    -1.82282377e+00     1.90770839e+00      -3.40281294e+00     
O    -1.97673026e+00     1.39099780e+00      1.31187131e+00      
H    -2.81426427e+00     1.30752479e+00      8.46435052e-01      
H    -2.20201191e+00     1.59067327e+00      2.22457469e+00      
O    2.56516424e+00      -2.44826916e-02     1.07670212e+00      
H    2.88064839e+00      5.03458973e-01      1.81403833e+00      
H    3.23214088e+00      -7.03305857e-01     9.49194590e-01      
O    -9.17350373e-01     -2.24621255e+00     -1.29473667e+00     
H    -1.81796339e+00     -2.11311409e+00     -1.60496675e+00     
H    -8.07575956e-01     -3.19689797e+00     -1.20643891e+00     
20
873.577459
N    1.81846984e-03      1.71021233e-02      -2.31253600e-02     
H    9.14312837e-01      -6.94184280e-02     4.68460968e-01      
H    -3.30599861e-01     -9.16703519e-01     -3.50432270e-01     
H    -7.21111553e-01     4.24056688e-01      6.10423768e-01      
C    1.88874597e-01      9.02772588e-01      -1.18294924e+00     
H    5.31391171e-01      1.87923919e+00      -8.49501930e-01     
H    9.37981972e-01      4.83273998e-01      -1.84992067e+00     
C    -1.09915410e+00     1.05199094e+00      -1.91464630e+00     
O    -2.13431851e+00     5.17535944e-01      -1.58959099e+00     
O    -9.52160555e-01     1.84940513e+00      -2.96760259e+00     
H    -1.82526238e+00     1.90338906e+00      -3.39777693e+00     
O    -1.97677315e+00     1.39101717e+00      1.31184698e+00      
H    -2.81441839e+00     1.30758465e+00      8.46608296e-01      
H    -2.20185823e+00     1.59058657e+00      2.22462843e+00      
O    2.56518122e+00      -2.45020933e-02     1.07673609e+00      
H    2.88061355e+00      5.03437654e-01      1.81408991e+00      
H    3.23211544e+00      -7.03359451e-01     9.49223038e-01      
O    -9.17388008e-01     -2.24621122e+00     -1.29477394e+00     
H    -1.81803409e+00     -2.11334065e+00     -1.60499876e+00     
H    -8.07456143e-01     -3.19686838e+00     -1.20630182e+00     
20
873.577459
N    1.68397753e-03      1.79524602e-02      -2.43665654e-02     
H    9.18509146e-01      -6.28786848e-02     4.61040992e-01      
H    -3.28242929e-01     -9.17986220e-01     -3.48182457e-01     
H    -7.18884660e-01     4.23220491e-01      6.12993590e-01      
C    1.81393972e-01      9.01242785e-01      -1.18385486e+00     
H    5.22792657e-01      1.87897888e+00      -8.53209276e-01     
H    9.29233021e-01      4.83530151e-01      -1.85325789e+00     
C    -1.09522948e+00     1.05232613e+00      -1.91351899e+00     
O    -2.13037543e+00     5.19708372e-01      -1.59101981e+00     
O    -9.52342346e-01     1.84768558e+00      -2.96527705e+00     
H    -1.83013960e+00     1.89475042e+00      -3.38770491e+00     
O    -1.97685893e+00     1.39105590e+00      1.31179830e+00      
H    -2.81472663e+00     1.30770436e+00      8.46954783e-01      
H    -2.20155086e+00     1.59041318e+00      2.22473593e+00      
O    2.56521517e+00      -2.45408967e-02     1.07680404e+00      
H    2.88054389e+00      5.03395016e-01      1.81419307e+00      
H    3.23206456e+00      -7.03466640e-01     9.49279935e-01      
O    -9.17463279e-01     -2.24620856e+00     -1.29484847e+00     
H    -1.81817549e+00     -2.11379375e+00     -1.60506278e+00     
H    -8.07216517e-01     -3.19680919e+00     -1.20602764e+00     
20
873.577459
N    1.54948523e-03      1.88027971e-02      -2.56077707e-02     
H    9.22705454e-01      -5.63389416e-02     4.53621016e-01      
H    -3.25885997e-01     -9.19268922e-01     -3.45932644e-01     
H    -7.16657768e-01     4.22384293e-01      6.15563413e-01      
C    1.73913348e-01      8.99712982e-01      -1.18476048e+00     
H    5.14194143e-01      1.87871857e+00      -8.56916622e-01     
H    9.20484069e-01      4.83786304e-01      -1.85659511e+00     
C    -1.09130487e+00     1.05266132e+00      -1.91239167e+00     
O    -2.12643235e+00     5.21880801e-01      -1.59244862e+00     
O    -9.52524136e-01     1.84596603e+00      -2.96295150e+00     
H    -1.83501681e+00     1.88611178e+00      -3.37763289e+00     
O    -1.97694471e+00     1.39109464e+00      1.31174962e+00      
H    -2.81503488e+00     1.30782407e+00      8.47301271e-01      
H    -2.20124349e+00     1.59023978e+00      2.22484343e+00      
O    2.56524912e+00      -2.45797002e-02     1.07687198e+00      
H    2.88047423e+00      5.03352378e-01      1.81429622e+00      
H    3.23201368e+00      -7.03573828e-01     9.49336832e-01      
O    -9.17538551e-01     -2.24620591e+00     -1.29492300e+00     
H    -1.81831690e+00     -2.11424685e+00     -1.60512680e+00     
H    -8.06976892e-01     -3.19675000e+00     -1.20575347e+00     
20
873.577459
N    1.41499293e-03      1.96531341e-02      -2.68489761e-02     
H    9.26901762e-01      -4.97991984e-02     4.46201040e-01      
H    -3.23529064e-01     -9.20551624e-01     -3.43682832e-01     
H    -7.14430875e-01     4.21548096e-01      6.18133235e-01      
C    1.66432724e-01      8.98183178e-01      -1.18566609e+00     
H    5.05595630e-01      1.87845825e+00      -8.60623968e-01     
H    9.11735118e-01      4.84042456e-01      -1.85993233e+00     
C    -1.08738025e+00     1.05299651e+00      -1.91126436e+00     
O    -2.12248927e+00     5.24053229e-01      -1.59387743e+00     
O    -9.52705927e-01     1.84424648e+00      -2.96062596e+00     
H    -1.83989403e+00     1.87747313e+00      -3.36756087e+00     
O    -1.97703049e+00     1.39113337e+00      1.31170094e+00      
H    -2.81534312e+00     1.30794377e+00      8.47647758e-01      
H    -2.20093612e+00     1.59006639e+00      2.22495093e+00      
O    2.56528307e+00      -2.46185036e-02     1.07693993e+00      
H    2.88040457e+00      5.03309740e-01      1.81439938e+00      
H    3.23196280e+00      -7.03681017e-01     9.49393729e-01      
O    -9.17613822e-01     -2.24620325e+00     -1.29499754e+00     
H    -1.81845830e+00     -2.11469996e+00     -1.60519082e+00     
H    -8.06737266e-01     -3.19669082e+00     -1.20547929e+00     
20
873.577459
N    1.28050063e-03      2.05034710e-02      -2.80901815e-02     
H    9.31098070e-01      -4.32594551e-02     4.38781064e-01      
H    -3.21172132e-01     -9.21834326e-01     -3.41433019e-01     
H    -7.12203983e-01     4.20711899e-01      6.20703057e-01      
C    1.58952100e-01      8.96653375e-01      -1.18657171e+00     
H    4.96997116e-01      1.87819794e+00      -8.64331314e-01     
H    9.02986166e-01      4.84298609e-01      -1.86326954e+00     
C    -1.08345564e+00     1.05333170e+00      -1.91013704e+00     
O    -2.11854619e+00     5.26225657e-01      -1.59530624e+00     
O    -9.52887718e-01     1.84252693e+00      -2.95830041e+00     
H    -1.84477124e+00     1.86883449e+00      -3.35748885e+00     
O    -1.97711627e+00     1.39117211e+00      1.31165227e+00      
H    -2.81565136e+00     1.30806348e+00      8.47994246e-01      
H    -2.20062875e+00     1.58989299e+00      2.22505842e+00      
O    2.56531702e+00      -2.46573071e-02     1.07700788e+00      
H    2.88033490e+00      5.03267102e-01      1.81450254e+00      
H    3.23191193e+00      -7.03788205e-01     9.49450626e-01      
O    -9.17689093e-01     -2.24620060e+00     -1.29507207e+00     
H    -1.81859971e+00     -2.11515306e+00     -1.60525484e+00     
H    -8.06497640e-01     -3.19663163e+00     -1.20520512e+00     
20
873.577459
N    1.01151602e-03      2.22041448e-02      -3.05725922e-02     
H    9.39490687e-01      -3.01799687e-02     4.23941112e-01      
H    -3.16458267e-01     -9.24399729e-01     -3.36933394e-01     
H    -7.07750198e-01     4.19039505e-01      6.25842701e-01      
C    1.43990852e-01      8.93593768e-01      -1.18838294e+00     
H    4.79800089e-01      1.87767731e+00      -8.71746006e-01     
H    8.85488264e-01      4.84810914e-01      -1.86994398e+00     
C    -1.07560640e+00     1.05400208e+00      -1.90788242e+00     
O    -2.11066002e+00     5.30570514e-01      -1.59816387e+00     
O    -9.53251300e-01     1.83908783e+00      -2.95364932e+00     
H    -1.85452567e+00     1.85155721e+00      -3.33734481e+00     
O    -1.97728783e+00     1.39124958e+00      1.31155491e+00      
H    -2.81626785e+00     1.30830290e+00      8.48687221e-01      
H    -2.20001401e+00     1.58954621e+00      2.22527342e+00      
O    2.56538492e+00      -2.47349140e-02     1.07714377e+00      
H    2.88019558e+00      5.03181826e-01      1.81470886e+00      
H    3.23181017e+00      -7.04002582e-01     9.49564420e-01      
O    -9.17839635e-01     -2.24619528e+00     -1.29522113e+00     
H    -1.81888252e+00     -2.11605927e+00     -1.60538287e+00     
H    -8.06018388e-01     -3.19651326e+00     -1.20465676e+00     
