20
1164.074202
N    1.55059355e-04      2.20360495e-02      -1.58882740e-02     
H    9.17052082e-01      -1.20717639e-01     4.55910910e-01      
H    -3.13832090e-01     -8.92734226e-01     -4.25579471e-01     
H    -7.34115906e-01     3.59928254e-01      6.44114597e-01      
C    2.07039548e-01      8.94832742e-01      -1.18902074e+00     
H    4.80067921e-01      1.92000403e+00      -9.21250259e-01     
H    1.02273571e+00      4.46858638e-01      -1.76097249e+00     
C    -1.11129479e+00     1.06605461e+00      -1.90634172e+00     
O    -2.14149957e+00     5.10770168e-01      -1.58846830e+00     
O    -9.51317083e-01     1.85119676e+00      -2.97343442e+00     
H    -1.81488272e+00     1.91851906e+00      -3.41945946e+00     
O    -1.97627040e+00     1.39122339e+00      1.31141306e+00      
H    -2.81547600e+00     1.30855839e+00      8.48400679e-01      
H    -2.20347058e+00     1.59069696e+00      2.22423887e+00      
O    2.56492425e+00      -2.37753579e-02     1.07706540e+00      
H    2.88406319e+00      5.02407587e-01      1.81412323e+00      
H    3.22960218e+00      -7.04416780e-01     9.47158887e-01      
O    -9.17498138e-01     -2.24674234e+00     -1.29426711e+00     
H    -1.81734610e+00     -2.10929093e+00     -1.60423387e+00     
H    -8.06911935e-01     -3.19683911e+00     -1.20673923e+00     
20
1164.074202
N    6.38158126e-04      2.03773995e-02      -1.70769428e-02     
H    9.14269117e-01      -1.11162708e-01     4.62758412e-01      
H    -3.19202499e-01     -8.98085198e-01     -4.07917577e-01     
H    -7.31978264e-01     3.76378461e-01      6.34406979e-01      
C    2.06238622e-01      8.97582605e-01      -1.18705006e+00     
H    4.97197990e-01      1.90994298e+00      -9.01459504e-01     
H    1.00592175e+00      4.55834402e-01      -1.78154093e+00     
C    -1.11022192e+00     1.06237110e+00      -1.90898152e+00     
O    -2.14167585e+00     5.11375397e-01      -1.58803457e+00     
O    -9.51437056e-01     1.85160863e+00      -2.97313923e+00     
H    -1.81503903e+00     1.91905588e+00      -3.41907484e+00     
O    -1.97635320e+00     1.39115247e+00      1.31154588e+00      
H    -2.81505748e+00     1.30825510e+00      8.47779339e-01      
H    -2.20322118e+00     1.59075606e+00      2.22428251e+00      
O    2.56497152e+00      -2.39376400e-02     1.07694910e+00      
H    2.88323561e+00      5.02686423e-01      1.81406332e+00      
H    3.23025594e+00      -7.04098854e-01     9.47646476e-01      
O    -9.17432970e-01     -2.24661089e+00     -1.29435655e+00     
H    -1.81744740e+00     -2.11007680e+00     -1.60439308e+00     
H    -8.07167800e-01     -3.19687602e+00     -1.20676696e+00     
20
1164.074202
N    8.79707512e-04      1.95480745e-02      -1.76712772e-02     
H    9.12877634e-01      -1.06385242e-01     4.66182164e-01      
H    -3.21887704e-01     -9.00760684e-01     -3.99086630e-01     
H    -7.30909443e-01     3.84603564e-01      6.29553170e-01      
C    2.05838159e-01      8.98957537e-01      -1.18606472e+00     
H    5.05763025e-01      1.90491245e+00      -8.91564126e-01     
H    9.97514773e-01      4.60322284e-01      -1.79182515e+00     
C    -1.10968549e+00     1.06052934e+00      -1.91030143e+00     
O    -2.14176398e+00     5.11678012e-01      -1.58781770e+00     
O    -9.51497042e-01     1.85181456e+00      -2.97299164e+00     
H    -1.81511718e+00     1.91932429e+00      -3.41888253e+00     
O    -1.97639459e+00     1.39111701e+00      1.31161229e+00      
H    -2.81484822e+00     1.30810345e+00      8.47468670e-01      
H    -2.20309648e+00     1.59078561e+00      2.22430434e+00      
O    2.56499515e+00      -2.40187811e-02     1.07689095e+00      
H    2.88282182e+00      5.02825840e-01      1.81403336e+00      
H    3.23058281e+00      -7.03939890e-01     9.47890271e-01      
O    -9.17400386e-01     -2.24654516e+00     -1.29440127e+00     
H    -1.81749805e+00     -2.11046974e+00     -1.60447269e+00     
H    -8.07295732e-01     -3.19689448e+00     -1.20678083e+00     
20
1164.074202
N    1.12125690e-03      1.87187495e-02      -1.82656116e-02     
H    9.11486152e-01      -1.01607777e-01     4.69605915e-01      
H    -3.24572908e-01     -9.03436170e-01     -3.90255683e-01     
H    -7.29840622e-01     3.92828668e-01      6.24699360e-01      
C    2.05437696e-01      9.00332469e-01      -1.18507938e+00     
H    5.14328060e-01      1.89988193e+00      -8.81668748e-01     
H    9.89107793e-01      4.64810166e-01      -1.80210937e+00     
C    -1.10914906e+00     1.05868759e+00      -1.91162133e+00     
O    -2.14185212e+00     5.11980627e-01      -1.58760084e+00     
O    -9.51557028e-01     1.85202050e+00      -2.97284405e+00     
H    -1.81519534e+00     1.91959270e+00      -3.41869022e+00     
O    -1.97643599e+00     1.39108155e+00      1.31167870e+00      
H    -2.81463895e+00     1.30795181e+00      8.47158000e-01      
H    -2.20297178e+00     1.59081516e+00      2.22432616e+00      
O    2.56501879e+00      -2.40999222e-02     1.07683280e+00      
H    2.88240804e+00      5.02965258e-01      1.81400341e+00      
H    3.23090969e+00      -7.03780927e-01     9.48134066e-01      
O    -9.17367802e-01     -2.24647944e+00     -1.29444599e+00     
H    -1.81754869e+00     -2.11086268e+00     -1.60455230e+00     
H    -8.07423665e-01     -3.19691293e+00     -1.20679470e+00     
20
1164.074202
N    1.36280628e-03      1.78894245e-02      -1.88599460e-02     
H    9.10094669e-01      -9.68303112e-02     4.73029666e-01      
H    -3.27258113e-01     -9.06111656e-01     -3.81424736e-01     
H    -7.28771801e-01     4.01053771e-01      6.19845551e-01      
C    2.05037234e-01      9.01707400e-01      -1.18409403e+00     
H    5.22893094e-01      1.89485140e+00      -8.71773371e-01     
H    9.80700814e-01      4.69298048e-01      -1.81239359e+00     
C    -1.10861263e+00     1.05684583e+00      -1.91294123e+00     
O    -2.14194026e+00     5.12283242e-01      -1.58738397e+00     
O    -9.51617014e-01     1.85222643e+00      -2.97269646e+00     
H    -1.81527349e+00     1.91986111e+00      -3.41849790e+00     
O    -1.97647739e+00     1.39104609e+00      1.31174510e+00      
H    -2.81442969e+00     1.30780016e+00      8.46847330e-01      
H    -2.20284707e+00     1.59084471e+00      2.22434798e+00      
O    2.56504242e+00      -2.41810632e-02     1.07677465e+00      
H    2.88199425e+00      5.03104676e-01      1.81397345e+00      
H    3.23123657e+00      -7.03621964e-01     9.48377860e-01      
O    -9.17335218e-01     -2.24641371e+00     -1.29449071e+00     
H    -1.81759934e+00     -2.11125562e+00     -1.60463190e+00     
H    -8.07551597e-01     -3.19693139e+00     -1.20680857e+00     
20
1164.074202
N    1.60435567e-03      1.70600995e-02      -1.94542805e-02     
H    9.08703186e-01      -9.20528456e-02     4.76453417e-01      
H    -3.29943317e-01     -9.08787143e-01     -3.72593789e-01     
H    -7.27702980e-01     4.09278875e-01      6.14991742e-01      
C    2.04636771e-01      9.03082332e-01      -1.18310869e+00     
H    5.31458129e-01      1.88982087e+00      -8.61877993e-01     
H    9.72293834e-01      4.73785929e-01      -1.82267780e+00     
C    -1.10807619e+00     1.05500407e+00      -1.91426113e+00     
O    -2.14202840e+00     5.12585857e-01      -1.58716710e+00     
O    -9.51677001e-01     1.85243236e+00      -2.97254886e+00     
H    -1.81535164e+00     1.92012953e+00      -3.41830559e+00     
O    -1.97651879e+00     1.39101062e+00      1.31181151e+00      
H    -2.81422043e+00     1.30764852e+00      8.46536660e-01      
H    -2.20272237e+00     1.59087426e+00      2.22436980e+00      
O    2.56506605e+00      -2.42622043e-02     1.07671650e+00      
H    2.88158046e+00      5.03244094e-01      1.81394350e+00      
H    3.23156345e+00      -7.03463001e-01     9.48621655e-01      
O    -9.17302634e-01     -2.24634798e+00     -1.29453543e+00     
H    -1.81764999e+00     -2.11164856e+00     -1.60471151e+00     
H    -8.07679530e-01     -3.19694984e+00     -1.20682243e+00     
20
1164.074202
N    1.72513036e-03      1.66454370e-02      -1.97514477e-02     
H    9.08007445e-01      -8.96641128e-02     4.78165293e-01      
H    -3.31285919e-01     -9.10124886e-01     -3.68178316e-01     
H    -7.27168570e-01     4.13391427e-01      6.12564838e-01      
C    2.04436539e-01      9.03769798e-01      -1.18261602e+00     
H    5.35740646e-01      1.88730561e+00      -8.56930304e-01     
H    9.68090344e-01      4.76029870e-01      -1.82781991e+00     
C    -1.10780798e+00     1.05408319e+00      -1.91492108e+00     
O    -2.14207246e+00     5.12737165e-01      -1.58705867e+00     
O    -9.51706994e-01     1.85253533e+00      -2.97247507e+00     
H    -1.81539072e+00     1.92026373e+00      -3.41820944e+00     
O    -1.97653949e+00     1.39099289e+00      1.31184472e+00      
H    -2.81411579e+00     1.30757270e+00      8.46381326e-01      
H    -2.20266002e+00     1.59088904e+00      2.22438071e+00      
O    2.56507787e+00      -2.43027748e-02     1.07668743e+00      
H    2.88137356e+00      5.03313803e-01      1.81392852e+00      
H    3.23172688e+00      -7.03383519e-01     9.48743552e-01      
O    -9.17286342e-01     -2.24631512e+00     -1.29455779e+00     
H    -1.81767531e+00     -2.11184503e+00     -1.60475131e+00     
H    -8.07743496e-01     -3.19695907e+00     -1.20682937e+00     
20
1164.074202
N    1.84590505e-03      1.62307745e-02      -2.00486149e-02     
H    9.07311704e-01      -8.72753801e-02     4.79877169e-01      
H    -3.32628522e-01     -9.11462629e-01     -3.63762842e-01     
H    -7.26634159e-01     4.17503978e-01      6.10137933e-01      
C    2.04236308e-01      9.04457263e-01      -1.18212335e+00     
H    5.40023163e-01      1.88479035e+00      -8.51982616e-01     
H    9.63886855e-01      4.78273811e-01      -1.83296202e+00     
C    -1.10753976e+00     1.05316232e+00      -1.91558103e+00     
O    -2.14211653e+00     5.12888472e-01      -1.58695024e+00     
O    -9.51736987e-01     1.85263830e+00      -2.97240127e+00     
H    -1.81542980e+00     1.92039794e+00      -3.41811328e+00     
O    -1.97656019e+00     1.39097516e+00      1.31187792e+00      
H    -2.81401116e+00     1.30749687e+00      8.46225991e-01      
H    -2.20259767e+00     1.59090381e+00      2.22439162e+00      
O    2.56508969e+00      -2.43433453e-02     1.07665835e+00      
H    2.88116667e+00      5.03383512e-01      1.81391354e+00      
H    3.23189032e+00      -7.03304037e-01     9.48865449e-01      
O    -9.17270050e-01     -2.24628226e+00     -1.29458015e+00     
H    -1.81770063e+00     -2.11204150e+00     -1.60479111e+00     
H    -8.07807462e-01     -3.19696830e+00     -1.20683630e+00     
20
1164.074202
N    2.32900383e-03      1.45721245e-02      -2.12372837e-02     
H    9.04528738e-01      -7.77204489e-02     4.86724671e-01      
H    -3.37998930e-01     -9.16813601e-01     -3.46100948e-01     
H    -7.24496517e-01     4.33954186e-01      6.00430315e-01      
C    2.03435382e-01      9.07207127e-01      -1.18015267e+00     
H    5.57153233e-01      1.87472929e+00      -8.32191860e-01     
H    9.47072895e-01      4.87249575e-01      -1.85353046e+00     
C    -1.10646690e+00     1.04947880e+00      -1.91822083e+00     
O    -2.14229281e+00     5.13493702e-01      -1.58651650e+00     
O    -9.51856959e-01     1.85305016e+00      -2.97210609e+00     
H    -1.81558610e+00     1.92093476e+00      -3.41772866e+00     
O    -1.97664299e+00     1.39090424e+00      1.31201074e+00      
H    -2.81359264e+00     1.30719359e+00      8.45604651e-01      
H    -2.20234827e+00     1.59096291e+00      2.22443526e+00      
O    2.56513695e+00      -2.45056275e-02     1.07654205e+00      
H    2.88033909e+00      5.03662348e-01      1.81385364e+00      
H    3.23254408e+00      -7.02986111e-01     9.49353039e-01      
O    -9.17204882e-01     -2.24615080e+00     -1.29466959e+00     
H    -1.81780193e+00     -2.11282738e+00     -1.60495033e+00     
H    -8.08063328e-01     -3.19700520e+00     -1.20686404e+00     
20
1164.074202
N    2.44977852e-03      1.41574620e-02      -2.15344509e-02     
H    9.03832997e-01      -7.53317162e-02     4.88436547e-01      
H    -3.39341533e-01     -9.18151344e-01     -3.41685474e-01     
H    -7.23962106e-01     4.38066737e-01      5.98003410e-01      
C    2.03235151e-01      9.07894592e-01      -1.17966000e+00     
H    5.61435750e-01      1.87221403e+00      -8.27244172e-01     
H    9.42869406e-01      4.89493516e-01      -1.85867257e+00     
C    -1.10619868e+00     1.04855793e+00      -1.91888078e+00     
O    -2.14233688e+00     5.13645009e-01      -1.58640807e+00     
O    -9.51886952e-01     1.85315313e+00      -2.97203229e+00     
H    -1.81562518e+00     1.92106897e+00      -3.41763250e+00     
O    -1.97666369e+00     1.39088651e+00      1.31204394e+00      
H    -2.81348801e+00     1.30711776e+00      8.45449316e-01      
H    -2.20228592e+00     1.59097768e+00      2.22444617e+00      
O    2.56514877e+00      -2.45461980e-02     1.07651297e+00      
H    2.88013220e+00      5.03732057e-01      1.81383866e+00      
H    3.23270752e+00      -7.02906629e-01     9.49474936e-01      
O    -9.17188590e-01     -2.24611794e+00     -1.29469195e+00     
H    -1.81782725e+00     -2.11302385e+00     -1.60499013e+00     
H    -8.08127294e-01     -3.19701443e+00     -1.20687097e+00     
20
1164.074202
N    2.57055321e-03      1.37427995e-02      -2.18316181e-02     
H    9.03137256e-01      -7.29429834e-02     4.90148423e-01      
H    -3.40684135e-01     -9.19489087e-01     -3.37270001e-01     
H    -7.23427696e-01     4.42179289e-01      5.95576506e-01      
C    2.03034919e-01      9.08582058e-01      -1.17916733e+00     
H    5.65718267e-01      1.86969877e+00      -8.22296483e-01     
H    9.38665916e-01      4.91737457e-01      -1.86381468e+00     
C    -1.10593047e+00     1.04763705e+00      -1.91954073e+00     
O    -2.14238094e+00     5.13796317e-01      -1.58629964e+00     
O    -9.51916945e-01     1.85325610e+00      -2.97195850e+00     
H    -1.81566426e+00     1.92120317e+00      -3.41753635e+00     
O    -1.97668439e+00     1.39086878e+00      1.31207715e+00      
H    -2.81338337e+00     1.30704194e+00      8.45293982e-01      
H    -2.20222357e+00     1.59099246e+00      2.22445708e+00      
O    2.56516059e+00      -2.45867685e-02     1.07648390e+00      
H    2.87992530e+00      5.03801766e-01      1.81382368e+00      
H    3.23287095e+00      -7.02827147e-01     9.49596833e-01      
O    -9.17172298e-01     -2.24608508e+00     -1.29471431e+00     
H    -1.81785257e+00     -2.11322032e+00     -1.60502993e+00     
H    -8.08191260e-01     -3.19702366e+00     -1.20687791e+00     
20
1164.074202
N    2.81210260e-03      1.29134745e-02      -2.24259526e-02     
H    9.01745773e-01      -6.81655178e-02     4.93572174e-01      
H    -3.43369339e-01     -9.22164574e-01     -3.28439054e-01     
H    -7.22358875e-01     4.50404393e-01      5.90722697e-01      
C    2.02634456e-01      9.09956990e-01      -1.17818199e+00     
H    5.74283302e-01      1.86466824e+00      -8.12401105e-01     
H    9.30258936e-01      4.96225338e-01      -1.87409889e+00     
C    -1.10539403e+00     1.04579529e+00      -1.92086063e+00     
O    -2.14246908e+00     5.14098932e-01      -1.58608277e+00     
O    -9.51976932e-01     1.85346203e+00      -2.97181090e+00     
H    -1.81574241e+00     1.92147159e+00      -3.41734404e+00     
O    -1.97672579e+00     1.39083331e+00      1.31214356e+00      
H    -2.81317411e+00     1.30689030e+00      8.44983312e-01      
H    -2.20209887e+00     1.59102201e+00      2.22447890e+00      
O    2.56518422e+00      -2.46679096e-02     1.07642575e+00      
H    2.87951151e+00      5.03941184e-01      1.81379373e+00      
H    3.23319783e+00      -7.02668184e-01     9.49840628e-01      
O    -9.17139714e-01     -2.24601935e+00     -1.29475903e+00     
H    -1.81790322e+00     -2.11361326e+00     -1.60510954e+00     
H    -8.08319193e-01     -3.19704211e+00     -1.20689177e+00     
20
1164.074202
N    3.05365198e-03      1.20841495e-02      -2.30202870e-02     
H    9.00354290e-01      -6.33880523e-02     4.96995925e-01      
H    -3.46054544e-01     -9.24840060e-01     -3.19608107e-01     
H    -7.21290054e-01     4.58629496e-01      5.85868888e-01      
C    2.02233994e-01      9.11331921e-01      -1.17719664e+00     
H    5.82848336e-01      1.85963771e+00      -8.02505728e-01     
H    9.21851957e-01      5.00713220e-01      -1.88438311e+00     
C    -1.10485760e+00     1.04395353e+00      -1.92218053e+00     
O    -2.14255722e+00     5.14401547e-01      -1.58586590e+00     
O    -9.52036918e-01     1.85366796e+00      -2.97166331e+00     
H    -1.81582056e+00     1.92174000e+00      -3.41715172e+00     
O    -1.97676719e+00     1.39079785e+00      1.31220996e+00      
H    -2.81296485e+00     1.30673865e+00      8.44672642e-01      
H    -2.20197416e+00     1.59105156e+00      2.22450072e+00      
O    2.56520785e+00      -2.47490506e-02     1.07636760e+00      
H    2.87909772e+00      5.04080602e-01      1.81376377e+00      
H    3.23352471e+00      -7.02509221e-01     9.50084422e-01      
O    -9.17107130e-01     -2.24595362e+00     -1.29480375e+00     
H    -1.81795387e+00     -2.11400620e+00     -1.60518914e+00     
H    -8.08447125e-01     -3.19706057e+00     -1.20690564e+00     
20
1164.074202
N    3.29520137e-03      1.12548245e-02      -2.36146214e-02     
H    8.98962808e-01      -5.86105867e-02     5.00419676e-01      
H    -3.48739748e-01     -9.27515546e-01     -3.10777160e-01     
H    -7.20221233e-01     4.66854600e-01      5.81015078e-01      
C    2.01833531e-01      9.12706853e-01      -1.17621130e+00     
H    5.91413371e-01      1.85460719e+00      -7.92610350e-01     
H    9.13444977e-01      5.05201102e-01      -1.89466733e+00     
C    -1.10432117e+00     1.04211178e+00      -1.92350043e+00     
O    -2.14264536e+00     5.14704162e-01      -1.58564904e+00     
O    -9.52096904e-01     1.85387390e+00      -2.97151572e+00     
H    -1.81589872e+00     1.92200841e+00      -3.41695941e+00     
O    -1.97680859e+00     1.39076239e+00      1.31227637e+00      
H    -2.81275558e+00     1.30658701e+00      8.44361972e-01      
H    -2.20184946e+00     1.59108111e+00      2.22452254e+00      
O    2.56523149e+00      -2.48301917e-02     1.07630945e+00      
H    2.87868394e+00      5.04220020e-01      1.81373382e+00      
H    3.23385159e+00      -7.02350258e-01     9.50328217e-01      
O    -9.17074546e-01     -2.24588790e+00     -1.29484847e+00     
H    -1.81800451e+00     -2.11439914e+00     -1.60526875e+00     
H    -8.08575058e-01     -3.19707902e+00     -1.20691951e+00     
20
1164.074202
N    3.53675075e-03      1.04254995e-02      -2.42089558e-02     
H    8.97571325e-01      -5.38331212e-02     5.03843428e-01      
H    -3.51424953e-01     -9.30191032e-01     -3.01946213e-01     
H    -7.19152412e-01     4.75079703e-01      5.76161269e-01      
C    2.01433068e-01      9.14081785e-01      -1.17522596e+00     
H    5.99978406e-01      1.84957666e+00      -7.82714972e-01     
H    9.05037998e-01      5.09688984e-01      -1.90495155e+00     
C    -1.10378474e+00     1.04027002e+00      -1.92482034e+00     
O    -2.14273349e+00     5.15006777e-01      -1.58543217e+00     
O    -9.52156890e-01     1.85407983e+00      -2.97136813e+00     
H    -1.81597687e+00     1.92227682e+00      -3.41676710e+00     
O    -1.97684998e+00     1.39072693e+00      1.31234278e+00      
H    -2.81254632e+00     1.30643536e+00      8.44051303e-01      
H    -2.20172476e+00     1.59111066e+00      2.22454437e+00      
O    2.56525512e+00      -2.49113328e-02     1.07625130e+00      
H    2.87827015e+00      5.04359437e-01      1.81370386e+00      
H    3.23417846e+00      -7.02191294e-01     9.50572012e-01      
O    -9.17041962e-01     -2.24582217e+00     -1.29489319e+00     
H    -1.81805516e+00     -2.11479208e+00     -1.60534836e+00     
H    -8.08702990e-01     -3.19709748e+00     -1.20693338e+00     
20
1164.074202
N    4.01984953e-03      8.76684953e-03      -2.53976246e-02     
H    8.94788360e-01      -4.42781901e-02     5.10690930e-01      
H    -3.56795362e-01     -9.35542004e-01     -2.84284319e-01     
H    -7.17014770e-01     4.91529910e-01      5.66453651e-01      
C    2.00632142e-01      9.16831648e-01      -1.17325528e+00     
H    6.17108475e-01      1.83951561e+00      -7.62924217e-01     
H    8.88224038e-01      5.18664748e-01      -1.92551999e+00     
C    -1.10271187e+00     1.03658651e+00      -1.92746014e+00     
O    -2.14290977e+00     5.15612006e-01      -1.58499844e+00     
O    -9.52276863e-01     1.85449170e+00      -2.97107294e+00     
H    -1.81613318e+00     1.92281364e+00      -3.41638248e+00     
O    -1.97693278e+00     1.39065601e+00      1.31247560e+00      
H    -2.81212780e+00     1.30613207e+00      8.43429963e-01      
H    -2.20147536e+00     1.59116976e+00      2.22458801e+00      
O    2.56530239e+00      -2.50736149e-02     1.07613500e+00      
H    2.87744257e+00      5.04638273e-01      1.81364395e+00      
H    3.23483222e+00      -7.01873368e-01     9.51059601e-01      
O    -9.16976794e-01     -2.24569072e+00     -1.29498263e+00     
H    -1.81815646e+00     -2.11557795e+00     -1.60550757e+00     
H    -8.08958855e-01     -3.19713439e+00     -1.20696111e+00     
