20
1082.134606
N    -3.18693393e-03     -1.48238787e-02     1.93892605e-02      
H    8.80289181e-01      -1.40857660e-01     5.54318046e-01      
H    -3.56128606e-01     -9.30329963e-01     -3.44061051e-01     
H    -7.47232558e-01     4.12463582e-01      6.18251931e-01      
C    2.06237792e-01      9.41071935e-01      -1.22933466e+00     
H    5.22858468e-01      1.93868201e+00      -9.27479650e-01     
H    9.31652469e-01      5.35152759e-01      -1.93331915e+00     
C    -1.10565371e+00     1.05229453e+00      -1.91771148e+00     
O    -2.13492575e+00     5.17626615e-01      -1.58996432e+00     
O    -9.50766664e-01     1.84593903e+00      -2.96219955e+00     
H    -1.81160178e+00     1.91775979e+00      -3.41227765e+00     
O    -1.97598343e+00     1.39076362e+00      1.31186944e+00      
H    -2.81290149e+00     1.30596070e+00      8.45401404e-01      
H    -2.20306473e+00     1.59115710e+00      2.22406563e+00      
O    2.56471740e+00      -2.41344008e-02     1.07603450e+00      
H    2.88060745e+00      5.03442187e-01      1.81352493e+00      
H    3.23196420e+00      -7.02856115e-01     9.49015536e-01      
O    -9.16768653e-01     -2.24587986e+00     -1.29433230e+00     
H    -1.81758524e+00     -2.11129763e+00     -1.60357772e+00     
H    -8.08473641e-01     -3.19694674e+00     -1.20732964e+00     
20
1082.134606
N    -1.86833684e-03     -7.26754666e-03     9.38120807e-03      
H    8.86696941e-01      -1.26267724e-01     5.36563765e-01      
H    -3.50924886e-01     -9.26282001e-01     -3.46778762e-01     
H    -7.41815753e-01     4.15779957e-01      6.15009980e-01      
C    2.05637305e-01      9.32262000e-01      -1.21728550e+00     
H    5.29290901e-01      1.92395146e+00      -9.06131547e-01     
H    9.37609321e-01      5.22054992e-01      -1.91080093e+00     
C    -1.10599111e+00     1.05205104e+00      -1.91750884e+00     
O    -2.13674548e+00     5.16517733e-01      -1.58915658e+00     
O    -9.51024241e-01     1.84766533e+00      -2.96471308e+00     
H    -1.81257832e+00     1.91848643e+00      -3.41368848e+00     
O    -1.97613797e+00     1.39080764e+00      1.31188817e+00      
H    -2.81312659e+00     1.30630683e+00      8.45529883e-01      
H    -2.20291679e+00     1.59110116e+00      2.22415258e+00      
O    2.56481638e+00      -2.42069222e-02     1.07617592e+00      
H    2.88064381e+00      5.03462373e-01      1.81361459e+00      
H    3.23202745e+00      -7.02928355e-01     9.49038963e-01      
O    -9.16885856e-01     -2.24596403e+00     -1.29440544e+00     
H    -1.81762675e+00     -2.11158184e+00     -1.60390097e+00     
H    -8.08339079e-01     -3.19695674e+00     -1.20720977e+00     
20
1082.134606
N    -1.20903829e-03     -3.48938063e-03     4.37718184e-03      
H    8.89900821e-01      -1.18972756e-01     5.27686624e-01      
H    -3.48323026e-01     -9.24258020e-01     -3.48137618e-01     
H    -7.39107350e-01     4.17438145e-01      6.13389004e-01      
C    2.05337062e-01      9.27857033e-01      -1.21126092e+00     
H    5.32507117e-01      1.91658619e+00      -8.95457495e-01     
H    9.40587746e-01      5.15506109e-01      -1.89954181e+00     
C    -1.10615982e+00     1.05192929e+00      -1.91740752e+00     
O    -2.13765534e+00     5.15963292e-01      -1.58875271e+00     
O    -9.51153030e-01     1.84852848e+00      -2.96596985e+00     
H    -1.81306659e+00     1.91884975e+00      -3.41439390e+00     
O    -1.97621524e+00     1.39082965e+00      1.31189753e+00      
H    -2.81323914e+00     1.30647990e+00      8.45594123e-01      
H    -2.20284282e+00     1.59107320e+00      2.22419606e+00      
O    2.56486587e+00      -2.42431829e-02     1.07624663e+00      
H    2.88066199e+00      5.03472466e-01      1.81365943e+00      
H    3.23205908e+00      -7.02964475e-01     9.49050676e-01      
O    -9.16944458e-01     -2.24600611e+00     -1.29444201e+00     
H    -1.81764751e+00     -2.11172394e+00     -1.60406259e+00     
H    -8.08271799e-01     -3.19696174e+00     -1.20714984e+00     
20
1082.134606
N    -5.49739746e-04     2.88785396e-04      -6.26844384e-04     
H    8.93104701e-01      -1.11677787e-01     5.18809483e-01      
H    -3.45721166e-01     -9.22234039e-01     -3.49496473e-01     
H    -7.36398948e-01     4.19096332e-01      6.11768028e-01      
C    2.05036819e-01      9.23452065e-01      -1.20523634e+00     
H    5.35723333e-01      1.90922091e+00      -8.84783444e-01     
H    9.43566172e-01      5.08957226e-01      -1.88828270e+00     
C    -1.10632852e+00     1.05180755e+00      -1.91730620e+00     
O    -2.13856521e+00     5.15408851e-01      -1.58834884e+00     
O    -9.51281819e-01     1.84939163e+00      -2.96722661e+00     
H    -1.81355486e+00     1.91921307e+00      -3.41509931e+00     
O    -1.97629251e+00     1.39085166e+00      1.31190689e+00      
H    -2.81335169e+00     1.30665296e+00      8.45658363e-01      
H    -2.20276885e+00     1.59104523e+00      2.22423953e+00      
O    2.56491536e+00      -2.42794436e-02     1.07631735e+00      
H    2.88068017e+00      5.03482559e-01      1.81370426e+00      
H    3.23209070e+00      -7.03000595e-01     9.49062390e-01      
O    -9.17003059e-01     -2.24604820e+00     -1.29447859e+00     
H    -1.81766826e+00     -2.11186604e+00     -1.60422422e+00     
H    -8.08204518e-01     -3.19696674e+00     -1.20708991e+00     
20
1082.134606
N    1.09558800e-04      4.06695142e-03      -5.63087061e-03     
H    8.96308581e-01      -1.04382819e-01     5.09932342e-01      
H    -3.43119306e-01     -9.20210058e-01     -3.50855329e-01     
H    -7.33690545e-01     4.20754520e-01      6.10147052e-01      
C    2.04736575e-01      9.19047098e-01      -1.19921175e+00     
H    5.38939549e-01      1.90185564e+00      -8.74109392e-01     
H    9.46544598e-01      5.02408343e-01      -1.87702358e+00     
C    -1.10649722e+00     1.05168580e+00      -1.91720489e+00     
O    -2.13947507e+00     5.14854410e-01      -1.58794497e+00     
O    -9.51410607e-01     1.85025478e+00      -2.96848338e+00     
H    -1.81404314e+00     1.91957639e+00      -3.41580473e+00     
O    -1.97636978e+00     1.39087367e+00      1.31191625e+00      
H    -2.81346425e+00     1.30682603e+00      8.45722602e-01      
H    -2.20269488e+00     1.59101726e+00      2.22428301e+00      
O    2.56496485e+00      -2.43157043e-02     1.07638806e+00      
H    2.88069834e+00      5.03492651e-01      1.81374909e+00      
H    3.23212233e+00      -7.03036714e-01     9.49074103e-01      
O    -9.17061661e-01     -2.24609028e+00     -1.29451516e+00     
H    -1.81768902e+00     -2.11200814e+00     -1.60438584e+00     
H    -8.08137237e-01     -3.19697175e+00     -1.20702997e+00     
20
1082.134606
N    7.68857347e-04      7.84511745e-03      -1.06348968e-02     
H    8.99512461e-01      -9.70878509e-02     5.01055202e-01      
H    -3.40517446e-01     -9.18186077e-01     -3.52214184e-01     
H    -7.30982143e-01     4.22412707e-01      6.08526076e-01      
C    2.04436332e-01      9.14642130e-01      -1.19318717e+00     
H    5.42155766e-01      1.89449037e+00      -8.63435341e-01     
H    9.49523024e-01      4.95859459e-01      -1.86576447e+00     
C    -1.10666592e+00     1.05156405e+00      -1.91710357e+00     
O    -2.14038494e+00     5.14299969e-01      -1.58754111e+00     
O    -9.51539396e-01     1.85111793e+00      -2.96974015e+00     
H    -1.81453141e+00     1.91993971e+00      -3.41651014e+00     
O    -1.97644705e+00     1.39089568e+00      1.31192561e+00      
H    -2.81357680e+00     1.30699910e+00      8.45786842e-01      
H    -2.20262091e+00     1.59098929e+00      2.22432649e+00      
O    2.56501434e+00      -2.43519650e-02     1.07645877e+00      
H    2.88071652e+00      5.03502744e-01      1.81379392e+00      
H    3.23215395e+00      -7.03072834e-01     9.49085817e-01      
O    -9.17120263e-01     -2.24613236e+00     -1.29455173e+00     
H    -1.81770977e+00     -2.11215024e+00     -1.60454747e+00     
H    -8.08069956e-01     -3.19697675e+00     -1.20697004e+00     
20
1082.134606
N    1.09850662e-03      9.73420046e-03      -1.31369100e-02     
H    9.01114401e-01      -9.34403668e-02     4.96616631e-01      
H    -3.39216516e-01     -9.17174086e-01     -3.52893612e-01     
H    -7.29627942e-01     4.23241801e-01      6.07715588e-01      
C    2.04286210e-01      9.12439646e-01      -1.19017488e+00     
H    5.43763874e-01      1.89080773e+00      -8.58098315e-01     
H    9.51012236e-01      4.92585018e-01      -1.86013491e+00     
C    -1.10675028e+00     1.05150318e+00      -1.91705291e+00     
O    -2.14083987e+00     5.14022749e-01      -1.58733917e+00     
O    -9.51603790e-01     1.85154950e+00      -2.97036853e+00     
H    -1.81477554e+00     1.92012137e+00      -3.41686285e+00     
O    -1.97648569e+00     1.39090669e+00      1.31193029e+00      
H    -2.81363307e+00     1.30708563e+00      8.45818962e-01      
H    -2.20258393e+00     1.59097531e+00      2.22434823e+00      
O    2.56503909e+00      -2.43700953e-02     1.07649413e+00      
H    2.88072561e+00      5.03507791e-01      1.81381634e+00      
H    3.23216976e+00      -7.03090894e-01     9.49091674e-01      
O    -9.17149563e-01     -2.24615340e+00     -1.29457001e+00     
H    -1.81772015e+00     -2.11222129e+00     -1.60462828e+00     
H    -8.08036316e-01     -3.19697925e+00     -1.20694007e+00     
20
1082.134606
N    1.42815589e-03      1.16232835e-02      -1.56389231e-02     
H    9.02716341e-01      -8.97928827e-02     4.92178061e-01      
H    -3.37915586e-01     -9.16162096e-01     -3.53573040e-01     
H    -7.28273740e-01     4.24070895e-01      6.06905100e-01      
C    2.04136088e-01      9.10237163e-01      -1.18716259e+00     
H    5.45371982e-01      1.88712509e+00      -8.52761289e-01     
H    9.52501449e-01      4.89310576e-01      -1.85450535e+00     
C    -1.10683463e+00     1.05144231e+00      -1.91700225e+00     
O    -2.14129480e+00     5.13745528e-01      -1.58713724e+00     
O    -9.51668184e-01     1.85198108e+00      -2.97099691e+00     
H    -1.81501968e+00     1.92030303e+00      -3.41721556e+00     
O    -1.97652432e+00     1.39091769e+00      1.31193497e+00      
H    -2.81368935e+00     1.30717216e+00      8.45851081e-01      
H    -2.20254694e+00     1.59096133e+00      2.22436996e+00      
O    2.56506383e+00      -2.43882257e-02     1.07652949e+00      
H    2.88073470e+00      5.03512837e-01      1.81383876e+00      
H    3.23218558e+00      -7.03108954e-01     9.49097530e-01      
O    -9.17178864e-01     -2.24617445e+00     -1.29458830e+00     
H    -1.81773053e+00     -2.11229234e+00     -1.60470909e+00     
H    -8.08002676e-01     -3.19698175e+00     -1.20691010e+00     
20
1082.134606
N    2.74675299e-03      1.91796155e-02      -2.56469755e-02     
H    9.09124101e-01      -7.52029463e-02     4.74423779e-01      
H    -3.32711866e-01     -9.12114134e-01     -3.56290750e-01     
H    -7.22856936e-01     4.27387269e-01      6.03663148e-01      
C    2.03535602e-01      9.01427227e-01      -1.17511343e+00     
H    5.51804414e-01      1.87239455e+00      -8.31413187e-01     
H    9.58458301e-01      4.76212810e-01      -1.83198713e+00     
C    -1.10717203e+00     1.05119881e+00      -1.91679961e+00     
O    -2.14311454e+00     5.12636646e-01      -1.58632950e+00     
O    -9.51925762e-01     1.85370738e+00      -2.97351045e+00     
H    -1.81599622e+00     1.92102967e+00      -3.41862638e+00     
O    -1.97667886e+00     1.39096171e+00      1.31195369e+00      
H    -2.81391445e+00     1.30751830e+00      8.45979561e-01      
H    -2.20239900e+00     1.59090539e+00      2.22445692e+00      
O    2.56516281e+00      -2.44607471e-02     1.07667091e+00      
H    2.88077106e+00      5.03533023e-01      1.81392842e+00      
H    3.23224882e+00      -7.03181194e-01     9.49120958e-01      
O    -9.17296068e-01     -2.24625861e+00     -1.29466144e+00     
H    -1.81777203e+00     -2.11257654e+00     -1.60503235e+00     
H    -8.07868114e-01     -3.19699175e+00     -1.20679024e+00     
20
1082.134606
N    3.07640226e-03      2.10686985e-02      -2.81489886e-02     
H    9.10726041e-01      -7.15554622e-02     4.69985209e-01      
H    -3.31410936e-01     -9.11102144e-01     -3.56970178e-01     
H    -7.21502734e-01     4.28216363e-01      6.02852660e-01      
C    2.03385480e-01      8.99224744e-01      -1.17210114e+00     
H    5.53412522e-01      1.86871191e+00      -8.26076161e-01     
H    9.59947514e-01      4.72938368e-01      -1.82635757e+00     
C    -1.10725638e+00     1.05113794e+00      -1.91674895e+00     
O    -2.14356947e+00     5.12359425e-01      -1.58612757e+00     
O    -9.51990156e-01     1.85413896e+00      -2.97413883e+00     
H    -1.81624036e+00     1.92121133e+00      -3.41897909e+00     
O    -1.97671749e+00     1.39097271e+00      1.31195837e+00      
H    -2.81397073e+00     1.30760483e+00      8.46011680e-01      
H    -2.20236201e+00     1.59089141e+00      2.22447865e+00      
O    2.56518755e+00      -2.44788775e-02     1.07670627e+00      
H    2.88078015e+00      5.03538069e-01      1.81395084e+00      
H    3.23226464e+00      -7.03199254e-01     9.49126814e-01      
O    -9.17325369e-01     -2.24627966e+00     -1.29467973e+00     
H    -1.81778241e+00     -2.11264759e+00     -1.60511316e+00     
H    -8.07834474e-01     -3.19699425e+00     -1.20676027e+00     
20
1082.134606
N    3.40605153e-03      2.29577816e-02      -3.06510018e-02     
H    9.12327981e-01      -6.79079781e-02     4.65546638e-01      
H    -3.30110006e-01     -9.10090153e-01     -3.57649606e-01     
H    -7.20148533e-01     4.29045457e-01      6.02042172e-01      
C    2.03235358e-01      8.97022260e-01      -1.16908885e+00     
H    5.55020630e-01      1.86502927e+00      -8.20739135e-01     
H    9.61436726e-01      4.69663927e-01      -1.82072801e+00     
C    -1.10734074e+00     1.05107707e+00      -1.91669829e+00     
O    -2.14402440e+00     5.12082205e-01      -1.58592563e+00     
O    -9.52054550e-01     1.85457053e+00      -2.97476721e+00     
H    -1.81648449e+00     1.92139299e+00      -3.41933180e+00     
O    -1.97675613e+00     1.39098372e+00      1.31196305e+00      
H    -2.81402700e+00     1.30769136e+00      8.46043800e-01      
H    -2.20232503e+00     1.59087743e+00      2.22450039e+00      
O    2.56521230e+00      -2.44970078e-02     1.07674163e+00      
H    2.88078924e+00      5.03543116e-01      1.81397326e+00      
H    3.23228045e+00      -7.03217314e-01     9.49132671e-01      
O    -9.17354669e-01     -2.24630070e+00     -1.29469801e+00     
H    -1.81779279e+00     -2.11271864e+00     -1.60519397e+00     
H    -8.07800834e-01     -3.19699675e+00     -1.20673030e+00     
20
1082.134606
N    4.06535008e-03      2.67359476e-02      -3.56550280e-02     
H    9.15531861e-01      -6.06130098e-02     4.56669498e-01      
H    -3.27508146e-01     -9.08066172e-01     -3.59008461e-01     
H    -7.17440131e-01     4.30703644e-01      6.00421196e-01      
C    2.02935115e-01      8.92617292e-01      -1.16306427e+00     
H    5.58236847e-01      1.85766400e+00      -8.10065084e-01     
H    9.64415152e-01      4.63115043e-01      -1.80946890e+00     
C    -1.10750944e+00     1.05095532e+00      -1.91659697e+00     
O    -2.14493427e+00     5.11527764e-01      -1.58552177e+00     
O    -9.52183339e-01     1.85543368e+00      -2.97602398e+00     
H    -1.81697276e+00     1.92175631e+00      -3.42003721e+00     
O    -1.97683340e+00     1.39100573e+00      1.31197241e+00      
H    -2.81413955e+00     1.30786443e+00      8.46108040e-01      
H    -2.20225106e+00     1.59084946e+00      2.22454387e+00      
O    2.56526179e+00      -2.45332685e-02     1.07681234e+00      
H    2.88080742e+00      5.03553209e-01      1.81401809e+00      
H    3.23231207e+00      -7.03253434e-01     9.49144385e-01      
O    -9.17413271e-01     -2.24634278e+00     -1.29473458e+00     
H    -1.81781354e+00     -2.11286074e+00     -1.60535560e+00     
H    -8.07733553e-01     -3.19700175e+00     -1.20667037e+00     
20
1082.134606
N    4.72464863e-03      3.05141136e-02      -4.06590542e-02     
H    9.18735741e-01      -5.33180416e-02     4.47792357e-01      
H    -3.24906286e-01     -9.06042191e-01     -3.60367317e-01     
H    -7.14731728e-01     4.32361832e-01      5.98800220e-01      
C    2.02634871e-01      8.88212325e-01      -1.15703968e+00     
H    5.61453063e-01      1.85029873e+00      -7.99391032e-01     
H    9.67393578e-01      4.56566160e-01      -1.79820978e+00     
C    -1.10767814e+00     1.05083357e+00      -1.91649566e+00     
O    -2.14584413e+00     5.10973323e-01      -1.58511790e+00     
O    -9.52312127e-01     1.85629683e+00      -2.97728075e+00     
H    -1.81746104e+00     1.92211963e+00      -3.42074263e+00     
O    -1.97691067e+00     1.39102774e+00      1.31198177e+00      
H    -2.81425211e+00     1.30803750e+00      8.46172279e-01      
H    -2.20217709e+00     1.59082149e+00      2.22458735e+00      
O    2.56531128e+00      -2.45695292e-02     1.07688305e+00      
H    2.88082559e+00      5.03563301e-01      1.81406292e+00      
H    3.23234370e+00      -7.03289553e-01     9.49156098e-01      
O    -9.17471873e-01     -2.24638486e+00     -1.29477115e+00     
H    -1.81783430e+00     -2.11300284e+00     -1.60551722e+00     
H    -8.07666272e-01     -3.19700676e+00     -1.20661043e+00     
20
1082.134606
N    5.38394717e-03      3.42922796e-02      -4.56630804e-02     
H    9.21939621e-01      -4.60230734e-02     4.38915216e-01      
H    -3.22304426e-01     -9.04018210e-01     -3.61726172e-01     
H    -7.12023326e-01     4.34020019e-01      5.97179244e-01      
C    2.02334628e-01      8.83807357e-01      -1.15101510e+00     
H    5.64669279e-01      1.84293345e+00      -7.88716981e-01     
H    9.70372004e-01      4.50017277e-01      -1.78695067e+00     
C    -1.10784684e+00     1.05071183e+00      -1.91639434e+00     
O    -2.14675400e+00     5.10418882e-01      -1.58471403e+00     
O    -9.52440916e-01     1.85715998e+00      -2.97853751e+00     
H    -1.81794931e+00     1.92248295e+00      -3.42144804e+00     
O    -1.97698794e+00     1.39104975e+00      1.31199113e+00      
H    -2.81436466e+00     1.30821056e+00      8.46236519e-01      
H    -2.20210312e+00     1.59079352e+00      2.22463082e+00      
O    2.56536077e+00      -2.46057899e-02     1.07695377e+00      
H    2.88084377e+00      5.03573394e-01      1.81410775e+00      
H    3.23237532e+00      -7.03325673e-01     9.49167812e-01      
O    -9.17530474e-01     -2.24642695e+00     -1.29480773e+00     
H    -1.81785505e+00     -2.11314494e+00     -1.60567885e+00     
H    -8.07598991e-01     -3.19701176e+00     -1.20655050e+00     
20
1082.134606
N    6.04324572e-03      3.80704457e-02      -5.06671067e-02     
H    9.25143501e-01      -3.87281052e-02     4.30038075e-01      
H    -3.19702566e-01     -9.01994229e-01     -3.63085028e-01     
H    -7.09314923e-01     4.35678207e-01      5.95558268e-01      
C    2.02034385e-01      8.79402390e-01      -1.14499052e+00     
H    5.67885495e-01      1.83556818e+00      -7.78042929e-01     
H    9.73350429e-01      4.43468394e-01      -1.77569155e+00     
C    -1.10801555e+00     1.05059008e+00      -1.91629302e+00     
O    -2.14766386e+00     5.09864441e-01      -1.58431016e+00     
O    -9.52569705e-01     1.85802313e+00      -2.97979428e+00     
H    -1.81843758e+00     1.92284627e+00      -3.42215346e+00     
O    -1.97706521e+00     1.39107176e+00      1.31200049e+00      
H    -2.81447721e+00     1.30838363e+00      8.46300759e-01      
H    -2.20202915e+00     1.59076556e+00      2.22467430e+00      
O    2.56541026e+00      -2.46420506e-02     1.07702448e+00      
H    2.88086195e+00      5.03583487e-01      1.81415259e+00      
H    3.23240695e+00      -7.03361793e-01     9.49179525e-01      
O    -9.17589076e-01     -2.24646903e+00     -1.29484430e+00     
H    -1.81787581e+00     -2.11328704e+00     -1.60584047e+00     
H    -8.07531711e-01     -3.19701676e+00     -1.20649057e+00     
20
1082.134606
N    7.36184281e-03      4.56267777e-02      -6.06751591e-02     
H    9.31551261e-01      -2.41381687e-02     4.12283794e-01      
H    -3.14498846e-01     -8.97946267e-01     -3.65802739e-01     
H    -7.03898118e-01     4.38994582e-01      5.92316317e-01      
C    2.01433898e-01      8.70592455e-01      -1.13294136e+00     
H    5.74317928e-01      1.82083763e+00      -7.56694826e-01     
H    9.79307281e-01      4.30370627e-01      -1.75317333e+00     
C    -1.10835295e+00     1.05034659e+00      -1.91609038e+00     
O    -2.14948359e+00     5.08755559e-01      -1.58350242e+00     
O    -9.52827282e-01     1.85974943e+00      -2.98230781e+00     
H    -1.81941412e+00     1.92357291e+00      -3.42356429e+00     
O    -1.97721975e+00     1.39111578e+00      1.31201922e+00      
H    -2.81470231e+00     1.30872976e+00      8.46429238e-01      
H    -2.20188121e+00     1.59070962e+00      2.22476125e+00      
O    2.56550924e+00      -2.47145720e-02     1.07716590e+00      
H    2.88089831e+00      5.03603673e-01      1.81424225e+00      
H    3.23247020e+00      -7.03434033e-01     9.49202952e-01      
O    -9.17706279e-01     -2.24655320e+00     -1.29491744e+00     
H    -1.81791732e+00     -2.11357125e+00     -1.60616372e+00     
H    -8.07397149e-01     -3.19702676e+00     -1.20637070e+00     
