20
1205.067608
N    2.03257583e-02      2.20101968e-02      -2.24522238e-02     
H    8.67498748e-01      -1.50758820e-01     5.62935452e-01      
H    -3.76168904e-01     -8.72077373e-01     -4.03818790e-01     
H    -7.59523422e-01     4.44109551e-01      5.39426783e-01      
C    1.93755295e-01      8.92409269e-01      -1.16650488e+00     
H    5.19164633e-01      1.88393568e+00      -8.61940716e-01     
H    9.25516252e-01      4.88792097e-01      -1.86177052e+00     
C    -1.10875710e+00     1.05628638e+00      -1.92454291e+00     
O    -2.13045271e+00     5.19701074e-01      -1.59104104e+00     
O    -9.63471133e-01     1.84274105e+00      -2.96290050e+00     
H    -1.77276102e+00     1.98651250e+00      -3.49242833e+00     
O    -1.97613014e+00     1.39096714e+00      1.31290974e+00      
H    -2.81125076e+00     1.30414983e+00      8.43866149e-01      
H    -2.20668709e+00     1.59424380e+00      2.22332949e+00      
O    2.56503872e+00      -2.40940193e-02     1.07610874e+00      
H    2.88242894e+00      5.03189033e-01      1.81337301e+00      
H    3.23346038e+00      -7.01992488e-01     9.49663969e-01      
O    -9.16553919e-01     -2.24691729e+00     -1.29418133e+00     
H    -1.81717064e+00     -2.10886442e+00     -1.60207147e+00     
H    -8.10778836e-01     -3.19838226e+00     -1.21130664e+00     
20
1205.067608
N    1.57661824e-02      2.03580100e-02      -2.19999052e-02     
H    8.77104116e-01      -1.33693594e-01     5.43026819e-01      
H    -3.65955109e-01     -8.82592559e-01     -3.91597066e-01     
H    -7.51033901e-01     4.39514434e-01      5.55891119e-01      
C    1.96275432e-01      8.95765001e-01      -1.17016316e+00     
H    5.26520524e-01      1.88289171e+00      -8.56977347e-01     
H    9.33007157e-01      4.87284496e-01      -1.85713945e+00     
C    -1.10831866e+00     1.05504493e+00      -1.92263241e+00     
O    -2.13339070e+00     5.18073577e-01      -1.58996412e+00     
O    -9.60552593e-01     1.84526684e+00      -2.96523879e+00     
H    -1.78344776e+00     1.97005096e+00      -3.47380149e+00     
O    -1.97624800e+00     1.39096028e+00      1.31266838e+00      
H    -2.81188855e+00     1.30494868e+00      8.44378442e-01      
H    -2.20563356e+00     1.59341619e+00      2.22360048e+00      
O    2.56505737e+00      -2.41766361e-02     1.07623161e+00      
H    2.88200992e+00      5.03272507e-01      1.81350066e+00      
H    3.23314959e+00      -7.02280634e-01     9.49525288e-01      
O    -9.16724806e-01     -2.24674210e+00     -1.29429221e+00     
H    -1.81731580e+00     -2.10975692e+00     -1.60277128e+00     
H    -8.10067976e-01     -3.19803338e+00     -1.21019252e+00     
20
1205.067608
N    1.34863944e-02      1.95319166e-02      -2.17737459e-02     
H    8.81906800e-01      -1.25160981e-01     5.33072503e-01      
H    -3.60848212e-01     -8.87850151e-01     -3.85486204e-01     
H    -7.46789140e-01     4.37216875e-01      5.64123286e-01      
C    1.97535501e-01      8.97442866e-01      -1.17199230e+00     
H    5.30198470e-01      1.88236973e+00      -8.54495662e-01     
H    9.36752610e-01      4.86530695e-01      -1.85482392e+00     
C    -1.10809944e+00     1.05442420e+00      -1.92167717e+00     
O    -2.13485970e+00     5.17259829e-01      -1.58942566e+00     
O    -9.59093323e-01     1.84652974e+00      -2.96640794e+00     
H    -1.78879112e+00     1.96182019e+00      -3.46448807e+00     
O    -1.97630693e+00     1.39095685e+00      1.31254771e+00      
H    -2.81220744e+00     1.30534811e+00      8.44634589e-01      
H    -2.20510679e+00     1.59300238e+00      2.22373597e+00      
O    2.56506670e+00      -2.42179445e-02     1.07629304e+00      
H    2.88180041e+00      5.03314244e-01      1.81356448e+00      
H    3.23299419e+00      -7.02424708e-01     9.49455947e-01      
O    -9.16810249e-01     -2.24665450e+00     -1.29434766e+00     
H    -1.81738838e+00     -2.11020317e+00     -1.60312119e+00     
H    -8.09712545e-01     -3.19785894e+00     -1.20963546e+00     
20
1205.067608
N    1.12066064e-02      1.87058232e-02      -2.15475865e-02     
H    8.86709484e-01      -1.16628367e-01     5.23118186e-01      
H    -3.55741315e-01     -8.93107744e-01     -3.79375343e-01     
H    -7.42544380e-01     4.34919317e-01      5.72355454e-01      
C    1.98795570e-01      8.99120732e-01      -1.17382144e+00     
H    5.33876415e-01      1.88184775e+00      -8.52013977e-01     
H    9.40498063e-01      4.85776895e-01      -1.85250838e+00     
C    -1.10788022e+00     1.05380347e+00      -1.92072192e+00     
O    -2.13632869e+00     5.16446081e-01      -1.58888721e+00     
O    -9.57634053e-01     1.84779264e+00      -2.96757709e+00     
H    -1.79413449e+00     1.95358942e+00      -3.45517465e+00     
O    -1.97636586e+00     1.39095342e+00      1.31242703e+00      
H    -2.81252633e+00     1.30574753e+00      8.44890735e-01      
H    -2.20458003e+00     1.59258858e+00      2.22387147e+00      
O    2.56507602e+00      -2.42592529e-02     1.07635447e+00      
H    2.88159091e+00      5.03355981e-01      1.81362830e+00      
H    3.23283879e+00      -7.02568781e-01     9.49386607e-01      
O    -9.16895693e-01     -2.24656691e+00     -1.29440310e+00     
H    -1.81746096e+00     -2.11064943e+00     -1.60347109e+00     
H    -8.09357115e-01     -3.19768450e+00     -1.20907840e+00     
20
1205.067608
N    8.92681840e-03      1.78797298e-02      -2.13214272e-02     
H    8.91512169e-01      -1.08095754e-01     5.13163870e-01      
H    -3.50634418e-01     -8.98365337e-01     -3.73264481e-01     
H    -7.38299619e-01     4.32621758e-01      5.80587621e-01      
C    2.00055639e-01      9.00798598e-01      -1.17565059e+00     
H    5.37554361e-01      1.88132577e+00      -8.49532292e-01     
H    9.44243516e-01      4.85023094e-01      -1.85019285e+00     
C    -1.10766100e+00     1.05318274e+00      -1.91976667e+00     
O    -2.13779769e+00     5.15632332e-01      -1.58834875e+00     
O    -9.56174783e-01     1.84905554e+00      -2.96874624e+00     
H    -1.79947785e+00     1.94535866e+00      -3.44586123e+00     
O    -1.97642480e+00     1.39094999e+00      1.31230636e+00      
H    -2.81284522e+00     1.30614696e+00      8.45146882e-01      
H    -2.20405326e+00     1.59217477e+00      2.22400696e+00      
O    2.56508535e+00      -2.43005612e-02     1.07641590e+00      
H    2.88138140e+00      5.03397719e-01      1.81369212e+00      
H    3.23268339e+00      -7.02712854e-01     9.49317266e-01      
O    -9.16981136e-01     -2.24647931e+00     -1.29445854e+00     
H    -1.81753354e+00     -2.11109568e+00     -1.60382100e+00     
H    -8.09001685e-01     -3.19751007e+00     -1.20852134e+00     
20
1205.067608
N    6.64703041e-03      1.70536363e-02      -2.10952679e-02     
H    8.96314853e-01      -9.95631410e-02     5.03209553e-01      
H    -3.45527520e-01     -9.03622930e-01     -3.67153619e-01     
H    -7.34054859e-01     4.30324199e-01      5.88819789e-01      
C    2.01315707e-01      9.02476464e-01      -1.17747973e+00     
H    5.41232307e-01      1.88080378e+00      -8.47050608e-01     
H    9.47988969e-01      4.84269294e-01      -1.84787731e+00     
C    -1.10744177e+00     1.05256202e+00      -1.91881142e+00     
O    -2.13926668e+00     5.14818584e-01      -1.58781029e+00     
O    -9.54715513e-01     1.85031843e+00      -2.96991538e+00     
H    -1.80482122e+00     1.93712789e+00      -3.43654781e+00     
O    -1.97648373e+00     1.39094656e+00      1.31218568e+00      
H    -2.81316412e+00     1.30654638e+00      8.45403028e-01      
H    -2.20352650e+00     1.59176097e+00      2.22414245e+00      
O    2.56509467e+00      -2.43418696e-02     1.07647734e+00      
H    2.88117189e+00      5.03439456e-01      1.81375595e+00      
H    3.23252800e+00      -7.02856927e-01     9.49247925e-01      
O    -9.17066579e-01     -2.24639172e+00     -1.29451398e+00     
H    -1.81760612e+00     -2.11154193e+00     -1.60417091e+00     
H    -8.08646255e-01     -3.19733563e+00     -1.20796429e+00     
20
1205.067608
N    5.50713642e-03      1.66405896e-02      -2.09821883e-02     
H    8.98716195e-01      -9.52968344e-02     4.98232395e-01      
H    -3.42974072e-01     -9.06251726e-01     -3.64098188e-01     
H    -7.31932479e-01     4.29175420e-01      5.92935873e-01      
C    2.01945742e-01      9.03315396e-01      -1.17839430e+00     
H    5.43071280e-01      1.88054279e+00      -8.45809765e-01     
H    9.49861696e-01      4.83892394e-01      -1.84671954e+00     
C    -1.10733216e+00     1.05225165e+00      -1.91833380e+00     
O    -2.14000118e+00     5.14411710e-01      -1.58754106e+00     
O    -9.53985878e-01     1.85094988e+00      -2.97049996e+00     
H    -1.80749290e+00     1.93301250e+00      -3.43189110e+00     
O    -1.97651319e+00     1.39094485e+00      1.31212534e+00      
H    -2.81332356e+00     1.30674609e+00      8.45531101e-01      
H    -2.20326312e+00     1.59155407e+00      2.22421020e+00      
O    2.56509933e+00      -2.43625238e-02     1.07650805e+00      
H    2.88106714e+00      5.03460324e-01      1.81378786e+00      
H    3.23245030e+00      -7.02928964e-01     9.49213255e-01      
O    -9.17109301e-01     -2.24634792e+00     -1.29454171e+00     
H    -1.81764241e+00     -2.11176506e+00     -1.60434586e+00     
H    -8.08468540e-01     -3.19724841e+00     -1.20768576e+00     
20
1205.067608
N    4.36724243e-03      1.62275429e-02      -2.08691086e-02     
H    9.01117537e-01      -9.10305277e-02     4.93255237e-01      
H    -3.40420623e-01     -9.08880522e-01     -3.61042757e-01     
H    -7.29810098e-01     4.28026641e-01      5.97051956e-01      
C    2.02575776e-01      9.04154329e-01      -1.17930887e+00     
H    5.44910252e-01      1.88028180e+00      -8.44568923e-01     
H    9.51734422e-01      4.83515493e-01      -1.84556178e+00     
C    -1.10722255e+00     1.05194129e+00      -1.91785618e+00     
O    -2.14073568e+00     5.14004835e-01      -1.58727183e+00     
O    -9.53256243e-01     1.85158133e+00      -2.97108453e+00     
H    -1.81016458e+00     1.92889712e+00      -3.42723439e+00     
O    -1.97654266e+00     1.39094313e+00      1.31206501e+00      
H    -2.81348301e+00     1.30694581e+00      8.45659175e-01      
H    -2.20299973e+00     1.59134716e+00      2.22427795e+00      
O    2.56510400e+00      -2.43831780e-02     1.07653877e+00      
H    2.88096239e+00      5.03481193e-01      1.81381977e+00      
H    3.23237260e+00      -7.03001001e-01     9.49178585e-01      
O    -9.17152023e-01     -2.24630412e+00     -1.29456943e+00     
H    -1.81767870e+00     -2.11198819e+00     -1.60452081e+00     
H    -8.08290825e-01     -3.19716119e+00     -1.20740723e+00     
20
1205.067608
N    -1.92333545e-04     1.45753561e-02      -2.04167900e-02     
H    9.10722905e-01      -7.39653013e-02     4.73346603e-01      
H    -3.30206829e-01     -9.19395708e-01     -3.48821033e-01     
H    -7.21320578e-01     4.23431523e-01      6.13516292e-01      
C    2.05095914e-01      9.07510061e-01      -1.18296715e+00     
H    5.52266144e-01      1.87923784e+00      -8.39605553e-01     
H    9.59225328e-01      4.82007893e-01      -1.84093070e+00     
C    -1.10678411e+00     1.05069983e+00      -1.91594568e+00     
O    -2.14367366e+00     5.12377339e-01      -1.58619491e+00     
O    -9.50337703e-01     1.85410713e+00      -2.97342283e+00     
H    -1.82085132e+00     1.91243558e+00      -3.40860755e+00     
O    -1.97666052e+00     1.39093627e+00      1.31182365e+00      
H    -2.81412079e+00     1.30774465e+00      8.46171467e-01      
H    -2.20194621e+00     1.59051956e+00      2.22454893e+00      
O    2.56512264e+00      -2.44657948e-02     1.07666163e+00      
H    2.88054337e+00      5.03564667e-01      1.81394741e+00      
H    3.23206180e+00      -7.03289147e-01     9.49039903e-01      
O    -9.17322909e-01     -2.24612894e+00     -1.29468031e+00     
H    -1.81782386e+00     -2.11288069e+00     -1.60522063e+00     
H    -8.07579965e-01     -3.19681231e+00     -1.20629311e+00     
20
1205.067608
N    -1.33222754e-03     1.41623094e-02      -2.03037103e-02     
H    9.13124247e-01      -6.96989946e-02     4.68369445e-01      
H    -3.27653380e-01     -9.22024504e-01     -3.45765602e-01     
H    -7.19198197e-01     4.22282744e-01      6.17632375e-01      
C    2.05725948e-01      9.08348994e-01      -1.18388172e+00     
H    5.54105116e-01      1.87897685e+00      -8.38364711e-01     
H    9.61098054e-01      4.81630992e-01      -1.83977294e+00     
C    -1.10667450e+00     1.05038947e+00      -1.91546806e+00     
O    -2.14440816e+00     5.11970464e-01      -1.58592568e+00     
O    -9.49608068e-01     1.85473858e+00      -2.97400740e+00     
H    -1.82352300e+00     1.90832020e+00      -3.40395084e+00     
O    -1.97668999e+00     1.39093455e+00      1.31176332e+00      
H    -2.81428024e+00     1.30794437e+00      8.46299541e-01      
H    -2.20168282e+00     1.59031265e+00      2.22461668e+00      
O    2.56512731e+00      -2.44864490e-02     1.07669235e+00      
H    2.88043862e+00      5.03585536e-01      1.81397932e+00      
H    3.23198410e+00      -7.03361184e-01     9.49005233e-01      
O    -9.17365631e-01     -2.24608514e+00     -1.29470803e+00     
H    -1.81786015e+00     -2.11310382e+00     -1.60539558e+00     
H    -8.07402250e-01     -3.19672509e+00     -1.20601458e+00     
20
1205.067608
N    -2.47212153e-03     1.37492627e-02      -2.01906307e-02     
H    9.15525589e-01      -6.54326880e-02     4.63392287e-01      
H    -3.25099932e-01     -9.24653300e-01     -3.42710171e-01     
H    -7.17075817e-01     4.21133965e-01      6.21748459e-01      
C    2.06355983e-01      9.09187926e-01      -1.18479629e+00     
H    5.55944089e-01      1.87871586e+00      -8.37123868e-01     
H    9.62970781e-01      4.81254092e-01      -1.83861517e+00     
C    -1.10656489e+00     1.05007910e+00      -1.91499044e+00     
O    -2.14514266e+00     5.11563590e-01      -1.58565645e+00     
O    -9.48878433e-01     1.85537003e+00      -2.97459198e+00     
H    -1.82619468e+00     1.90420481e+00      -3.39929413e+00     
O    -1.97671945e+00     1.39093284e+00      1.31170298e+00      
H    -2.81443968e+00     1.30814408e+00      8.46427614e-01      
H    -2.20141944e+00     1.59010575e+00      2.22468443e+00      
O    2.56513197e+00      -2.45071032e-02     1.07672306e+00      
H    2.88033387e+00      5.03606404e-01      1.81401123e+00      
H    3.23190640e+00      -7.03433221e-01     9.48970563e-01      
O    -9.17408353e-01     -2.24604134e+00     -1.29473576e+00     
H    -1.81789644e+00     -2.11332695e+00     -1.60557053e+00     
H    -8.07224535e-01     -3.19663787e+00     -1.20573605e+00     
20
1205.067608
N    -4.75190952e-03     1.29231692e-02      -1.99644714e-02     
H    9.20328273e-01      -5.69000748e-02     4.53437970e-01      
H    -3.19993034e-01     -9.29910893e-01     -3.36599309e-01     
H    -7.12831057e-01     4.18836406e-01      6.29980627e-01      
C    2.07616051e-01      9.10865792e-01      -1.18662543e+00     
H    5.59622035e-01      1.87819387e+00      -8.34642184e-01     
H    9.66716234e-01      4.80500292e-01      -1.83629963e+00     
C    -1.10634566e+00     1.04945838e+00      -1.91403519e+00     
O    -2.14661165e+00     5.10749842e-01      -1.58511799e+00     
O    -9.47419163e-01     1.85663292e+00      -2.97576112e+00     
H    -1.83153805e+00     1.89597404e+00      -3.38998071e+00     
O    -1.97677838e+00     1.39092941e+00      1.31158230e+00      
H    -2.81475858e+00     1.30854350e+00      8.46683760e-01      
H    -2.20089268e+00     1.58969195e+00      2.22481992e+00      
O    2.56514129e+00      -2.45484116e-02     1.07678450e+00      
H    2.88012436e+00      5.03648141e-01      1.81407506e+00      
H    3.23175101e+00      -7.03577294e-01     9.48901222e-01      
O    -9.17493796e-01     -2.24595375e+00     -1.29479120e+00     
H    -1.81796902e+00     -2.11377320e+00     -1.60592044e+00     
H    -8.06869105e-01     -3.19646343e+00     -1.20517900e+00     
20
1205.067608
N    -7.03169750e-03     1.20970758e-02      -1.97383121e-02     
H    9.25130958e-01      -4.83674615e-02     4.43483654e-01      
H    -3.14886137e-01     -9.35168486e-01     -3.30488447e-01     
H    -7.08586296e-01     4.16538847e-01      6.38212794e-01      
C    2.08876120e-01      9.12543658e-01      -1.18845458e+00     
H    5.63299981e-01      1.87767189e+00      -8.32160499e-01     
H    9.70461687e-01      4.79746491e-01      -1.83398410e+00     
C    -1.10612644e+00     1.04883765e+00      -1.91307994e+00     
O    -2.14808065e+00     5.09936093e-01      -1.58457953e+00     
O    -9.45959893e-01     1.85789582e+00      -2.97693027e+00     
H    -1.83688141e+00     1.88774328e+00      -3.38066729e+00     
O    -1.97683732e+00     1.39092598e+00      1.31146163e+00      
H    -2.81507747e+00     1.30894293e+00      8.46939907e-01      
H    -2.20036591e+00     1.58927814e+00      2.22495541e+00      
O    2.56515062e+00      -2.45897199e-02     1.07684593e+00      
H    2.87991485e+00      5.03689879e-01      1.81413888e+00      
H    3.23159561e+00      -7.03721367e-01     9.48831881e-01      
O    -9.17579239e-01     -2.24586615e+00     -1.29484664e+00     
H    -1.81804160e+00     -2.11421945e+00     -1.60627035e+00     
H    -8.06513675e-01     -3.19628900e+00     -1.20462194e+00     
20
1205.067608
N    -9.31148549e-03     1.12709824e-02      -1.95121527e-02     
H    9.29933642e-01      -3.98348483e-02     4.33529337e-01      
H    -3.09779240e-01     -9.40426079e-01     -3.24377586e-01     
H    -7.04341536e-01     4.14241289e-01      6.46444962e-01      
C    2.10136189e-01      9.14221524e-01      -1.19028372e+00     
H    5.66977926e-01      1.87714991e+00      -8.29678814e-01     
H    9.74207140e-01      4.78992691e-01      -1.83166856e+00     
C    -1.10590722e+00     1.04821692e+00      -1.91212469e+00     
O    -2.14954964e+00     5.09122345e-01      -1.58404108e+00     
O    -9.44500623e-01     1.85915872e+00      -2.97809942e+00     
H    -1.84222478e+00     1.87951251e+00      -3.37135387e+00     
O    -1.97689625e+00     1.39092255e+00      1.31134095e+00      
H    -2.81539636e+00     1.30934235e+00      8.47196053e-01      
H    -2.19983915e+00     1.58886434e+00      2.22509091e+00      
O    2.56515994e+00      -2.46310283e-02     1.07690736e+00      
H    2.87970535e+00      5.03731616e-01      1.81420270e+00      
H    3.23144021e+00      -7.03865440e-01     9.48762541e-01      
O    -9.17664683e-01     -2.24577856e+00     -1.29490208e+00     
H    -1.81811418e+00     -2.11466571e+00     -1.60662025e+00     
H    -8.06158245e-01     -3.19611456e+00     -1.20406488e+00     
20
1205.067608
N    -1.15912735e-02     1.04448890e-02      -1.92859934e-02     
H    9.34736326e-01      -3.13022351e-02     4.23575021e-01      
H    -3.04672343e-01     -9.45683671e-01     -3.18266724e-01     
H    -7.00096775e-01     4.11943730e-01      6.54677129e-01      
C    2.11396258e-01      9.15899389e-01      -1.19211286e+00     
H    5.70655872e-01      1.87662793e+00      -8.27197129e-01     
H    9.77952593e-01      4.78238890e-01      -1.82935303e+00     
C    -1.10568800e+00     1.04759619e+00      -1.91116945e+00     
O    -2.15101864e+00     5.08308597e-01      -1.58350262e+00     
O    -9.43041353e-01     1.86042162e+00      -2.97926857e+00     
H    -1.84756814e+00     1.87128174e+00      -3.36204045e+00     
O    -1.97695518e+00     1.39091912e+00      1.31122028e+00      
H    -2.81571525e+00     1.30974178e+00      8.47452200e-01      
H    -2.19931238e+00     1.58845053e+00      2.22522640e+00      
O    2.56516927e+00      -2.46723367e-02     1.07696879e+00      
H    2.87949584e+00      5.03773353e-01      1.81426652e+00      
H    3.23128481e+00      -7.04009514e-01     9.48693200e-01      
O    -9.17750126e-01     -2.24569096e+00     -1.29495753e+00     
H    -1.81818676e+00     -2.11511196e+00     -1.60697016e+00     
H    -8.05802814e-01     -3.19594012e+00     -1.20350782e+00     
20
1205.067608
N    -1.61508494e-02     8.79270216e-03      -1.88336748e-02     
H    9.44341694e-01      -1.42370086e-02     4.03666388e-01      
H    -2.94458548e-01     -9.56198857e-01     -3.06045000e-01     
H    -6.91607254e-01     4.07348613e-01      6.71141465e-01      
C    2.13916395e-01      9.19255121e-01      -1.19577114e+00     
H    5.78011763e-01      1.87558396e+00      -8.22233760e-01     
H    9.85443498e-01      4.76731289e-01      -1.82472196e+00     
C    -1.10524956e+00     1.04635474e+00      -1.90925895e+00     
O    -2.15395663e+00     5.06681100e-01      -1.58242570e+00     
O    -9.40122813e-01     1.86294741e+00      -2.98160686e+00     
H    -1.85825488e+00     1.85482020e+00      -3.34341361e+00     
O    -1.97707304e+00     1.39091226e+00      1.31097892e+00      
H    -2.81635304e+00     1.31054063e+00      8.47964493e-01      
H    -2.19825885e+00     1.58762292e+00      2.22549739e+00      
O    2.56518792e+00      -2.47549535e-02     1.07709166e+00      
H    2.87907682e+00      5.03856827e-01      1.81439417e+00      
H    3.23097402e+00      -7.04297660e-01     9.48554519e-01      
O    -9.17921013e-01     -2.24551577e+00     -1.29506841e+00     
H    -1.81833192e+00     -2.11600446e+00     -1.60766997e+00     
H    -8.05091954e-01     -3.19559124e+00     -1.20239370e+00     
