20
1722.311438
N    -4.42177536e-03     1.37224554e-02      -2.09463725e-02     
H    8.71722203e-01      -1.20793841e-01     5.22854228e-01      
H    -2.24928347e-01     -9.35035895e-01     -4.17592059e-01     
H    -6.50870743e-01     5.27392544e-01      6.30467462e-01      
C    1.98142504e-01      9.05422435e-01      -1.18288044e+00     
H    5.60808084e-01      1.87057367e+00      -8.37268048e-01     
H    9.64314012e-01      4.85201868e-01      -1.83009553e+00     
C    -1.10982776e+00     1.04915447e+00      -1.91502627e+00     
O    -2.13977809e+00     5.14300185e-01      -1.58729474e+00     
O    -9.51548528e-01     1.85314586e+00      -2.97257359e+00     
H    -1.81666611e+00     1.91938285e+00      -3.41660073e+00     
O    -1.97523203e+00     1.39027365e+00      1.31085266e+00      
H    -2.82571818e+00     1.31446567e+00      8.64944206e-01      
H    -2.22113474e+00     1.58883344e+00      2.21986091e+00      
O    2.56588805e+00      -2.44260518e-02     1.07691714e+00      
H    2.87225296e+00      5.09414887e-01      1.81309846e+00      
H    3.22656217e+00      -7.07018675e-01     9.41325569e-01      
O    -9.16541124e-01     -2.24457130e+00     -1.29406007e+00     
H    -1.82083778e+00     -2.13562816e+00     -1.60756701e+00     
H    -8.26570066e-01     -3.19917798e+00     -1.21146816e+00     
20
1722.311438
N    -2.79446791e-03     1.41422039e-02      -2.08705167e-02     
H    8.80271707e-01      -1.11219859e-01     5.12965901e-01      
H    -2.52524692e-01     -9.29811450e-01     -4.01927018e-01     
H    -6.69544392e-01     5.01976679e-01      6.24171627e-01      
C    1.99565839e-01      9.05524875e-01      -1.18244483e+00     
H    5.57753112e-01      1.87287021e+00      -8.38472846e-01     
H    9.62105478e-01      4.84591824e-01      -1.83338321e+00     
C    -1.10912165e+00     1.04969599e+00      -1.91549494e+00     
O    -2.14038473e+00     5.14022911e-01      -1.58715440e+00     
O    -9.51610639e-01     1.85307045e+00      -2.97249361e+00     
H    -1.81637657e+00     1.91970372e+00      -3.41693079e+00     
O    -1.97557442e+00     1.39044016e+00      1.31112558e+00      
H    -2.82273911e+00     1.31268556e+00      8.60186985e-01      
H    -2.21646930e+00     1.58935842e+00      2.22099904e+00      
O    2.56569437e+00      -2.44256605e-02     1.07683790e+00      
H    2.87437794e+00      5.07941898e-01      1.81329475e+00      
H    3.22797593e+00      -7.06050275e-01     9.43271488e-01      
O    -9.16715209e-01     -2.24498261e+00     -1.29420127e+00     
H    -1.82006615e+00     -2.12982973e+00     -1.60689294e+00     
H    -8.21911399e-01     -3.19863017e+00     -1.21031366e+00     
20
1722.311438
N    -1.98081419e-03     1.43520782e-02      -2.08325888e-02     
H    8.84546459e-01      -1.06432868e-01     5.08021738e-01      
H    -2.66322864e-01     -9.27199228e-01     -3.94094497e-01     
H    -6.78881216e-01     4.89268746e-01      6.21023710e-01      
C    2.00277507e-01      9.05576095e-01      -1.18222703e+00     
H    5.56225627e-01      1.87401848e+00      -8.39075245e-01     
H    9.61001211e-01      4.84286802e-01      -1.83502705e+00     
C    -1.10876860e+00     1.04996675e+00      -1.91572927e+00     
O    -2.14068806e+00     5.13884273e-01      -1.58708423e+00     
O    -9.51641695e-01     1.85303275e+00      -2.97245363e+00     
H    -1.81623180e+00     1.91986416e+00      -3.41709582e+00     
O    -1.97574561e+00     1.39052342e+00      1.31126204e+00      
H    -2.82124957e+00     1.31179550e+00      8.57808374e-01      
H    -2.21413657e+00     1.58962091e+00      2.22156811e+00      
O    2.56559753e+00      -2.44254648e-02     1.07679828e+00      
H    2.87544043e+00      5.07205403e-01      1.81339289e+00      
H    3.22868281e+00      -7.05566075e-01     9.44244447e-01      
O    -9.16802252e-01     -2.24518826e+00     -1.29427187e+00     
H    -1.81968034e+00     -2.12693051e+00     -1.60655590e+00     
H    -8.19582065e-01     -3.19835627e+00     -1.20973641e+00     
20
1722.311438
N    -1.16716046e-03     1.45619525e-02      -2.07946609e-02     
H    8.88821212e-01      -1.01645878e-01     5.03077574e-01      
H    -2.80121037e-01     -9.24587005e-01     -3.86261977e-01     
H    -6.88218041e-01     4.76560813e-01      6.17875793e-01      
C    2.00989174e-01      9.05627315e-01      -1.18200923e+00     
H    5.54698141e-01      1.87516674e+00      -8.39677643e-01     
H    9.59896944e-01      4.83981780e-01      -1.83667089e+00     
C    -1.10841555e+00     1.05023751e+00      -1.91596360e+00     
O    -2.14099138e+00     5.13745636e-01      -1.58701406e+00     
O    -9.51672750e-01     1.85299504e+00      -2.97241364e+00     
H    -1.81608703e+00     1.92002460e+00      -3.41726085e+00     
O    -1.97591681e+00     1.39060667e+00      1.31139850e+00      
H    -2.81976004e+00     1.31090545e+00      8.55429764e-01      
H    -2.21180385e+00     1.58988340e+00      2.22213717e+00      
O    2.56550068e+00      -2.44252691e-02     1.07675867e+00      
H    2.87650292e+00      5.06468909e-01      1.81349103e+00      
H    3.22938969e+00      -7.05081875e-01     9.45217407e-01      
O    -9.16889295e-01     -2.24539392e+00     -1.29434247e+00     
H    -1.81929453e+00     -2.12403130e+00     -1.60621887e+00     
H    -8.17252731e-01     -3.19808237e+00     -1.20915916e+00     
20
1722.311438
N    -3.53506736e-04     1.47718267e-02      -2.07567330e-02     
H    8.93095964e-01      -9.68588869e-02     4.98133411e-01      
H    -2.93919209e-01     -9.21974783e-01     -3.78429456e-01     
H    -6.97554865e-01     4.63852880e-01      6.14727876e-01      
C    2.01700842e-01      9.05678535e-01      -1.18179142e+00     
H    5.53170655e-01      1.87631501e+00      -8.40280042e-01     
H    9.58792676e-01      4.83676759e-01      -1.83831473e+00     
C    -1.10806249e+00     1.05050828e+00      -1.91619793e+00     
O    -2.14129470e+00     5.13606999e-01      -1.58694389e+00     
O    -9.51703806e-01     1.85295734e+00      -2.97237365e+00     
H    -1.81594226e+00     1.92018504e+00      -3.41742588e+00     
O    -1.97608800e+00     1.39068993e+00      1.31153495e+00      
H    -2.81827050e+00     1.31001539e+00      8.53051153e-01      
H    -2.20947113e+00     1.59014589e+00      2.22270624e+00      
O    2.56540384e+00      -2.44250734e-02     1.07671905e+00      
H    2.87756541e+00      5.05732414e-01      1.81358917e+00      
H    3.23009656e+00      -7.04597674e-01     9.46190366e-01      
O    -9.16976338e-01     -2.24559957e+00     -1.29441307e+00     
H    -1.81890872e+00     -2.12113208e+00     -1.60588183e+00     
H    -8.14923397e-01     -3.19780846e+00     -1.20858191e+00     
20
1722.311438
N    4.60146989e-04      1.49817010e-02      -2.07188051e-02     
H    8.97370716e-01      -9.20718961e-02     4.93189247e-01      
H    -3.07717381e-01     -9.19362560e-01     -3.70596936e-01     
H    -7.06891689e-01     4.51144948e-01      6.11579958e-01      
C    2.02412510e-01      9.05729755e-01      -1.18157362e+00     
H    5.51643169e-01      1.87746328e+00      -8.40882441e-01     
H    9.57688409e-01      4.83371737e-01      -1.83995856e+00     
C    -1.10770944e+00     1.05077904e+00      -1.91643227e+00     
O    -2.14159802e+00     5.13468362e-01      -1.58687371e+00     
O    -9.51734862e-01     1.85291964e+00      -2.97233366e+00     
H    -1.81579749e+00     1.92034547e+00      -3.41759091e+00     
O    -1.97625920e+00     1.39077319e+00      1.31167141e+00      
H    -2.81678097e+00     1.30912534e+00      8.50672542e-01      
H    -2.20713841e+00     1.59040838e+00      2.22327531e+00      
O    2.56530700e+00      -2.44248778e-02     1.07667943e+00      
H    2.87862790e+00      5.04995919e-01      1.81368731e+00      
H    3.23080344e+00      -7.04113474e-01     9.47163325e-01      
O    -9.17063380e-01     -2.24580522e+00     -1.29448367e+00     
H    -1.81852290e+00     -2.11823287e+00     -1.60554479e+00     
H    -8.12594063e-01     -3.19753456e+00     -1.20800467e+00     
20
1722.311438
N    8.66973852e-04      1.50866381e-02      -2.06998411e-02     
H    8.99508093e-01      -8.96784007e-02     4.90717165e-01      
H    -3.14616467e-01     -9.18056449e-01     -3.66680676e-01     
H    -7.11560101e-01     4.44790981e-01      6.10006000e-01      
C    2.02768344e-01      9.05755365e-01      -1.18146472e+00     
H    5.50879427e-01      1.87803742e+00      -8.41183640e-01     
H    9.57136276e-01      4.83219226e-01      -1.84078048e+00     
C    -1.10753291e+00     1.05091442e+00      -1.91654943e+00     
O    -2.14174969e+00     5.13399043e-01      -1.58683863e+00     
O    -9.51750390e-01     1.85290078e+00      -2.97231366e+00     
H    -1.81572510e+00     1.92042569e+00      -3.41767343e+00     
O    -1.97634480e+00     1.39081482e+00      1.31173964e+00      
H    -2.81603620e+00     1.30868031e+00      8.49483237e-01      
H    -2.20597205e+00     1.59053963e+00      2.22355984e+00      
O    2.56525858e+00      -2.44247799e-02     1.07665963e+00      
H    2.87915914e+00      5.04627672e-01      1.81373638e+00      
H    3.23115688e+00      -7.03871374e-01     9.47649805e-01      
O    -9.17106902e-01     -2.24590805e+00     -1.29451897e+00     
H    -1.81833000e+00     -2.11678326e+00     -1.60537628e+00     
H    -8.11429396e-01     -3.19739761e+00     -1.20771604e+00     
20
1722.311438
N    1.27380071e-03      1.51915752e-02      -2.06808772e-02     
H    9.01645469e-01      -8.72849053e-02     4.88245084e-01      
H    -3.21515554e-01     -9.16750338e-01     -3.62764415e-01     
H    -7.16228514e-01     4.38437015e-01      6.08432041e-01      
C    2.03124177e-01      9.05780975e-01      -1.18135581e+00     
H    5.50115684e-01      1.87861155e+00      -8.41484839e-01     
H    9.56584142e-01      4.83066715e-01      -1.84160240e+00     
C    -1.10735638e+00     1.05104980e+00      -1.91666660e+00     
O    -2.14190135e+00     5.13329724e-01      -1.58680354e+00     
O    -9.51765917e-01     1.85288193e+00      -2.97229367e+00     
H    -1.81565272e+00     1.92050591e+00      -3.41775594e+00     
O    -1.97643039e+00     1.39085644e+00      1.31180787e+00      
H    -2.81529143e+00     1.30823528e+00      8.48293932e-01      
H    -2.20480569e+00     1.59067087e+00      2.22384437e+00      
O    2.56521016e+00      -2.44246821e-02     1.07663982e+00      
H    2.87969039e+00      5.04259425e-01      1.81378545e+00      
H    3.23151032e+00      -7.03629274e-01     9.48136285e-01      
O    -9.17150423e-01     -2.24601088e+00     -1.29455427e+00     
H    -1.81813709e+00     -2.11533365e+00     -1.60520776e+00     
H    -8.10264729e-01     -3.19726065e+00     -1.20742742e+00     
20
1722.311438
N    2.90110817e-03      1.56113238e-02      -2.06050214e-02     
H    9.10194973e-01      -7.77109237e-02     4.78356756e-01      
H    -3.49111898e-01     -9.11525892e-01     -3.47099375e-01     
H    -7.34902162e-01     4.13021149e-01      6.02136207e-01      
C    2.04547513e-01      9.05883415e-01      -1.18092021e+00     
H    5.47060712e-01      1.88090809e+00      -8.42689637e-01     
H    9.54375608e-01      4.82456671e-01      -1.84489008e+00     
C    -1.10665028e+00     1.05159132e+00      -1.91713526e+00     
O    -2.14250799e+00     5.13052450e-01      -1.58666320e+00     
O    -9.51828029e-01     1.85280653e+00      -2.97221369e+00     
H    -1.81536318e+00     1.92082679e+00      -3.41808600e+00     
O    -1.97677279e+00     1.39102296e+00      1.31208079e+00      
H    -2.81231237e+00     1.30645518e+00      8.43536710e-01      
H    -2.20014025e+00     1.59119585e+00      2.22498251e+00      
O    2.56501648e+00      -2.44242907e-02     1.07656058e+00      
H    2.88181537e+00      5.02786435e-01      1.81398173e+00      
H    3.23292408e+00      -7.02660874e-01     9.50082203e-01      
O    -9.17324509e-01     -2.24642218e+00     -1.29469547e+00     
H    -1.81736547e+00     -2.10953523e+00     -1.60453368e+00     
H    -8.05606061e-01     -3.19671285e+00     -1.20627292e+00     
20
1722.311438
N    3.30793503e-03      1.57162609e-02      -2.05860575e-02     
H    9.12332349e-01      -7.53174283e-02     4.75884675e-01      
H    -3.56010985e-01     -9.10219781e-01     -3.43183114e-01     
H    -7.39570575e-01     4.06667183e-01      6.00562248e-01      
C    2.04903346e-01      9.05909025e-01      -1.18081130e+00     
H    5.46296969e-01      1.88148222e+00      -8.42990836e-01     
H    9.53823474e-01      4.82304160e-01      -1.84571200e+00     
C    -1.10647375e+00     1.05172670e+00      -1.91725243e+00     
O    -2.14265965e+00     5.12983131e-01      -1.58662811e+00     
O    -9.51843556e-01     1.85278768e+00      -2.97219370e+00     
H    -1.81529080e+00     1.92090701e+00      -3.41816851e+00     
O    -1.97685838e+00     1.39106458e+00      1.31214902e+00      
H    -2.81156760e+00     1.30601015e+00      8.42347405e-01      
H    -2.19897389e+00     1.59132709e+00      2.22526704e+00      
O    2.56496806e+00      -2.44241929e-02     1.07654077e+00      
H    2.88234662e+00      5.02418188e-01      1.81403080e+00      
H    3.23327752e+00      -7.02418774e-01     9.50568683e-01      
O    -9.17368030e-01     -2.24652501e+00     -1.29473077e+00     
H    -1.81717256e+00     -2.10808562e+00     -1.60436516e+00     
H    -8.04441394e-01     -3.19657589e+00     -1.20598430e+00     
20
1722.311438
N    3.71476189e-03      1.58211980e-02      -2.05670935e-02     
H    9.14469726e-01      -7.29239329e-02     4.73412593e-01      
H    -3.62910071e-01     -9.08913670e-01     -3.39266854e-01     
H    -7.44238987e-01     4.00313216e-01      5.98988290e-01      
C    2.05259180e-01      9.05934635e-01      -1.18070240e+00     
H    5.45533227e-01      1.88205636e+00      -8.43292035e-01     
H    9.53271341e-01      4.82151649e-01      -1.84653392e+00     
C    -1.10629722e+00     1.05186208e+00      -1.91736959e+00     
O    -2.14281132e+00     5.12913812e-01      -1.58659303e+00     
O    -9.51859084e-01     1.85276882e+00      -2.97217370e+00     
H    -1.81521841e+00     1.92098723e+00      -3.41825103e+00     
O    -1.97694398e+00     1.39110621e+00      1.31221725e+00      
H    -2.81082283e+00     1.30556512e+00      8.41158100e-01      
H    -2.19780753e+00     1.59145834e+00      2.22555157e+00      
O    2.56491964e+00      -2.44240950e-02     1.07652097e+00      
H    2.88287786e+00      5.02049941e-01      1.81407987e+00      
H    3.23363096e+00      -7.02176674e-01     9.51055163e-01      
O    -9.17411552e-01     -2.24662784e+00     -1.29476607e+00     
H    -1.81697966e+00     -2.10663601e+00     -1.60419665e+00     
H    -8.03276727e-01     -3.19643894e+00     -1.20569567e+00     
20
1722.311438
N    4.52841562e-03      1.60310723e-02      -2.05291656e-02     
H    9.18744478e-01      -6.81369421e-02     4.68468429e-01      
H    -3.76708243e-01     -9.06301447e-01     -3.31434334e-01     
H    -7.53575811e-01     3.87605284e-01      5.95840372e-01      
C    2.05970848e-01      9.05985855e-01      -1.18048460e+00     
H    5.44005741e-01      1.88320463e+00      -8.43894434e-01     
H    9.52167074e-01      4.81846627e-01      -1.84817775e+00     
C    -1.10594417e+00     1.05213284e+00      -1.91760393e+00     
O    -2.14311464e+00     5.12775175e-01      -1.58652285e+00     
O    -9.51890140e-01     1.85273112e+00      -2.97213371e+00     
H    -1.81507364e+00     1.92114766e+00      -3.41841606e+00     
O    -1.97711518e+00     1.39118947e+00      1.31235371e+00      
H    -2.80933330e+00     1.30467507e+00      8.38779489e-01      
H    -2.19547481e+00     1.59172083e+00      2.22612064e+00      
O    2.56482280e+00      -2.44238994e-02     1.07648135e+00      
H    2.88394035e+00      5.01313446e-01      1.81417801e+00      
H    3.23433784e+00      -7.01692474e-01     9.52028122e-01      
O    -9.17498594e-01     -2.24683349e+00     -1.29483667e+00     
H    -1.81659384e+00     -2.10373680e+00     -1.60385961e+00     
H    -8.00947393e-01     -3.19616504e+00     -1.20511843e+00     
20
1722.311438
N    5.34206934e-03      1.62409465e-02      -2.04912377e-02     
H    9.23019230e-01      -6.33499513e-02     4.63524266e-01      
H    -3.90506415e-01     -9.03689225e-01     -3.23601813e-01     
H    -7.62912635e-01     3.74897351e-01      5.92692455e-01      
C    2.06682516e-01      9.06037075e-01      -1.18026679e+00     
H    5.42478255e-01      1.88435290e+00      -8.44496833e-01     
H    9.51062806e-01      4.81541606e-01      -1.84982159e+00     
C    -1.10559111e+00     1.05240361e+00      -1.91783826e+00     
O    -2.14341796e+00     5.12636538e-01      -1.58645268e+00     
O    -9.51921196e-01     1.85269342e+00      -2.97209372e+00     
H    -1.81492887e+00     1.92130810e+00      -3.41858109e+00     
O    -1.97728637e+00     1.39127273e+00      1.31249016e+00      
H    -2.80784376e+00     1.30378501e+00      8.36400878e-01      
H    -2.19314209e+00     1.59198332e+00      2.22668971e+00      
O    2.56472596e+00      -2.44237037e-02     1.07644173e+00      
H    2.88500284e+00      5.00576951e-01      1.81427615e+00      
H    3.23504471e+00      -7.01208273e-01     9.53001081e-01      
O    -9.17585637e-01     -2.24703914e+00     -1.29490727e+00     
H    -1.81620803e+00     -2.10083758e+00     -1.60352257e+00     
H    -7.98618059e-01     -3.19589113e+00     -1.20454118e+00     
20
1722.311438
N    6.15572307e-03      1.64508208e-02      -2.04533098e-02     
H    9.27293983e-01      -5.85629605e-02     4.58580102e-01      
H    -4.04304588e-01     -9.01077002e-01     -3.15769293e-01     
H    -7.72249460e-01     3.62189418e-01      5.89544538e-01      
C    2.07394183e-01      9.06088295e-01      -1.18004899e+00     
H    5.40950769e-01      1.88550116e+00      -8.45099231e-01     
H    9.49958539e-01      4.81236584e-01      -1.85146543e+00     
C    -1.10523806e+00     1.05267437e+00      -1.91807259e+00     
O    -2.14372128e+00     5.12497901e-01      -1.58638251e+00     
O    -9.51952251e-01     1.85265571e+00      -2.97205373e+00     
H    -1.81478410e+00     1.92146854e+00      -3.41874612e+00     
O    -1.97745757e+00     1.39135598e+00      1.31262662e+00      
H    -2.80635423e+00     1.30289496e+00      8.34022268e-01      
H    -2.19080937e+00     1.59224581e+00      2.22725877e+00      
O    2.56462911e+00      -2.44235080e-02     1.07640212e+00      
H    2.88606533e+00      4.99840457e-01      1.81437429e+00      
H    3.23575159e+00      -7.00724073e-01     9.53974041e-01      
O    -9.17672680e-01     -2.24724480e+00     -1.29497787e+00     
H    -1.81582222e+00     -2.09793837e+00     -1.60318554e+00     
H    -7.96288725e-01     -3.19561723e+00     -1.20396393e+00     
20
1722.311438
N    6.96937679e-03      1.66606951e-02      -2.04153819e-02     
H    9.31568735e-01      -5.37759697e-02     4.53635939e-01      
H    -4.18102760e-01     -8.98464780e-01     -3.07936772e-01     
H    -7.81586284e-01     3.49481485e-01      5.86396621e-01      
C    2.08105851e-01      9.06139515e-01      -1.17983119e+00     
H    5.39423284e-01      1.88664943e+00      -8.45701630e-01     
H    9.48854272e-01      4.80931562e-01      -1.85310927e+00     
C    -1.10488501e+00     1.05294513e+00      -1.91830692e+00     
O    -2.14402461e+00     5.12359263e-01      -1.58631234e+00     
O    -9.51983307e-01     1.85261801e+00      -2.97201375e+00     
H    -1.81463933e+00     1.92162898e+00      -3.41891115e+00     
O    -1.97762876e+00     1.39143924e+00      1.31276308e+00      
H    -2.80486469e+00     1.30200490e+00      8.31643657e-01      
H    -2.18847664e+00     1.59250830e+00      2.22782784e+00      
O    2.56453227e+00      -2.44233123e-02     1.07636250e+00      
H    2.88712782e+00      4.99103962e-01      1.81447243e+00      
H    3.23645847e+00      -7.00239873e-01     9.54947000e-01      
O    -9.17759723e-01     -2.24745045e+00     -1.29504847e+00     
H    -1.81543641e+00     -2.09503915e+00     -1.60284850e+00     
H    -7.93959391e-01     -3.19534333e+00     -1.20338668e+00     
20
1722.311438
N    8.59668424e-03      1.70804436e-02      -2.03395261e-02     
H    9.40118239e-01      -4.42019881e-02     4.43747612e-01      
H    -4.45699105e-01     -8.93240335e-01     -2.92271731e-01     
H    -8.00259933e-01     3.24065620e-01      5.80100786e-01      
C    2.09529186e-01      9.06241955e-01      -1.17939558e+00     
H    5.36368312e-01      1.88894597e+00      -8.46906428e-01     
H    9.46645738e-01      4.80321518e-01      -1.85639695e+00     
C    -1.10417890e+00     1.05348665e+00      -1.91877559e+00     
O    -2.14463125e+00     5.12081989e-01      -1.58617200e+00     
O    -9.52045418e-01     1.85254260e+00      -2.97193377e+00     
H    -1.81434979e+00     1.92194985e+00      -3.41924121e+00     
O    -1.97797115e+00     1.39160575e+00      1.31303600e+00      
H    -2.80188562e+00     1.30022479e+00      8.26886436e-01      
H    -2.18381120e+00     1.59303328e+00      2.22896597e+00      
O    2.56433859e+00      -2.44229210e-02     1.07628326e+00      
H    2.88925280e+00      4.97630973e-01      1.81466872e+00      
H    3.23787223e+00      -6.99271473e-01     9.56892919e-01      
O    -9.17933808e-01     -2.24786176e+00     -1.29518967e+00     
H    -1.81466478e+00     -2.08924072e+00     -1.60217443e+00     
H    -7.89300724e-01     -3.19479552e+00     -1.20223218e+00     
