20
1653.219619
N    2.91080198e-03      1.53439586e-02      -2.02281019e-02     
H    9.16589674e-01      -7.04115938e-02     4.70772183e-01      
H    -3.61070699e-01     -9.06558617e-01     -3.41984110e-01     
H    -7.42444388e-01     4.02827863e-01      5.96387843e-01      
C    2.06051636e-01      9.05715820e-01      -1.18007508e+00     
H    5.45168736e-01      1.88290381e+00      -8.44315877e-01     
H    9.52987103e-01      4.82724047e-01      -1.84775499e+00     
C    -1.10890366e+00     1.05109981e+00      -1.91736523e+00     
O    -2.14130719e+00     5.13575644e-01      -1.58690522e+00     
O    -9.51707959e-01     1.85271960e+00      -2.97204359e+00     
H    -1.81553472e+00     1.92036817e+00      -3.41751578e+00     
O    -1.96762704e+00     1.38965213e+00      1.30808193e+00      
H    -2.86071334e+00     1.32593207e+00      9.26721550e-01      
H    -2.29426535e+00     1.58975865e+00      2.20218333e+00      
O    2.56759187e+00      -2.47950338e-02     1.07812459e+00      
H    2.85812030e+00      5.19526081e-01      1.81196127e+00      
H    3.21731720e+00      -7.13689813e-01     9.28161044e-01      
O    -9.10693592e-01     -2.23915906e+00     -1.29250677e+00     
H    -1.83180488e+00     -2.20665807e+00     -1.60491080e+00     
H    -8.96217461e-01     -3.21021035e+00     -1.23771486e+00     
20
1653.219619
N    2.70496510e-03      1.53583313e-02      -2.03318138e-02     
H    9.13922311e-01      -7.34331739e-02     4.73904367e-01      
H    -3.54631456e-01     -9.08453492e-01     -3.45221056e-01     
H    -7.38224626e-01     4.08553168e-01      5.98611913e-01      
C    2.05497689e-01      9.05744914e-01      -1.18034081e+00     
H    5.46023601e-01      1.88211781e+00      -8.43758717e-01     
H    9.53610296e-01      4.82733459e-01      -1.84662780e+00     
C    -1.10842857e+00     1.05115499e+00      -1.91724915e+00     
O    -2.14153156e+00     5.13479505e-01      -1.58686225e+00     
O    -9.51730212e-01     1.85275076e+00      -2.97209612e+00     
H    -1.81552803e+00     1.92044272e+00      -3.41761707e+00     
O    -1.96987067e+00     1.38997402e+00      1.30904753e+00      
H    -2.84898548e+00     1.32128536e+00      9.06519993e-01      
H    -2.27131726e+00     1.59005232e+00      2.20774086e+00      
O    2.56697224e+00      -2.47023970e-02     1.07774349e+00      
H    2.86377845e+00      5.15525293e-01      1.81244185e+00      
H    3.22104220e+00      -7.11053628e-01     9.33398094e-01      
O    -9.12329561e-01     -2.24092343e+00     -1.29303629e+00     
H    -1.82829148e+00     -2.18310217e+00     -1.60490078e+00     
H    -8.74146944e-01     -3.20690445e+00     -1.22999869e+00     
20
1653.219619
N    2.60204665e-03      1.53655177e-02      -2.03836697e-02     
H    9.12588629e-01      -7.49439640e-02     4.75470459e-01      
H    -3.51411834e-01     -9.09400929e-01     -3.46839529e-01     
H    -7.36114744e-01     4.11415820e-01      5.99723949e-01      
C    2.05220715e-01      9.05759460e-01      -1.18047368e+00     
H    5.46451034e-01      1.88172482e+00      -8.43480137e-01     
H    9.53921893e-01      4.82738165e-01      -1.84606421e+00     
C    -1.10819103e+00     1.05118259e+00      -1.91719112e+00     
O    -2.14164375e+00     5.13431435e-01      -1.58684077e+00     
O    -9.51741339e-01     1.85276634e+00      -2.97212238e+00     
H    -1.81552468e+00     1.92047999e+00      -3.41766772e+00     
O    -1.97099249e+00     1.39013497e+00      1.30953033e+00      
H    -2.84312155e+00     1.31896200e+00      8.96419214e-01      
H    -2.25984321e+00     1.59019916e+00      2.21051962e+00      
O    2.56666242e+00      -2.46560786e-02     1.07755294e+00      
H    2.86660752e+00      5.13524899e-01      1.81268214e+00      
H    3.22290470e+00      -7.09735536e-01     9.36016619e-01      
O    -9.13147545e-01     -2.24180561e+00     -1.29330106e+00     
H    -1.82653478e+00     -2.17132421e+00     -1.60489577e+00     
H    -8.63111686e-01     -3.20525150e+00     -1.22614060e+00     
20
1653.219619
N    2.49912821e-03      1.53727041e-02      -2.04355256e-02     
H    9.11254948e-01      -7.64547541e-02     4.77036552e-01      
H    -3.48192213e-01     -9.10348366e-01     -3.48458002e-01     
H    -7.34004863e-01     4.14278473e-01      6.00835984e-01      
C    2.04943741e-01      9.05774007e-01      -1.18060654e+00     
H    5.46878467e-01      1.88133182e+00      -8.43201557e-01     
H    9.54233489e-01      4.82742870e-01      -1.84550062e+00     
C    -1.10795349e+00     1.05121018e+00      -1.91713308e+00     
O    -2.14175593e+00     5.13383366e-01      -1.58681929e+00     
O    -9.51752466e-01     1.85278191e+00      -2.97214864e+00     
H    -1.81552133e+00     1.92051726e+00      -3.41771837e+00     
O    -1.97211431e+00     1.39029591e+00      1.31001313e+00      
H    -2.83725762e+00     1.31663865e+00      8.86318436e-01      
H    -2.24836916e+00     1.59034600e+00      2.21329838e+00      
O    2.56635260e+00      -2.46097601e-02     1.07736239e+00      
H    2.86943659e+00      5.11524506e-01      1.81292243e+00      
H    3.22476720e+00      -7.08417444e-01     9.38635144e-01      
O    -9.13965529e-01     -2.24268779e+00     -1.29356582e+00     
H    -1.82477808e+00     -2.15954626e+00     -1.60489076e+00     
H    -8.52076428e-01     -3.20359855e+00     -1.22228252e+00     
20
1653.219619
N    2.39620977e-03      1.53798904e-02      -2.04873815e-02     
H    9.09921266e-01      -7.79655442e-02     4.78602644e-01      
H    -3.44972591e-01     -9.11295803e-01     -3.50076476e-01     
H    -7.31894982e-01     4.17141125e-01      6.01948019e-01      
C    2.04666767e-01      9.05788554e-01      -1.18073941e+00     
H    5.47305900e-01      1.88093882e+00      -8.42922978e-01     
H    9.54545086e-01      4.82747576e-01      -1.84493702e+00     
C    -1.10771595e+00     1.05123778e+00      -1.91707504e+00     
O    -2.14186812e+00     5.13335296e-01      -1.58679781e+00     
O    -9.51763593e-01     1.85279749e+00      -2.97217490e+00     
H    -1.81551799e+00     1.92055453e+00      -3.41776902e+00     
O    -1.97323613e+00     1.39045686e+00      1.31049593e+00      
H    -2.83139369e+00     1.31431529e+00      8.76217657e-01      
H    -2.23689511e+00     1.59049284e+00      2.21607715e+00      
O    2.56604278e+00      -2.45634417e-02     1.07717185e+00      
H    2.87226566e+00      5.09524112e-01      1.81316272e+00      
H    3.22662970e+00      -7.07099351e-01     9.41253669e-01      
O    -9.14783513e-01     -2.24356998e+00     -1.29383058e+00     
H    -1.82302138e+00     -2.14776830e+00     -1.60488575e+00     
H    -8.41041170e-01     -3.20194560e+00     -1.21842443e+00     
20
1653.219619
N    2.29329133e-03      1.53870768e-02      -2.05392375e-02     
H    9.08587584e-01      -7.94763343e-02     4.80168736e-01      
H    -3.41752969e-01     -9.12243241e-01     -3.51694949e-01     
H    -7.29785101e-01     4.20003777e-01      6.03060054e-01      
C    2.04389793e-01      9.05803101e-01      -1.18087228e+00     
H    5.47733332e-01      1.88054582e+00      -8.42644398e-01     
H    9.54856682e-01      4.82752282e-01      -1.84437343e+00     
C    -1.10747841e+00     1.05126537e+00      -1.91701700e+00     
O    -2.14198030e+00     5.13287226e-01      -1.58677633e+00     
O    -9.51774719e-01     1.85281307e+00      -2.97220116e+00     
H    -1.81551464e+00     1.92059181e+00      -3.41781967e+00     
O    -1.97435795e+00     1.39061781e+00      1.31097873e+00      
H    -2.82552976e+00     1.31199194e+00      8.66116878e-01      
H    -2.22542107e+00     1.59063968e+00      2.21885591e+00      
O    2.56573296e+00      -2.45171233e-02     1.07698130e+00      
H    2.87509474e+00      5.07523718e-01      1.81340301e+00      
H    3.22849220e+00      -7.05781259e-01     9.43872194e-01      
O    -9.15601498e-01     -2.24445216e+00     -1.29409534e+00     
H    -1.82126468e+00     -2.13599035e+00     -1.60488074e+00     
H    -8.30005911e-01     -3.20029265e+00     -1.21456634e+00     
20
1653.219619
N    2.24183210e-03      1.53906700e-02      -2.05651654e-02     
H    9.07920743e-01      -8.02317294e-02     4.80951782e-01      
H    -3.40143158e-01     -9.12716959e-01     -3.52504185e-01     
H    -7.28730160e-01     4.21435103e-01      6.03616071e-01      
C    2.04251306e-01      9.05810375e-01      -1.18093871e+00     
H    5.47947049e-01      1.88034932e+00      -8.42505108e-01     
H    9.55012480e-01      4.82754634e-01      -1.84409163e+00     
C    -1.10735964e+00     1.05127917e+00      -1.91698799e+00     
O    -2.14203639e+00     5.13263192e-01      -1.58676559e+00     
O    -9.51780283e-01     1.85282086e+00      -2.97221429e+00     
H    -1.81551297e+00     1.92061044e+00      -3.41784500e+00     
O    -1.97491886e+00     1.39069828e+00      1.31122013e+00      
H    -2.82259780e+00     1.31083026e+00      8.61066489e-01      
H    -2.21968404e+00     1.59071310e+00      2.22024529e+00      
O    2.56557805e+00      -2.44939640e-02     1.07688602e+00      
H    2.87650927e+00      5.06523521e-01      1.81352315e+00      
H    3.22942345e+00      -7.05122213e-01     9.45181456e-01      
O    -9.16010490e-01     -2.24489325e+00     -1.29422773e+00     
H    -1.82038633e+00     -2.13010137e+00     -1.60487824e+00     
H    -8.24488282e-01     -3.19946617e+00     -1.21263730e+00     
20
1653.219619
N    2.19037288e-03      1.53942631e-02      -2.05910934e-02     
H    9.07253903e-01      -8.09871244e-02     4.81734828e-01      
H    -3.38533348e-01     -9.13190678e-01     -3.53313422e-01     
H    -7.27675219e-01     4.22866430e-01      6.04172089e-01      
C    2.04112819e-01      9.05817648e-01      -1.18100514e+00     
H    5.48160765e-01      1.88015282e+00      -8.42365818e-01     
H    9.55168279e-01      4.82756987e-01      -1.84380983e+00     
C    -1.10724087e+00     1.05129297e+00      -1.91695897e+00     
O    -2.14209249e+00     5.13239157e-01      -1.58675485e+00     
O    -9.51785846e-01     1.85282865e+00      -2.97222742e+00     
H    -1.81551130e+00     1.92062908e+00      -3.41787032e+00     
O    -1.97547977e+00     1.39077875e+00      1.31146153e+00      
H    -2.81966583e+00     1.30966858e+00      8.56016100e-01      
H    -2.21394702e+00     1.59078652e+00      2.22163468e+00      
O    2.56542314e+00      -2.44708048e-02     1.07679075e+00      
H    2.87792381e+00      5.05523324e-01      1.81364330e+00      
H    3.23035470e+00      -7.04463166e-01     9.46490719e-01      
O    -9.16419482e-01     -2.24533435e+00     -1.29436011e+00     
H    -1.81950798e+00     -2.12421239e+00     -1.60487573e+00     
H    -8.18970653e-01     -3.19863970e+00     -1.21070826e+00     
20
1653.219619
N    1.98453600e-03      1.54086359e-02      -2.06948052e-02     
H    9.04586539e-01      -8.40087046e-02     4.84867012e-01      
H    -3.32094104e-01     -9.15085552e-01     -3.56550368e-01     
H    -7.23455457e-01     4.28591734e-01      6.06396159e-01      
C    2.03558871e-01      9.05846742e-01      -1.18127088e+00     
H    5.49015631e-01      1.87936682e+00      -8.41808658e-01     
H    9.55791471e-01      4.82766399e-01      -1.84268265e+00     
C    -1.10676579e+00     1.05134815e+00      -1.91684289e+00     
O    -2.14231685e+00     5.13143017e-01      -1.58671189e+00     
O    -9.51808100e-01     1.85285981e+00      -2.97227994e+00     
H    -1.81550460e+00     1.92070362e+00      -3.41797162e+00     
O    -1.97772341e+00     1.39110065e+00      1.31242713e+00      
H    -2.80793797e+00     1.30502188e+00      8.35814542e-01      
H    -2.19099892e+00     1.59108020e+00      2.22719220e+00      
O    2.56480350e+00      -2.43781680e-02     1.07640965e+00      
H    2.88358195e+00      5.01522536e-01      1.81412388e+00      
H    3.23407970e+00      -7.01826982e-01     9.51727769e-01      
O    -9.18055450e-01     -2.24709871e+00     -1.29488963e+00     
H    -1.81599458e+00     -2.10065649e+00     -1.60486571e+00     
H    -7.96900137e-01     -3.19533380e+00     -1.20299208e+00     
20
1653.219619
N    1.93307678e-03      1.54122290e-02      -2.07207332e-02     
H    9.03919699e-01      -8.47640996e-02     4.85650058e-01      
H    -3.30484294e-01     -9.15559271e-01     -3.57359605e-01     
H    -7.22400516e-01     4.30023061e-01      6.06952177e-01      
C    2.03420384e-01      9.05854015e-01      -1.18133731e+00     
H    5.49229347e-01      1.87917032e+00      -8.41669368e-01     
H    9.55947270e-01      4.82768752e-01      -1.84240085e+00     
C    -1.10664702e+00     1.05136195e+00      -1.91681387e+00     
O    -2.14237295e+00     5.13118982e-01      -1.58670115e+00     
O    -9.51813663e-01     1.85286760e+00      -2.97229307e+00     
H    -1.81550293e+00     1.92072226e+00      -3.41799694e+00     
O    -1.97828432e+00     1.39118112e+00      1.31266853e+00      
H    -2.80500600e+00     1.30386020e+00      8.30764153e-01      
H    -2.18526190e+00     1.59115362e+00      2.22858159e+00      
O    2.56464859e+00      -2.43550088e-02     1.07631438e+00      
H    2.88499649e+00      5.00522339e-01      1.81424403e+00      
H    3.23501095e+00      -7.01167935e-01     9.53037032e-01      
O    -9.18464442e-01     -2.24753981e+00     -1.29502201e+00     
H    -1.81511623e+00     -2.09476751e+00     -1.60486320e+00     
H    -7.91382508e-01     -3.19450733e+00     -1.20106304e+00     
20
1653.219619
N    1.88161755e-03      1.54158222e-02      -2.07466611e-02     
H    9.03252858e-01      -8.55194947e-02     4.86433104e-01      
H    -3.28874483e-01     -9.16032989e-01     -3.58168841e-01     
H    -7.21345575e-01     4.31454387e-01      6.07508194e-01      
C    2.03281897e-01      9.05861289e-01      -1.18140374e+00     
H    5.49443064e-01      1.87897382e+00      -8.41530078e-01     
H    9.56103068e-01      4.82771104e-01      -1.84211905e+00     
C    -1.10652825e+00     1.05137575e+00      -1.91678486e+00     
O    -2.14242904e+00     5.13094948e-01      -1.58669041e+00     
O    -9.51819227e-01     1.85287539e+00      -2.97230620e+00     
H    -1.81550126e+00     1.92074089e+00      -3.41802227e+00     
O    -1.97884523e+00     1.39126159e+00      1.31290993e+00      
H    -2.80207404e+00     1.30269852e+00      8.25713764e-01      
H    -2.17952487e+00     1.59122704e+00      2.22997097e+00      
O    2.56449368e+00      -2.43318495e-02     1.07621910e+00      
H    2.88641102e+00      4.99522142e-01      1.81436417e+00      
H    3.23594220e+00      -7.00508889e-01     9.54346294e-01      
O    -9.18873434e-01     -2.24798090e+00     -1.29515440e+00     
H    -1.81423788e+00     -2.08887853e+00     -1.60486070e+00     
H    -7.85864879e-01     -3.19368085e+00     -1.19913400e+00     
20
1653.219619
N    1.77869911e-03      1.54230086e-02      -2.07985171e-02     
H    9.01919176e-01      -8.70302848e-02     4.87999196e-01      
H    -3.25654861e-01     -9.16980427e-01     -3.59787314e-01     
H    -7.19235694e-01     4.34317039e-01      6.08620229e-01      
C    2.03004923e-01      9.05875836e-01      -1.18153661e+00     
H    5.49870496e-01      1.87858082e+00      -8.41251498e-01     
H    9.56414664e-01      4.82775810e-01      -1.84155546e+00     
C    -1.10629071e+00     1.05140334e+00      -1.91672682e+00     
O    -2.14254122e+00     5.13046878e-01      -1.58666893e+00     
O    -9.51830353e-01     1.85289097e+00      -2.97233246e+00     
H    -1.81549791e+00     1.92077817e+00      -3.41807292e+00     
O    -1.97996705e+00     1.39142254e+00      1.31339273e+00      
H    -2.79621011e+00     1.30037517e+00      8.15612985e-01      
H    -2.16805083e+00     1.59137388e+00      2.23274973e+00      
O    2.56418386e+00      -2.42855311e-02     1.07602855e+00      
H    2.88924010e+00      4.97521748e-01      1.81460446e+00      
H    3.23780470e+00      -6.99190797e-01     9.56964819e-01      
O    -9.19691419e-01     -2.24886308e+00     -1.29541916e+00     
H    -1.81248118e+00     -2.07710058e+00     -1.60485569e+00     
H    -7.74829620e-01     -3.19202790e+00     -1.19527591e+00     
20
1653.219619
N    1.67578067e-03      1.54301949e-02      -2.08503730e-02     
H    9.00585494e-01      -8.85410749e-02     4.89565288e-01      
H    -3.22435239e-01     -9.17927864e-01     -3.61405788e-01     
H    -7.17125813e-01     4.37179691e-01      6.09732264e-01      
C    2.02727949e-01      9.05890383e-01      -1.18166948e+00     
H    5.50297929e-01      1.87818782e+00      -8.40972919e-01     
H    9.56726261e-01      4.82780516e-01      -1.84099186e+00     
C    -1.10605317e+00     1.05143094e+00      -1.91666878e+00     
O    -2.14265341e+00     5.12998808e-01      -1.58664745e+00     
O    -9.51841480e-01     1.85290655e+00      -2.97235872e+00     
H    -1.81549457e+00     1.92081544e+00      -3.41812357e+00     
O    -1.98108887e+00     1.39158349e+00      1.31387553e+00      
H    -2.79034618e+00     1.29805181e+00      8.05512206e-01      
H    -2.15657678e+00     1.59152072e+00      2.23552850e+00      
O    2.56387404e+00      -2.42392127e-02     1.07583801e+00      
H    2.89206917e+00      4.95521354e-01      1.81484475e+00      
H    3.23966720e+00      -6.97872704e-01     9.59583344e-01      
O    -9.20509403e-01     -2.24974527e+00     -1.29568392e+00     
H    -1.81072448e+00     -2.06532262e+00     -1.60485068e+00     
H    -7.63794362e-01     -3.19037495e+00     -1.19141782e+00     
20
1653.219619
N    1.57286223e-03      1.54373813e-02      -2.09022289e-02     
H    8.99251813e-01      -9.00518650e-02     4.91131381e-01      
H    -3.19215618e-01     -9.18875301e-01     -3.63024261e-01     
H    -7.15015932e-01     4.40042344e-01      6.10844299e-01      
C    2.02450975e-01      9.05904930e-01      -1.18180234e+00     
H    5.50725362e-01      1.87779482e+00      -8.40694339e-01     
H    9.57037857e-01      4.82785221e-01      -1.84042827e+00     
C    -1.10581563e+00     1.05145853e+00      -1.91661074e+00     
O    -2.14276559e+00     5.12950739e-01      -1.58662597e+00     
O    -9.51852607e-01     1.85292212e+00      -2.97238498e+00     
H    -1.81549122e+00     1.92085271e+00      -3.41817422e+00     
O    -1.98221069e+00     1.39174443e+00      1.31435833e+00      
H    -2.78448225e+00     1.29572846e+00      7.95411428e-01      
H    -2.14510273e+00     1.59166756e+00      2.23830726e+00      
O    2.56356422e+00      -2.41928942e-02     1.07564746e+00      
H    2.89489824e+00      4.93520961e-01      1.81508504e+00      
H    3.24152970e+00      -6.96554612e-01     9.62201869e-01      
O    -9.21327387e-01     -2.25062745e+00     -1.29594868e+00     
H    -1.80896778e+00     -2.05354467e+00     -1.60484567e+00     
H    -7.52759104e-01     -3.18872200e+00     -1.18755974e+00     
20
1653.219619
N    1.46994378e-03      1.54445677e-02      -2.09540848e-02     
H    8.97918131e-01      -9.15626551e-02     4.92697473e-01      
H    -3.15995996e-01     -9.19822738e-01     -3.64642734e-01     
H    -7.12906050e-01     4.42904996e-01      6.11956335e-01      
C    2.02174001e-01      9.05919476e-01      -1.18193521e+00     
H    5.51152795e-01      1.87740183e+00      -8.40415759e-01     
H    9.57349454e-01      4.82789927e-01      -1.83986468e+00     
C    -1.10557809e+00     1.05148613e+00      -1.91655271e+00     
O    -2.14287778e+00     5.12902669e-01      -1.58660449e+00     
O    -9.51863734e-01     1.85293770e+00      -2.97241124e+00     
H    -1.81548787e+00     1.92088998e+00      -3.41822487e+00     
O    -1.98333251e+00     1.39190538e+00      1.31484113e+00      
H    -2.77861832e+00     1.29340510e+00      7.85310649e-01      
H    -2.13362868e+00     1.59181440e+00      2.24108602e+00      
O    2.56325440e+00      -2.41465758e-02     1.07545691e+00      
H    2.89772731e+00      4.91520567e-01      1.81532533e+00      
H    3.24339220e+00      -6.95236520e-01     9.64820394e-01      
O    -9.22145371e-01     -2.25150963e+00     -1.29621345e+00     
H    -1.80721108e+00     -2.04176671e+00     -1.60484066e+00     
H    -7.41723846e-01     -3.18706905e+00     -1.18370165e+00     
20
1653.219619
N    1.26410690e-03      1.54589404e-02      -2.10577967e-02     
H    8.95250768e-01      -9.45842352e-02     4.95829657e-01      
H    -3.09556753e-01     -9.21717613e-01     -3.67879680e-01     
H    -7.08686288e-01     4.48630301e-01      6.14180405e-01      
C    2.01620054e-01      9.05948570e-01      -1.18220094e+00     
H    5.52007660e-01      1.87661583e+00      -8.39858599e-01     
H    9.57972647e-01      4.82799339e-01      -1.83873749e+00     
C    -1.10510300e+00     1.05154131e+00      -1.91643663e+00     
O    -2.14310215e+00     5.12806530e-01      -1.58656152e+00     
O    -9.51885987e-01     1.85296886e+00      -2.97246377e+00     
H    -1.81548118e+00     1.92096453e+00      -3.41832616e+00     
O    -1.98557614e+00     1.39222727e+00      1.31580673e+00      
H    -2.76689046e+00     1.28875839e+00      7.65109092e-01      
H    -2.11068059e+00     1.59210807e+00      2.24664355e+00      
O    2.56263477e+00      -2.40539390e-02     1.07507581e+00      
H    2.90338546e+00      4.87519779e-01      1.81580591e+00      
H    3.24711720e+00      -6.92600335e-01     9.70057444e-01      
O    -9.23781340e-01     -2.25327400e+00     -1.29674297e+00     
H    -1.80369768e+00     -2.01821081e+00     -1.60483064e+00     
H    -7.19653329e-01     -3.18376315e+00     -1.17598548e+00     
