20
3003.372184
N    6.21492799e-03      2.10448793e-02      -2.68398938e-02     
H    9.77806068e-01      -9.22744018e-02     5.26158739e-01      
H    -3.74944162e-01     -1.03015924e+00     -3.91560007e-01     
H    -8.12835860e-01     4.73278190e-01      6.85877579e-01      
C    2.03503156e-01      9.05821448e-01      -1.18125824e+00     
H    5.50300439e-01      1.88193129e+00      -8.39044176e-01     
H    9.58596407e-01      4.80111491e-01      -1.84365862e+00     
C    -1.10739366e+00     1.05141969e+00      -1.91719789e+00     
O    -2.14208012e+00     5.13189005e-01      -1.58667984e+00     
O    -9.51860033e-01     1.85280011e+00      -2.97221774e+00     
H    -1.81325514e+00     1.92045442e+00      -3.41670967e+00     
O    -1.97643505e+00     1.39095782e+00      1.31196384e+00      
H    -2.81659730e+00     1.30790106e+00      8.46012852e-01      
H    -2.20407668e+00     1.59195876e+00      2.22487029e+00      
O    2.56502134e+00      -2.44210850e-02     1.07655807e+00      
H    2.88185454e+00      5.03424401e-01      1.81405973e+00      
H    3.23321200e+00      -7.02876765e-01     9.49548274e-01      
O    -9.17076899e-01     -2.24617788e+00     -1.29459065e+00     
H    -1.82002197e+00     -2.11368032e+00     -1.60606438e+00     
H    -8.08875891e-01     -3.19823851e+00     -1.20802525e+00     
20
3003.372184
N    5.18305960e-03      1.96340219e-02      -2.52906577e-02     
H    9.59834606e-01      -8.98302800e-02     5.15444284e-01      
H    -3.65036553e-01     -1.00115396e+00     -3.82402979e-01     
H    -7.91018230e-01     4.61390913e-01      6.65729215e-01      
C    2.03586329e-01      9.05824135e-01      -1.18122818e+00     
H    5.49872379e-01      1.88138842e+00      -8.39804942e-01     
H    9.57817274e-01      4.80774042e-01      -1.84355552e+00     
C    -1.10729608e+00     1.05139491e+00      -1.91712365e+00     
O    -2.14211125e+00     5.13189526e-01      -1.58669322e+00     
O    -9.51844268e-01     1.85281114e+00      -2.97222673e+00     
H    -1.81381834e+00     1.92050740e+00      -3.41701249e+00     
O    -1.97647668e+00     1.39095329e+00      1.31195896e+00      
H    -2.81589845e+00     1.30776210e+00      8.45988469e-01      
H    -2.20367575e+00     1.59170241e+00      2.22475607e+00      
O    2.56504434e+00      -2.44219354e-02     1.07656860e+00      
H    2.88157912e+00      5.03449033e-01      1.81401569e+00      
H    3.23296330e+00      -7.02943843e-01     9.49438517e-01      
O    -9.17117041e-01     -2.24618754e+00     -1.29459920e+00     
H    -1.81945430e+00     -2.11336885e+00     -1.60576597e+00     
H    -8.08640767e-01     -3.19792557e+00     -1.20773148e+00     
20
3003.372184
N    4.66712541e-03      1.89285931e-02      -2.45160396e-02     
H    9.50848875e-01      -8.86082191e-02     5.10087057e-01      
H    -3.60082749e-01     -9.86651318e-01     -3.77824465e-01     
H    -7.80109414e-01     4.55447275e-01      6.55655033e-01      
C    2.03627915e-01      9.05825478e-01      -1.18121315e+00     
H    5.49658349e-01      1.88111699e+00      -8.40185324e-01     
H    9.57427708e-01      4.81105317e-01      -1.84350397e+00     
C    -1.10724729e+00     1.05138251e+00      -1.91708653e+00     
O    -2.14212682e+00     5.13189786e-01      -1.58669991e+00     
O    -9.51836385e-01     1.85281666e+00      -2.97223122e+00     
H    -1.81409994e+00     1.92053390e+00      -3.41716391e+00     
O    -1.97649750e+00     1.39095102e+00      1.31195652e+00      
H    -2.81554902e+00     1.30769262e+00      8.45976278e-01      
H    -2.20347529e+00     1.59157424e+00      2.22469897e+00      
O    2.56505583e+00      -2.44223605e-02     1.07657387e+00      
H    2.88144142e+00      5.03461349e-01      1.81399368e+00      
H    3.23283895e+00      -7.02977381e-01     9.49383638e-01      
O    -9.17137111e-01     -2.24619238e+00     -1.29460348e+00     
H    -1.81917046e+00     -2.11321311e+00     -1.60561676e+00     
H    -8.08523205e-01     -3.19776910e+00     -1.20758460e+00     
20
3003.372184
N    4.15119121e-03      1.82231644e-02      -2.37414216e-02     
H    9.41863144e-01      -8.73861582e-02     5.04729829e-01      
H    -3.55128944e-01     -9.72148677e-01     -3.73245951e-01     
H    -7.69200599e-01     4.49503636e-01      6.45580851e-01      
C    2.03669501e-01      9.05826822e-01      -1.18119812e+00     
H    5.49444318e-01      1.88084555e+00      -8.40565707e-01     
H    9.57038141e-01      4.81436592e-01      -1.84345243e+00     
C    -1.10719850e+00     1.05137012e+00      -1.91704941e+00     
O    -2.14214239e+00     5.13190046e-01      -1.58670661e+00     
O    -9.51828503e-01     1.85282217e+00      -2.97223571e+00     
H    -1.81438154e+00     1.92056039e+00      -3.41731532e+00     
O    -1.97651832e+00     1.39094876e+00      1.31195409e+00      
H    -2.81519960e+00     1.30762314e+00      8.45964086e-01      
H    -2.20327482e+00     1.59144606e+00      2.22464186e+00      
O    2.56506733e+00      -2.44227857e-02     1.07657913e+00      
H    2.88130371e+00      5.03473665e-01      1.81397166e+00      
H    3.23271460e+00      -7.03010920e-01     9.49328759e-01      
O    -9.17157182e-01     -2.24619721e+00     -1.29460776e+00     
H    -1.81888662e+00     -2.11305738e+00     -1.60546755e+00     
H    -8.08405643e-01     -3.19761263e+00     -1.20743771e+00     
20
3003.372184
N    3.63525702e-03      1.75177357e-02      -2.29668035e-02     
H    9.32877413e-01      -8.61640972e-02     4.99372602e-01      
H    -3.50175140e-01     -9.57646037e-01     -3.68667437e-01     
H    -7.58291784e-01     4.43559998e-01      6.35506670e-01      
C    2.03711087e-01      9.05828165e-01      -1.18118309e+00     
H    5.49230288e-01      1.88057412e+00      -8.40946090e-01     
H    9.56648575e-01      4.81767867e-01      -1.84340088e+00     
C    -1.10714970e+00     1.05135773e+00      -1.91701229e+00     
O    -2.14215796e+00     5.13190306e-01      -1.58671330e+00     
O    -9.51820620e-01     1.85282769e+00      -2.97224020e+00     
H    -1.81466315e+00     1.92058688e+00      -3.41746673e+00     
O    -1.97653914e+00     1.39094649e+00      1.31195165e+00      
H    -2.81485017e+00     1.30755366e+00      8.45951895e-01      
H    -2.20307436e+00     1.59131789e+00      2.22458476e+00      
O    2.56507883e+00      -2.44232109e-02     1.07658440e+00      
H    2.88116600e+00      5.03485982e-01      1.81394964e+00      
H    3.23259025e+00      -7.03044458e-01     9.49273880e-01      
O    -9.17177253e-01     -2.24620204e+00     -1.29461204e+00     
H    -1.81860279e+00     -2.11290164e+00     -1.60531834e+00     
H    -8.08288081e-01     -3.19745616e+00     -1.20729083e+00     
20
3003.372184
N    3.11932283e-03      1.68123070e-02      -2.21921854e-02     
H    9.23891683e-01      -8.49420363e-02     4.94015375e-01      
H    -3.45221335e-01     -9.43143396e-01     -3.64088923e-01     
H    -7.47382969e-01     4.37616359e-01      6.25432488e-01      
C    2.03752673e-01      9.05829508e-01      -1.18116807e+00     
H    5.49016258e-01      1.88030269e+00      -8.41326473e-01     
H    9.56259008e-01      4.82099143e-01      -1.84334933e+00     
C    -1.10710091e+00     1.05134534e+00      -1.91697517e+00     
O    -2.14217353e+00     5.13190567e-01      -1.58671999e+00     
O    -9.51812738e-01     1.85283320e+00      -2.97224470e+00     
H    -1.81494475e+00     1.92061337e+00      -3.41761814e+00     
O    -1.97655995e+00     1.39094423e+00      1.31194921e+00      
H    -2.81450075e+00     1.30748419e+00      8.45939704e-01      
H    -2.20287390e+00     1.59118971e+00      2.22452765e+00      
O    2.56509033e+00      -2.44236361e-02     1.07658967e+00      
H    2.88102829e+00      5.03498298e-01      1.81392762e+00      
H    3.23246590e+00      -7.03077997e-01     9.49219002e-01      
O    -9.17197324e-01     -2.24620687e+00     -1.29461631e+00     
H    -1.81831895e+00     -2.11274591e+00     -1.60516914e+00     
H    -8.08170519e-01     -3.19729969e+00     -1.20714394e+00     
20
3003.372184
N    2.86135573e-03      1.64595926e-02      -2.18048764e-02     
H    9.19398817e-01      -8.43310059e-02     4.91336761e-01      
H    -3.42744433e-01     -9.35892076e-01     -3.61799666e-01     
H    -7.41928561e-01     4.34644540e-01      6.20395397e-01      
C    2.03773466e-01      9.05830180e-01      -1.18116055e+00     
H    5.48909243e-01      1.88016697e+00      -8.41516664e-01     
H    9.56064225e-01      4.82264780e-01      -1.84332356e+00     
C    -1.10707652e+00     1.05133915e+00      -1.91695661e+00     
O    -2.14218132e+00     5.13190697e-01      -1.58672333e+00     
O    -9.51808797e-01     1.85283596e+00      -2.97224694e+00     
H    -1.81508555e+00     1.92062661e+00      -3.41769385e+00     
O    -1.97657036e+00     1.39094310e+00      1.31194799e+00      
H    -2.81432604e+00     1.30744945e+00      8.45933608e-01      
H    -2.20277367e+00     1.59112562e+00      2.22449910e+00      
O    2.56509607e+00      -2.44238486e-02     1.07659230e+00      
H    2.88095944e+00      5.03504456e-01      1.81391662e+00      
H    3.23240373e+00      -7.03094766e-01     9.49191562e-01      
O    -9.17207360e-01     -2.24620928e+00     -1.29461845e+00     
H    -1.81817703e+00     -2.11266804e+00     -1.60509453e+00     
H    -8.08111738e-01     -3.19722146e+00     -1.20707050e+00     
20
3003.372184
N    2.60338863e-03      1.61068782e-02      -2.14175674e-02     
H    9.14905952e-01      -8.37199754e-02     4.88658147e-01      
H    -3.40267531e-01     -9.28640756e-01     -3.59510409e-01     
H    -7.36474153e-01     4.31672721e-01      6.15358306e-01      
C    2.03794259e-01      9.05830852e-01      -1.18115304e+00     
H    5.48802228e-01      1.88003125e+00      -8.41706855e-01     
H    9.55869442e-01      4.82430418e-01      -1.84329779e+00     
C    -1.10705212e+00     1.05133295e+00      -1.91693805e+00     
O    -2.14218910e+00     5.13190827e-01      -1.58672668e+00     
O    -9.51804855e-01     1.85283872e+00      -2.97224919e+00     
H    -1.81522635e+00     1.92063986e+00      -3.41776956e+00     
O    -1.97658077e+00     1.39094196e+00      1.31194677e+00      
H    -2.81415132e+00     1.30741471e+00      8.45927512e-01      
H    -2.20267343e+00     1.59106154e+00      2.22447055e+00      
O    2.56510182e+00      -2.44240612e-02     1.07659493e+00      
H    2.88089059e+00      5.03510614e-01      1.81390561e+00      
H    3.23234155e+00      -7.03111535e-01     9.49164123e-01      
O    -9.17217395e-01     -2.24621170e+00     -1.29462059e+00     
H    -1.81803512e+00     -2.11259017e+00     -1.60501993e+00     
H    -8.08052957e-01     -3.19714322e+00     -1.20699706e+00     
20
3003.372184
N    1.57152025e-03      1.46960208e-02      -1.98683312e-02     
H    8.96934490e-01      -8.12758536e-02     4.77943693e-01      
H    -3.30359921e-01     -8.99635474e-01     -3.50353381e-01     
H    -7.14656523e-01     4.19785443e-01      5.95209942e-01      
C    2.03877431e-01      9.05833538e-01      -1.18112298e+00     
H    5.48374168e-01      1.87948839e+00      -8.42467621e-01     
H    9.55090308e-01      4.83092968e-01      -1.84319469e+00     
C    -1.10695454e+00     1.05130817e+00      -1.91686381e+00     
O    -2.14222024e+00     5.13191347e-01      -1.58674006e+00     
O    -9.51789091e-01     1.85284974e+00      -2.97225817e+00     
H    -1.81578955e+00     1.92069284e+00      -3.41807238e+00     
O    -1.97662241e+00     1.39093744e+00      1.31194189e+00      
H    -2.81345248e+00     1.30727575e+00      8.45903130e-01      
H    -2.20227251e+00     1.59080518e+00      2.22435633e+00      
O    2.56512482e+00      -2.44249116e-02     1.07660547e+00      
H    2.88061517e+00      5.03535246e-01      1.81386157e+00      
H    3.23209285e+00      -7.03178613e-01     9.49054365e-01      
O    -9.17257537e-01     -2.24622136e+00     -1.29462915e+00     
H    -1.81746744e+00     -2.11227871e+00     -1.60472151e+00     
H    -8.07817833e-01     -3.19683028e+00     -1.20670328e+00     
20
3003.372184
N    1.31355315e-03      1.43433064e-02      -1.94810222e-02     
H    8.92441625e-01      -8.06648231e-02     4.75265079e-01      
H    -3.27883019e-01     -8.92384154e-01     -3.48064124e-01     
H    -7.09202115e-01     4.16813624e-01      5.90172851e-01      
C    2.03898224e-01      9.05834210e-01      -1.18111547e+00     
H    5.48267153e-01      1.87935267e+00      -8.42657812e-01     
H    9.54895525e-01      4.83258606e-01      -1.84316892e+00     
C    -1.10693014e+00     1.05130197e+00      -1.91684525e+00     
O    -2.14222802e+00     5.13191477e-01      -1.58674341e+00     
O    -9.51785149e-01     1.85285250e+00      -2.97226042e+00     
H    -1.81593035e+00     1.92070609e+00      -3.41814809e+00     
O    -1.97663282e+00     1.39093630e+00      1.31194067e+00      
H    -2.81327776e+00     1.30724101e+00      8.45897034e-01      
H    -2.20217227e+00     1.59074110e+00      2.22432778e+00      
O    2.56513057e+00      -2.44251242e-02     1.07660810e+00      
H    2.88054632e+00      5.03541404e-01      1.81385056e+00      
H    3.23203067e+00      -7.03195382e-01     9.49026926e-01      
O    -9.17267572e-01     -2.24622378e+00     -1.29463129e+00     
H    -1.81732553e+00     -2.11220084e+00     -1.60464691e+00     
H    -8.07759052e-01     -3.19675204e+00     -1.20662984e+00     
20
3003.372184
N    1.05558605e-03      1.39905920e-02      -1.90937132e-02     
H    8.87948759e-01      -8.00537927e-02     4.72586465e-01      
H    -3.25406117e-01     -8.85132834e-01     -3.45774867e-01     
H    -7.03747707e-01     4.13841805e-01      5.85135760e-01      
C    2.03919017e-01      9.05834882e-01      -1.18110795e+00     
H    5.48160138e-01      1.87921695e+00      -8.42848003e-01     
H    9.54700742e-01      4.83424243e-01      -1.84314315e+00     
C    -1.10690575e+00     1.05129578e+00      -1.91682669e+00     
O    -2.14223581e+00     5.13191607e-01      -1.58674675e+00     
O    -9.51781208e-01     1.85285526e+00      -2.97226266e+00     
H    -1.81607115e+00     1.92071933e+00      -3.41822380e+00     
O    -1.97664323e+00     1.39093517e+00      1.31193945e+00      
H    -2.81310305e+00     1.30720627e+00      8.45890938e-01      
H    -2.20207204e+00     1.59067701e+00      2.22429923e+00      
O    2.56513631e+00      -2.44253367e-02     1.07661073e+00      
H    2.88047747e+00      5.03547562e-01      1.81383956e+00      
H    3.23196850e+00      -7.03212151e-01     9.48999486e-01      
O    -9.17277608e-01     -2.24622619e+00     -1.29463343e+00     
H    -1.81718361e+00     -2.11212297e+00     -1.60457230e+00     
H    -8.07700271e-01     -3.19667381e+00     -1.20655640e+00     
20
3003.372184
N    5.39651859e-04      1.32851633e-02      -1.83190951e-02     
H    8.78963029e-01      -7.88317318e-02     4.67229238e-01      
H    -3.20452312e-01     -8.70630193e-01     -3.41196353e-01     
H    -6.92838892e-01     4.07898166e-01      5.75061578e-01      
C    2.03960603e-01      9.05836225e-01      -1.18109293e+00     
H    5.47946108e-01      1.87894552e+00      -8.43228386e-01     
H    9.54311175e-01      4.83755519e-01      -1.84309160e+00     
C    -1.10685696e+00     1.05128339e+00      -1.91678957e+00     
O    -2.14225138e+00     5.13191868e-01      -1.58675344e+00     
O    -9.51773326e-01     1.85286077e+00      -2.97226716e+00     
H    -1.81635275e+00     1.92074582e+00      -3.41837521e+00     
O    -1.97666404e+00     1.39093291e+00      1.31193701e+00      
H    -2.81275363e+00     1.30713680e+00      8.45878747e-01      
H    -2.20187158e+00     1.59054883e+00      2.22424212e+00      
O    2.56514781e+00      -2.44257619e-02     1.07661600e+00      
H    2.88033976e+00      5.03559878e-01      1.81381754e+00      
H    3.23184415e+00      -7.03245690e-01     9.48944608e-01      
O    -9.17297679e-01     -2.24623102e+00     -1.29463770e+00     
H    -1.81689977e+00     -2.11196724e+00     -1.60442310e+00     
H    -8.07582709e-01     -3.19651734e+00     -1.20640951e+00     
20
3003.372184
N    2.37176657e-05      1.25797346e-02      -1.75444770e-02     
H    8.69977298e-01      -7.76096708e-02     4.61872011e-01      
H    -3.15498508e-01     -8.56127553e-01     -3.36617839e-01     
H    -6.81930077e-01     4.01954528e-01      5.64987397e-01      
C    2.04002189e-01      9.05837568e-01      -1.18107790e+00     
H    5.47732078e-01      1.87867409e+00      -8.43608769e-01     
H    9.53921609e-01      4.84086794e-01      -1.84304005e+00     
C    -1.10680816e+00     1.05127100e+00      -1.91675245e+00     
O    -2.14226695e+00     5.13192128e-01      -1.58676013e+00     
O    -9.51765443e-01     1.85286629e+00      -2.97227165e+00     
H    -1.81663436e+00     1.92077231e+00      -3.41852662e+00     
O    -1.97668486e+00     1.39093064e+00      1.31193457e+00      
H    -2.81240420e+00     1.30706732e+00      8.45866556e-01      
H    -2.20167112e+00     1.59042066e+00      2.22418502e+00      
O    2.56515931e+00      -2.44261871e-02     1.07662127e+00      
H    2.88020205e+00      5.03572195e-01      1.81379552e+00      
H    3.23171980e+00      -7.03279228e-01     9.48889729e-01      
O    -9.17317750e-01     -2.24623585e+00     -1.29464198e+00     
H    -1.81661594e+00     -2.11181150e+00     -1.60427389e+00     
H    -8.07465147e-01     -3.19636087e+00     -1.20626263e+00     
20
3003.372184
N    -4.92216528e-04     1.18743059e-02      -1.67698590e-02     
H    8.60991567e-01      -7.63876099e-02     4.56514783e-01      
H    -3.10544703e-01     -8.41624912e-01     -3.32039325e-01     
H    -6.71021262e-01     3.96010889e-01      5.54913215e-01      
C    2.04043775e-01      9.05838912e-01      -1.18106287e+00     
H    5.47518047e-01      1.87840265e+00      -8.43989152e-01     
H    9.53532042e-01      4.84418069e-01      -1.84298851e+00     
C    -1.10675937e+00     1.05125861e+00      -1.91671533e+00     
O    -2.14228252e+00     5.13192388e-01      -1.58676683e+00     
O    -9.51757561e-01     1.85287180e+00      -2.97227614e+00     
H    -1.81691596e+00     1.92079880e+00      -3.41867803e+00     
O    -1.97670568e+00     1.39092838e+00      1.31193214e+00      
H    -2.81205478e+00     1.30699784e+00      8.45854364e-01      
H    -2.20147065e+00     1.59029248e+00      2.22412791e+00      
O    2.56517081e+00      -2.44266123e-02     1.07662653e+00      
H    2.88006434e+00      5.03584511e-01      1.81377350e+00      
H    3.23159545e+00      -7.03312767e-01     9.48834850e-01      
O    -9.17337821e-01     -2.24624068e+00     -1.29464626e+00     
H    -1.81633210e+00     -2.11165577e+00     -1.60412468e+00     
H    -8.07347585e-01     -3.19620440e+00     -1.20611574e+00     
20
3003.372184
N    -1.00815072e-03     1.11688771e-02      -1.59952409e-02     
H    8.52005836e-01      -7.51655490e-02     4.51157556e-01      
H    -3.05590899e-01     -8.27122272e-01     -3.27460811e-01     
H    -6.60112446e-01     3.90067251e-01      5.44839033e-01      
C    2.04085361e-01      9.05840255e-01      -1.18104784e+00     
H    5.47304017e-01      1.87813122e+00      -8.44369534e-01     
H    9.53142476e-01      4.84749344e-01      -1.84293696e+00     
C    -1.10671058e+00     1.05124621e+00      -1.91667821e+00     
O    -2.14229809e+00     5.13192648e-01      -1.58677352e+00     
O    -9.51749678e-01     1.85287732e+00      -2.97228063e+00     
H    -1.81719756e+00     1.92082530e+00      -3.41882945e+00     
O    -1.97672650e+00     1.39092611e+00      1.31192970e+00      
H    -2.81170535e+00     1.30692836e+00      8.45842173e-01      
H    -2.20127019e+00     1.59016431e+00      2.22407081e+00      
O    2.56518230e+00      -2.44270374e-02     1.07663180e+00      
H    2.87992664e+00      5.03596827e-01      1.81375149e+00      
H    3.23147110e+00      -7.03346305e-01     9.48779971e-01      
O    -9.17357891e-01     -2.24624552e+00     -1.29465054e+00     
H    -1.81604826e+00     -2.11150003e+00     -1.60397547e+00     
H    -8.07230023e-01     -3.19604793e+00     -1.20596886e+00     
20
3003.372184
N    -2.04001911e-03     9.75801966e-03      -1.44460048e-02     
H    8.34034374e-01      -7.27214272e-02     4.40443101e-01      
H    -2.95683290e-01     -7.98116991e-01     -3.18303783e-01     
H    -6.38294816e-01     3.78179974e-01      5.24690669e-01      
C    2.04168534e-01      9.05842942e-01      -1.18101778e+00     
H    5.46875957e-01      1.87758835e+00      -8.45130300e-01     
H    9.52363343e-01      4.85411895e-01      -1.84283386e+00     
C    -1.10661300e+00     1.05122143e+00      -1.91660397e+00     
O    -2.14232922e+00     5.13193169e-01      -1.58678690e+00     
O    -9.51733913e-01     1.85288835e+00      -2.97228962e+00     
H    -1.81776076e+00     1.92087828e+00      -3.41913227e+00     
O    -1.97676813e+00     1.39092158e+00      1.31192482e+00      
H    -2.81100650e+00     1.30678940e+00      8.45817790e-01      
H    -2.20086926e+00     1.58990796e+00      2.22395659e+00      
O    2.56520530e+00      -2.44278878e-02     1.07664233e+00      
H    2.87965122e+00      5.03621459e-01      1.81370745e+00      
H    3.23122240e+00      -7.03413383e-01     9.48670214e-01      
O    -9.17398033e-01     -2.24625518e+00     -1.29465909e+00     
H    -1.81548059e+00     -2.11118856e+00     -1.60367706e+00     
H    -8.06994899e-01     -3.19573499e+00     -1.20567509e+00     
