20
1653.642520
N    1.95826173e-03      1.58449943e-02      -2.03250925e-02     
H    9.07878664e-01      -8.92222195e-02     4.78482077e-01      
H    -3.34251201e-01     -9.19824471e-01     -3.45966406e-01     
H    -7.26784108e-01     4.31952778e-01      5.96703727e-01      
C    2.03688812e-01      9.06336972e-01      -1.18077627e+00     
H    5.48722441e-01      1.88040609e+00      -8.42739034e-01     
H    9.55294619e-01      4.82290683e-01      -1.84246882e+00     
C    -1.10698187e+00     1.05124690e+00      -1.91695372e+00     
O    -2.14226998e+00     5.13415299e-01      -1.58657269e+00     
O    -9.51786632e-01     1.85280873e+00      -2.97227913e+00     
H    -1.81550038e+00     1.92064036e+00      -3.41793960e+00     
O    -1.96732615e+00     1.38947911e+00      1.30791327e+00      
H    -2.86287077e+00     1.32740809e+00      9.30369471e-01      
H    -2.29868745e+00     1.58945183e+00      2.20113869e+00      
O    2.56509582e+00      -2.43644151e-02     1.07664325e+00      
H    2.88122587e+00      5.03476992e-01      1.81386918e+00      
H    3.23181500e+00      -7.03341864e-01     9.48949775e-01      
O    -9.23943320e-01     -2.25357851e+00     -1.29691647e+00     
H    -1.80325961e+00     -2.01378067e+00     -1.60424732e+00     
H    -7.15314113e-01     -3.18316510e+00     -1.17473168e+00     
20
1653.642520
N    1.99055991e-03      1.57341081e-02      -2.04045567e-02     
H    9.07389054e-01      -8.75411433e-02     4.79686788e-01      
H    -3.34516832e-01     -9.18402882e-01     -3.48207778e-01     
H    -7.26479415e-01     4.30396854e-01      5.98848826e-01      
C    2.03725570e-01      9.06210778e-01      -1.18086670e+00     
H    5.48688880e-01      1.88024452e+00      -8.42576085e-01     
H    9.55340933e-01      4.82408436e-01      -1.84266317e+00     
C    -1.10698723e+00     1.05126531e+00      -1.91694052e+00     
O    -2.14225365e+00     5.13359246e-01      -1.58661286e+00     
O    -9.51789217e-01     1.85281760e+00      -2.97227276e+00     
H    -1.81550227e+00     1.92064686e+00      -3.41793494e+00     
O    -1.96964501e+00     1.38984425e+00      1.30892104e+00      
H    -2.85060356e+00     1.32239238e+00      9.09255933e-01      
H    -2.27463383e+00     1.58982221e+00      2.20695738e+00      
O    2.56510019e+00      -2.43794330e-02     1.07663248e+00      
H    2.88110762e+00      5.03488476e-01      1.81387278e+00      
H    3.23191555e+00      -7.03292666e-01     9.48989642e-01      
O    -9.22266856e-01     -2.25173801e+00     -1.29634357e+00     
H    -1.80688253e+00     -2.03844411e+00     -1.60440317e+00     
H    -7.38469433e-01     -3.18662051e+00     -1.18276130e+00     
20
1653.642520
N    2.00670900e-03      1.56786650e-02      -2.04442888e-02     
H    9.07144248e-01      -8.67006051e-02     4.80289143e-01      
H    -3.34649648e-01     -9.17692088e-01     -3.49328464e-01     
H    -7.26327069e-01     4.29618892e-01      5.99921376e-01      
C    2.03743950e-01      9.06147681e-01      -1.18091192e+00     
H    5.48672100e-01      1.88016374e+00      -8.42494611e-01     
H    9.55364090e-01      4.82467312e-01      -1.84276035e+00     
C    -1.10698992e+00     1.05127452e+00      -1.91693392e+00     
O    -2.14224549e+00     5.13331219e-01      -1.58663294e+00     
O    -9.51790510e-01     1.85282204e+00      -2.97226958e+00     
H    -1.81550322e+00     1.92065010e+00      -3.41793261e+00     
O    -1.97080444e+00     1.39002683e+00      1.30942492e+00      
H    -2.84446995e+00     1.31988452e+00      8.98699165e-01      
H    -2.26260702e+00     1.59000740e+00      2.20986672e+00      
O    2.56510238e+00      -2.43869419e-02     1.07662710e+00      
H    2.88104850e+00      5.03494219e-01      1.81387458e+00      
H    3.23196582e+00      -7.03268068e-01     9.49009576e-01      
O    -9.21428625e-01     -2.25081776e+00     -1.29605712e+00     
H    -1.80869399e+00     -2.05077583e+00     -1.60448110e+00     
H    -7.50047094e-01     -3.18834822e+00     -1.18677612e+00     
20
1653.642520
N    2.02285809e-03      1.56232219e-02      -2.04840209e-02     
H    9.06899443e-01      -8.58600670e-02     4.80891498e-01      
H    -3.34782463e-01     -9.16981293e-01     -3.50449150e-01     
H    -7.26174723e-01     4.28840930e-01      6.00993926e-01      
C    2.03762329e-01      9.06084584e-01      -1.18095714e+00     
H    5.48655320e-01      1.88008295e+00      -8.42413136e-01     
H    9.55387247e-01      4.82526188e-01      -1.84285753e+00     
C    -1.10699260e+00     1.05128373e+00      -1.91692732e+00     
O    -2.14223732e+00     5.13303193e-01      -1.58665303e+00     
O    -9.51791803e-01     1.85282648e+00      -2.97226640e+00     
H    -1.81550417e+00     1.92065335e+00      -3.41793028e+00     
O    -1.97196387e+00     1.39020940e+00      1.30992880e+00      
H    -2.83833634e+00     1.31737666e+00      8.88142396e-01      
H    -2.25058021e+00     1.59019259e+00      2.21277607e+00      
O    2.56510457e+00      -2.43944508e-02     1.07662172e+00      
H    2.88098938e+00      5.03499961e-01      1.81387638e+00      
H    3.23201610e+00      -7.03243469e-01     9.49029509e-01      
O    -9.20590393e-01     -2.24989752e+00     -1.29577067e+00     
H    -1.81050545e+00     -2.06310755e+00     -1.60455902e+00     
H    -7.61624754e-01     -3.19007593e+00     -1.19079093e+00     
20
1653.642520
N    2.03900717e-03      1.55677788e-02      -2.05237530e-02     
H    9.06654637e-01      -8.50195289e-02     4.81493854e-01      
H    -3.34915279e-01     -9.16270499e-01     -3.51569837e-01     
H    -7.26022377e-01     4.28062968e-01      6.02066475e-01      
C    2.03780708e-01      9.06021486e-01      -1.18100236e+00     
H    5.48638539e-01      1.88000217e+00      -8.42331662e-01     
H    9.55410404e-01      4.82585064e-01      -1.84295471e+00     
C    -1.10699528e+00     1.05129294e+00      -1.91692073e+00     
O    -2.14222916e+00     5.13275166e-01      -1.58667311e+00     
O    -9.51793095e-01     1.85283092e+00      -2.97226322e+00     
H    -1.81550511e+00     1.92065660e+00      -3.41792796e+00     
O    -1.97312330e+00     1.39039198e+00      1.31043268e+00      
H    -2.83220273e+00     1.31486880e+00      8.77585627e-01      
H    -2.23855340e+00     1.59037779e+00      2.21568541e+00      
O    2.56510676e+00      -2.44019597e-02     1.07661634e+00      
H    2.88093025e+00      5.03505703e-01      1.81387819e+00      
H    3.23206637e+00      -7.03218870e-01     9.49049443e-01      
O    -9.19752161e-01     -2.24897727e+00     -1.29548422e+00     
H    -1.81231690e+00     -2.07543927e+00     -1.60463695e+00     
H    -7.73202414e-01     -3.19180363e+00     -1.19480574e+00     
20
1653.642520
N    2.05515626e-03      1.55123357e-02      -2.05634851e-02     
H    9.06409832e-01      -8.41789908e-02     4.82096209e-01      
H    -3.35048095e-01     -9.15559704e-01     -3.52690523e-01     
H    -7.25870030e-01     4.27285006e-01      6.03139025e-01      
C    2.03799087e-01      9.05958389e-01      -1.18104757e+00     
H    5.48621759e-01      1.87992139e+00      -8.42250187e-01     
H    9.55433561e-01      4.82643941e-01      -1.84305188e+00     
C    -1.10699796e+00     1.05130214e+00      -1.91691413e+00     
O    -2.14222100e+00     5.13247140e-01      -1.58669320e+00     
O    -9.51794388e-01     1.85283535e+00      -2.97226004e+00     
H    -1.81550606e+00     1.92065985e+00      -3.41792563e+00     
O    -1.97428273e+00     1.39057455e+00      1.31093657e+00      
H    -2.82606912e+00     1.31236095e+00      8.67028858e-01      
H    -2.22652659e+00     1.59056298e+00      2.21859475e+00      
O    2.56510894e+00      -2.44094686e-02     1.07661096e+00      
H    2.88087113e+00      5.03511445e-01      1.81387999e+00      
H    3.23211665e+00      -7.03194271e-01     9.49069377e-01      
O    -9.18913929e-01     -2.24805702e+00     -1.29519777e+00     
H    -1.81412836e+00     -2.08777100e+00     -1.60471487e+00     
H    -7.84780074e-01     -3.19353134e+00     -1.19882055e+00     
20
1653.642520
N    2.06323081e-03      1.54846141e-02      -2.05833511e-02     
H    9.06287429e-01      -8.37587217e-02     4.82397387e-01      
H    -3.35114502e-01     -9.15204307e-01     -3.53250866e-01     
H    -7.25793857e-01     4.26896025e-01      6.03675300e-01      
C    2.03808276e-01      9.05926841e-01      -1.18107018e+00     
H    5.48613369e-01      1.87988099e+00      -8.42209450e-01     
H    9.55445140e-01      4.82673379e-01      -1.84310047e+00     
C    -1.10699931e+00     1.05130675e+00      -1.91691083e+00     
O    -2.14221692e+00     5.13233127e-01      -1.58670324e+00     
O    -9.51795034e-01     1.85283757e+00      -2.97225845e+00     
H    -1.81550653e+00     1.92066148e+00      -3.41792446e+00     
O    -1.97486245e+00     1.39066584e+00      1.31118851e+00      
H    -2.82300231e+00     1.31110702e+00      8.61750474e-01      
H    -2.22051319e+00     1.59065557e+00      2.22004942e+00      
O    2.56511004e+00      -2.44132230e-02     1.07660827e+00      
H    2.88084157e+00      5.03514317e-01      1.81388089e+00      
H    3.23214179e+00      -7.03181972e-01     9.49079344e-01      
O    -9.18494814e-01     -2.24759690e+00     -1.29505455e+00     
H    -1.81503409e+00     -2.09393686e+00     -1.60475383e+00     
H    -7.90568905e-01     -3.19439519e+00     -1.20082795e+00     
20
1653.642520
N    2.07130535e-03      1.54568926e-02      -2.06032172e-02     
H    9.06165026e-01      -8.33384526e-02     4.82698565e-01      
H    -3.35180910e-01     -9.14848910e-01     -3.53811209e-01     
H    -7.25717684e-01     4.26507044e-01      6.04211574e-01      
C    2.03817466e-01      9.05895292e-01      -1.18109279e+00     
H    5.48604978e-01      1.87984060e+00      -8.42168713e-01     
H    9.55456718e-01      4.82702817e-01      -1.84314906e+00     
C    -1.10700065e+00     1.05131135e+00      -1.91690753e+00     
O    -2.14221283e+00     5.13219113e-01      -1.58671328e+00     
O    -9.51795680e-01     1.85283979e+00      -2.97225686e+00     
H    -1.81550700e+00     1.92066310e+00      -3.41792330e+00     
O    -1.97544216e+00     1.39075713e+00      1.31144045e+00      
H    -2.81993551e+00     1.30985309e+00      8.56472090e-01      
H    -2.21449978e+00     1.59074817e+00      2.22150410e+00      
O    2.56511113e+00      -2.44169775e-02     1.07660558e+00      
H    2.88081200e+00      5.03517188e-01      1.81388179e+00      
H    3.23216692e+00      -7.03169673e-01     9.49089310e-01      
O    -9.18075698e-01     -2.24713678e+00     -1.29491132e+00     
H    -1.81593982e+00     -2.10010272e+00     -1.60479280e+00     
H    -7.96357735e-01     -3.19525904e+00     -1.20283536e+00     
20
1653.642520
N    2.10360353e-03      1.53460064e-02      -2.06826814e-02     
H    9.05675416e-01      -8.16573764e-02     4.83903275e-01      
H    -3.35446542e-01     -9.13427320e-01     -3.56052581e-01     
H    -7.25412992e-01     4.24951120e-01      6.06356674e-01      
C    2.03854224e-01      9.05769098e-01      -1.18118323e+00     
H    5.48571418e-01      1.87967904e+00      -8.42005763e-01     
H    9.55503032e-01      4.82820569e-01      -1.84334342e+00     
C    -1.10700601e+00     1.05132977e+00      -1.91689433e+00     
O    -2.14219651e+00     5.13163061e-01      -1.58675346e+00     
O    -9.51798266e-01     1.85284867e+00      -2.97225050e+00     
H    -1.81550890e+00     1.92066960e+00      -3.41791864e+00     
O    -1.97776102e+00     1.39112227e+00      1.31244821e+00      
H    -2.80766829e+00     1.30483737e+00      8.35358552e-01      
H    -2.19044616e+00     1.59111855e+00      2.22732278e+00      
O    2.56511551e+00      -2.44319953e-02     1.07659482e+00      
H    2.88069376e+00      5.03528672e-01      1.81388539e+00      
H    3.23226748e+00      -7.03120475e-01     9.49129178e-01      
O    -9.16399234e-01     -2.24529628e+00     -1.29433842e+00     
H    -1.81956274e+00     -2.12476616e+00     -1.60494864e+00     
H    -8.19513055e-01     -3.19871446e+00     -1.21086498e+00     
20
1653.642520
N    2.11167807e-03      1.53182849e-02      -2.07025475e-02     
H    9.05553013e-01      -8.12371073e-02     4.84204453e-01      
H    -3.35512950e-01     -9.13071923e-01     -3.56612924e-01     
H    -7.25336819e-01     4.24562139e-01      6.06892948e-01      
C    2.03863414e-01      9.05737549e-01      -1.18120584e+00     
H    5.48563027e-01      1.87963865e+00      -8.41965026e-01     
H    9.55514610e-01      4.82850007e-01      -1.84339201e+00     
C    -1.10700735e+00     1.05133437e+00      -1.91689103e+00     
O    -2.14219242e+00     5.13149047e-01      -1.58676350e+00     
O    -9.51798912e-01     1.85285089e+00      -2.97224891e+00     
H    -1.81550937e+00     1.92067122e+00      -3.41791748e+00     
O    -1.97834073e+00     1.39121356e+00      1.31270015e+00      
H    -2.80460149e+00     1.30358344e+00      8.30080168e-01      
H    -2.18443275e+00     1.59121115e+00      2.22877746e+00      
O    2.56511660e+00      -2.44357498e-02     1.07659213e+00      
H    2.88066419e+00      5.03531543e-01      1.81388629e+00      
H    3.23229261e+00      -7.03108176e-01     9.49139144e-01      
O    -9.15980118e-01     -2.24483616e+00     -1.29419519e+00     
H    -1.82046847e+00     -2.13093202e+00     -1.60498761e+00     
H    -8.25301885e-01     -3.19957831e+00     -1.21287239e+00     
20
1653.642520
N    2.11975262e-03      1.52905633e-02      -2.07224135e-02     
H    9.05430610e-01      -8.08168382e-02     4.84505631e-01      
H    -3.35579357e-01     -9.12716526e-01     -3.57173267e-01     
H    -7.25260646e-01     4.24173158e-01      6.07429223e-01      
C    2.03872603e-01      9.05706001e-01      -1.18122845e+00     
H    5.48554637e-01      1.87959825e+00      -8.41924289e-01     
H    9.55526189e-01      4.82879445e-01      -1.84344060e+00     
C    -1.10700870e+00     1.05133898e+00      -1.91688773e+00     
O    -2.14218834e+00     5.13135034e-01      -1.58677354e+00     
O    -9.51799558e-01     1.85285311e+00      -2.97224732e+00     
H    -1.81550984e+00     1.92067285e+00      -3.41791631e+00     
O    -1.97892045e+00     1.39130485e+00      1.31295209e+00      
H    -2.80153468e+00     1.30232951e+00      8.24801784e-01      
H    -2.17841935e+00     1.59130374e+00      2.23023213e+00      
O    2.56511770e+00      -2.44395042e-02     1.07658944e+00      
H    2.88063463e+00      5.03534415e-01      1.81388719e+00      
H    3.23231775e+00      -7.03095877e-01     9.49149111e-01      
O    -9.15561003e-01     -2.24437604e+00     -1.29405197e+00     
H    -1.82137420e+00     -2.13709788e+00     -1.60502657e+00     
H    -8.31090716e-01     -3.20044216e+00     -1.21487979e+00     
20
1653.642520
N    2.13590171e-03      1.52351202e-02      -2.07621456e-02     
H    9.05185805e-01      -7.99763001e-02     4.85107986e-01      
H    -3.35712173e-01     -9.12005731e-01     -3.58293953e-01     
H    -7.25108299e-01     4.23395196e-01      6.08501773e-01      
C    2.03890982e-01      9.05642904e-01      -1.18127366e+00     
H    5.48537857e-01      1.87951747e+00      -8.41842814e-01     
H    9.55549346e-01      4.82938322e-01      -1.84353777e+00     
C    -1.10701138e+00     1.05134818e+00      -1.91688113e+00     
O    -2.14218018e+00     5.13107008e-01      -1.58679363e+00     
O    -9.51800851e-01     1.85285754e+00      -2.97224414e+00     
H    -1.81551079e+00     1.92067610e+00      -3.41791398e+00     
O    -1.98007988e+00     1.39148742e+00      1.31345598e+00      
H    -2.79540107e+00     1.29982166e+00      8.14245015e-01      
H    -2.16639254e+00     1.59148893e+00      2.23314147e+00      
O    2.56511988e+00      -2.44470131e-02     1.07658406e+00      
H    2.88057551e+00      5.03540157e-01      1.81388899e+00      
H    3.23236803e+00      -7.03071278e-01     9.49169045e-01      
O    -9.14722771e-01     -2.24345579e+00     -1.29376552e+00     
H    -1.82318566e+00     -2.14942961e+00     -1.60510449e+00     
H    -8.42668376e-01     -3.20216987e+00     -1.21889460e+00     
20
1653.642520
N    2.15205079e-03      1.51796771e-02      -2.08018777e-02     
H    9.04940999e-01      -7.91357620e-02     4.85710342e-01      
H    -3.35844989e-01     -9.11294937e-01     -3.59414640e-01     
H    -7.24955953e-01     4.22617234e-01      6.09574322e-01      
C    2.03909361e-01      9.05579806e-01      -1.18131888e+00     
H    5.48521076e-01      1.87943669e+00      -8.41761340e-01     
H    9.55572503e-01      4.82997198e-01      -1.84363495e+00     
C    -1.10701406e+00     1.05135739e+00      -1.91687454e+00     
O    -2.14217202e+00     5.13078981e-01      -1.58681371e+00     
O    -9.51802143e-01     1.85286198e+00      -2.97224096e+00     
H    -1.81551173e+00     1.92067935e+00      -3.41791166e+00     
O    -1.98123931e+00     1.39167000e+00      1.31395986e+00      
H    -2.78926746e+00     1.29731380e+00      8.03688246e-01      
H    -2.15436573e+00     1.59167413e+00      2.23605081e+00      
O    2.56512207e+00      -2.44545220e-02     1.07657868e+00      
H    2.88051638e+00      5.03545899e-01      1.81389080e+00      
H    3.23241830e+00      -7.03046679e-01     9.49188979e-01      
O    -9.13884539e-01     -2.24253554e+00     -1.29347907e+00     
H    -1.82499711e+00     -2.16176133e+00     -1.60518242e+00     
H    -8.54246036e-01     -3.20389757e+00     -1.22290941e+00     
20
1653.642520
N    2.16819988e-03      1.51242340e-02      -2.08416098e-02     
H    9.04696194e-01      -7.82952239e-02     4.86312697e-01      
H    -3.35977804e-01     -9.10584142e-01     -3.60535326e-01     
H    -7.24803607e-01     4.21839272e-01      6.10646872e-01      
C    2.03927740e-01      9.05516709e-01      -1.18136410e+00     
H    5.48504296e-01      1.87935590e+00      -8.41679865e-01     
H    9.55595660e-01      4.83056074e-01      -1.84373213e+00     
C    -1.10701674e+00     1.05136660e+00      -1.91686794e+00     
O    -2.14216385e+00     5.13050955e-01      -1.58683380e+00     
O    -9.51803436e-01     1.85286642e+00      -2.97223778e+00     
H    -1.81551268e+00     1.92068260e+00      -3.41790933e+00     
O    -1.98239874e+00     1.39185257e+00      1.31446374e+00      
H    -2.78313385e+00     1.29480594e+00      7.93131477e-01      
H    -2.14233892e+00     1.59185932e+00      2.23896016e+00      
O    2.56512426e+00      -2.44620309e-02     1.07657330e+00      
H    2.88045726e+00      5.03551641e-01      1.81389260e+00      
H    3.23246858e+00      -7.03022080e-01     9.49208912e-01      
O    -9.13046307e-01     -2.24161530e+00     -1.29319262e+00     
H    -1.82680857e+00     -2.17409305e+00     -1.60526034e+00     
H    -8.65823696e-01     -3.20562528e+00     -1.22692422e+00     
20
1653.642520
N    2.18434897e-03      1.50687909e-02      -2.08813419e-02     
H    9.04451388e-01      -7.74546857e-02     4.86915052e-01      
H    -3.36110620e-01     -9.09873348e-01     -3.61656012e-01     
H    -7.24651261e-01     4.21061310e-01      6.11719422e-01      
C    2.03946120e-01      9.05453612e-01      -1.18140932e+00     
H    5.48487516e-01      1.87927512e+00      -8.41598391e-01     
H    9.55618817e-01      4.83114950e-01      -1.84382931e+00     
C    -1.10701943e+00     1.05137581e+00      -1.91686134e+00     
O    -2.14215569e+00     5.13022928e-01      -1.58685388e+00     
O    -9.51804729e-01     1.85287086e+00      -2.97223460e+00     
H    -1.81551363e+00     1.92068584e+00      -3.41790700e+00     
O    -1.98355817e+00     1.39203515e+00      1.31496762e+00      
H    -2.77700024e+00     1.29229808e+00      7.82574709e-01      
H    -2.13031211e+00     1.59204451e+00      2.24186950e+00      
O    2.56512645e+00      -2.44695398e-02     1.07656792e+00      
H    2.88039814e+00      5.03557384e-01      1.81389440e+00      
H    3.23251885e+00      -7.02997482e-01     9.49228846e-01      
O    -9.12208076e-01     -2.24069505e+00     -1.29290617e+00     
H    -1.82862003e+00     -2.18642477e+00     -1.60533827e+00     
H    -8.77401357e-01     -3.20735299e+00     -1.23093904e+00     
20
1653.642520
N    2.21664715e-03      1.49579047e-02      -2.09608061e-02     
H    9.03961778e-01      -7.57736095e-02     4.88119763e-01      
H    -3.36376251e-01     -9.08451759e-01     -3.63897384e-01     
H    -7.24346568e-01     4.19505386e-01      6.13864521e-01      
C    2.03982878e-01      9.05327418e-01      -1.18149975e+00     
H    5.48453955e-01      1.87911355e+00      -8.41435442e-01     
H    9.55665131e-01      4.83232703e-01      -1.84402366e+00     
C    -1.10702479e+00     1.05139422e+00      -1.91684814e+00     
O    -2.14213936e+00     5.12966875e-01      -1.58689405e+00     
O    -9.51807314e-01     1.85287973e+00      -2.97222823e+00     
H    -1.81551552e+00     1.92069234e+00      -3.41790234e+00     
O    -1.98587703e+00     1.39240029e+00      1.31597539e+00      
H    -2.76473303e+00     1.28728237e+00      7.61461171e-01      
H    -2.10625849e+00     1.59241489e+00      2.24768819e+00      
O    2.56513082e+00      -2.44845577e-02     1.07655715e+00      
H    2.88027989e+00      5.03568868e-01      1.81389800e+00      
H    3.23261940e+00      -7.02948284e-01     9.49268713e-01      
O    -9.10531612e-01     -2.23885455e+00     -1.29233327e+00     
H    -1.83224295e+00     -2.21108821e+00     -1.60549412e+00     
H    -9.00556677e-01     -3.21080840e+00     -1.23896866e+00     
