20
1517.515973
N    5.75154723e-03      1.99122422e-02      -2.54480920e-02     
H    8.80805788e-01      -1.16190715e-01     5.20108138e-01      
H    -3.28790579e-01     -9.19751018e-01     -3.25633650e-01     
H    -7.14128274e-01     4.03245002e-01      6.22491334e-01      
C    2.10140134e-01      9.15720853e-01      -1.19237424e+00     
H    4.59344362e-01      1.88401364e+00      -7.45636194e-01     
H    9.02449719e-01      3.62681658e-01      -1.83589870e+00     
C    -1.10621983e+00     1.04754147e+00      -1.91130920e+00     
O    -2.14119364e+00     5.14106422e-01      -1.58759971e+00     
O    -9.51638722e-01     1.85430677e+00      -2.97423017e+00     
H    -1.81655986e+00     1.92081564e+00      -3.41855680e+00     
O    -1.97641257e+00     1.39083251e+00      1.31162802e+00      
H    -2.81522626e+00     1.30861375e+00      8.48027346e-01      
H    -2.20387262e+00     1.59053434e+00      2.22401661e+00      
O    2.56454437e+00      -2.42557786e-02     1.07613355e+00      
H    2.88466190e+00      5.00842392e-01      1.81409744e+00      
H    3.23479025e+00      -7.01238826e-01     9.52610284e-01      
O    -9.17190181e-01     -2.24583708e+00     -1.29459242e+00     
H    -1.81801055e+00     -2.11516610e+00     -1.60562540e+00     
H    -8.09435555e-01     -3.19704075e+00     -1.20699974e+00     
20
1517.515973
N    4.83552403e-03      1.87845441e-02      -2.42468063e-02     
H    8.87084396e-01      -1.07767515e-01     5.10906333e-01      
H    -3.30421366e-01     -9.18347792e-01     -3.32958211e-01     
H    -7.16987540e-01     4.08866022e-01      6.18189532e-01      
C    2.08564061e-01      9.13248688e-01      -1.18956518e+00     
H    4.81655321e-01      1.88295018e+00      -7.69748955e-01     
H    9.15707258e-01      3.92701667e-01      -1.83773559e+00     
C    -1.10641570e+00     1.04848624e+00      -1.91270714e+00     
O    -2.14144640e+00     5.13877589e-01      -1.58738312e+00     
O    -9.51678285e-01     1.85394114e+00      -2.97373605e+00     
H    -1.81629688e+00     1.92077832e+00      -3.41839785e+00     
O    -1.97645982e+00     1.39085930e+00      1.31170710e+00      
H    -2.81487017e+00     1.30829662e+00      8.47499340e-01      
H    -2.20352271e+00     1.59063410e+00      2.22411582e+00      
O    2.56468661e+00      -2.42979556e-02     1.07625021e+00      
H    2.88368464e+00      5.01512527e-01      1.81404398e+00      
H    3.23414699e+00      -7.01715388e-01     9.51735024e-01      
O    -9.17202002e-01     -2.24593194e+00     -1.29460053e+00     
H    -1.81794573e+00     -2.11448318e+00     -1.60543673e+00     
H    -8.09060515e-01     -3.19702725e+00     -1.20696235e+00     
20
1517.515973
N    4.37751243e-03      1.82206950e-02      -2.36461635e-02     
H    8.90223700e-01      -1.03555915e-01     5.06305431e-01      
H    -3.31236759e-01     -9.17646179e-01     -3.36620492e-01     
H    -7.18417173e-01     4.11676532e-01      6.16038631e-01      
C    2.07776025e-01      9.12012606e-01      -1.18816065e+00     
H    4.92810801e-01      1.88241846e+00      -7.81805336e-01     
H    9.22336028e-01      4.07711671e-01      -1.83865403e+00     
C    -1.10651364e+00     1.04895863e+00      -1.91340610e+00     
O    -2.14157278e+00     5.13763172e-01      -1.58727483e+00     
O    -9.51698066e-01     1.85375832e+00      -2.97348899e+00     
H    -1.81616539e+00     1.92075966e+00      -3.41831837e+00     
O    -1.97648345e+00     1.39087270e+00      1.31174664e+00      
H    -2.81469212e+00     1.30813805e+00      8.47235336e-01      
H    -2.20334775e+00     1.59068397e+00      2.22416542e+00      
O    2.56475773e+00      -2.43190440e-02     1.07630855e+00      
H    2.88319602e+00      5.01847594e-01      1.81401725e+00      
H    3.23382536e+00      -7.01953669e-01     9.51297394e-01      
O    -9.17207913e-01     -2.24597937e+00     -1.29460459e+00     
H    -1.81791332e+00     -2.11414173e+00     -1.60534240e+00     
H    -8.08872995e-01     -3.19702050e+00     -1.20694365e+00     
20
1517.515973
N    3.91950084e-03      1.76568459e-02      -2.30455207e-02     
H    8.93363004e-01      -9.93443148e-02     5.01704529e-01      
H    -3.32052152e-01     -9.16944566e-01     -3.40282772e-01     
H    -7.19846806e-01     4.14487042e-01      6.13887729e-01      
C    2.06987989e-01      9.10776524e-01      -1.18675612e+00     
H    5.03966280e-01      1.88188673e+00      -7.93861716e-01     
H    9.28964797e-01      4.22721676e-01      -1.83957247e+00     
C    -1.10661158e+00     1.04943101e+00      -1.91410507e+00     
O    -2.14169915e+00     5.13648755e-01      -1.58716654e+00     
O    -9.51717848e-01     1.85357550e+00      -2.97324192e+00     
H    -1.81603390e+00     1.92074100e+00      -3.41823889e+00     
O    -1.97650708e+00     1.39088610e+00      1.31178618e+00      
H    -2.81451408e+00     1.30797949e+00      8.46971333e-01      
H    -2.20317280e+00     1.59073385e+00      2.22421502e+00      
O    2.56482885e+00      -2.43401325e-02     1.07636688e+00      
H    2.88270739e+00      5.02182661e-01      1.81399052e+00      
H    3.23350373e+00      -7.02191950e-01     9.50859764e-01      
O    -9.17213823e-01     -2.24602680e+00     -1.29460865e+00     
H    -1.81788091e+00     -2.11380027e+00     -1.60524806e+00     
H    -8.08685475e-01     -3.19701375e+00     -1.20692496e+00     
20
1517.515973
N    3.46148924e-03      1.70929968e-02      -2.24448778e-02     
H    8.96502309e-01      -9.51327147e-02     4.97103627e-01      
H    -3.32867546e-01     -9.16242954e-01     -3.43945053e-01     
H    -7.21276439e-01     4.17297552e-01      6.11736828e-01      
C    2.06199953e-01      9.09540442e-01      -1.18535159e+00     
H    5.15121760e-01      1.88135500e+00      -8.05918097e-01     
H    9.35593567e-01      4.37731680e-01      -1.84049091e+00     
C    -1.10670952e+00     1.04990340e+00      -1.91480403e+00     
O    -2.14182553e+00     5.13534338e-01      -1.58705825e+00     
O    -9.51737629e-01     1.85339268e+00      -2.97299486e+00     
H    -1.81590242e+00     1.92072233e+00      -3.41815941e+00     
O    -1.97653071e+00     1.39089950e+00      1.31182572e+00      
H    -2.81433603e+00     1.30782092e+00      8.46707330e-01      
H    -2.20299784e+00     1.59078373e+00      2.22426463e+00      
O    2.56489996e+00      -2.43612210e-02     1.07642521e+00      
H    2.88221876e+00      5.02517728e-01      1.81396378e+00      
H    3.23318210e+00      -7.02430231e-01     9.50422134e-01      
O    -9.17219734e-01     -2.24607424e+00     -1.29461270e+00     
H    -1.81784851e+00     -2.11345881e+00     -1.60515373e+00     
H    -8.08497955e-01     -3.19700700e+00     -1.20690626e+00     
20
1517.515973
N    3.00347764e-03      1.65291477e-02      -2.18442350e-02     
H    8.99641613e-01      -9.09211147e-02     4.92502724e-01      
H    -3.33682939e-01     -9.15541341e-01     -3.47607334e-01     
H    -7.22706072e-01     4.20108062e-01      6.09585927e-01      
C    2.05411917e-01      9.08304359e-01      -1.18394707e+00     
H    5.26277239e-01      1.88082327e+00      -8.17974477e-01     
H    9.42222336e-01      4.52741684e-01      -1.84140936e+00     
C    -1.10680745e+00     1.05037579e+00      -1.91550300e+00     
O    -2.14195191e+00     5.13419921e-01      -1.58694995e+00     
O    -9.51757410e-01     1.85320987e+00      -2.97274780e+00     
H    -1.81577093e+00     1.92070367e+00      -3.41807993e+00     
O    -1.97655433e+00     1.39091290e+00      1.31186525e+00      
H    -2.81415799e+00     1.30766236e+00      8.46443327e-01      
H    -2.20282288e+00     1.59083361e+00      2.22431423e+00      
O    2.56497108e+00      -2.43823095e-02     1.07648354e+00      
H    2.88173013e+00      5.02852796e-01      1.81393705e+00      
H    3.23286046e+00      -7.02668512e-01     9.49984504e-01      
O    -9.17225645e-01     -2.24612167e+00     -1.29461676e+00     
H    -1.81781610e+00     -2.11311735e+00     -1.60505939e+00     
H    -8.08310435e-01     -3.19700025e+00     -1.20688756e+00     
20
1517.515973
N    2.77447184e-03      1.62472231e-02      -2.15439136e-02     
H    9.01211265e-01      -8.88153146e-02     4.90202273e-01      
H    -3.34090636e-01     -9.15190534e-01     -3.49438474e-01     
H    -7.23420889e-01     4.21513317e-01      6.08510476e-01      
C    2.05017899e-01      9.07686318e-01      -1.18324480e+00     
H    5.31854979e-01      1.88055741e+00      -8.24002667e-01     
H    9.45536721e-01      4.60246686e-01      -1.84186858e+00     
C    -1.10685642e+00     1.05061198e+00      -1.91585248e+00     
O    -2.14201510e+00     5.13362712e-01      -1.58689581e+00     
O    -9.51767301e-01     1.85311846e+00      -2.97262427e+00     
H    -1.81570518e+00     1.92069434e+00      -3.41804019e+00     
O    -1.97656615e+00     1.39091960e+00      1.31188502e+00      
H    -2.81406897e+00     1.30758308e+00      8.46311326e-01      
H    -2.20273540e+00     1.59085854e+00      2.22433903e+00      
O    2.56500664e+00      -2.43928537e-02     1.07651270e+00      
H    2.88148582e+00      5.03020329e-01      1.81392369e+00      
H    3.23269965e+00      -7.02787652e-01     9.49765689e-01      
O    -9.17228600e-01     -2.24614538e+00     -1.29461879e+00     
H    -1.81779989e+00     -2.11294663e+00     -1.60501222e+00     
H    -8.08216675e-01     -3.19699688e+00     -1.20687821e+00     
20
1517.515973
N    2.54546604e-03      1.59652986e-02      -2.12435921e-02     
H    9.02780917e-01      -8.67095146e-02     4.87901822e-01      
H    -3.34498333e-01     -9.14839728e-01     -3.51269614e-01     
H    -7.24135705e-01     4.22918572e-01      6.07435025e-01      
C    2.04623881e-01      9.07068277e-01      -1.18254254e+00     
H    5.37432719e-01      1.88029155e+00      -8.30030858e-01     
H    9.48851106e-01      4.67751689e-01      -1.84232780e+00     
C    -1.10690539e+00     1.05084817e+00      -1.91620196e+00     
O    -2.14207829e+00     5.13305504e-01      -1.58684166e+00     
O    -9.51777192e-01     1.85302705e+00      -2.97250074e+00     
H    -1.81563944e+00     1.92068501e+00      -3.41800045e+00     
O    -1.97657796e+00     1.39092630e+00      1.31190479e+00      
H    -2.81397994e+00     1.30750379e+00      8.46179324e-01      
H    -2.20264793e+00     1.59088348e+00      2.22436384e+00      
O    2.56504220e+00      -2.44033979e-02     1.07654187e+00      
H    2.88124151e+00      5.03187863e-01      1.81391032e+00      
H    3.23253883e+00      -7.02906793e-01     9.49546874e-01      
O    -9.17231555e-01     -2.24616910e+00     -1.29462081e+00     
H    -1.81778369e+00     -2.11277590e+00     -1.60496506e+00     
H    -8.08122915e-01     -3.19699350e+00     -1.20686887e+00     
20
1517.515973
N    1.62944284e-03      1.48376004e-02      -2.00423065e-02     
H    9.09059525e-01      -7.82863144e-02     4.78700018e-01      
H    -3.36129119e-01     -9.13436502e-01     -3.58594176e-01     
H    -7.26994971e-01     4.28539592e-01      6.03133223e-01      
C    2.03047809e-01      9.04596113e-01      -1.17973348e+00     
H    5.59743677e-01      1.87922809e+00      -8.54143618e-01     
H    9.62108644e-01      4.97771697e-01      -1.84416468e+00     
C    -1.10710127e+00     1.05179295e+00      -1.91759990e+00     
O    -2.14233105e+00     5.13076670e-01      -1.58662508e+00     
O    -9.51816754e-01     1.85266141e+00      -2.97200662e+00     
H    -1.81537646e+00     1.92064769e+00      -3.41784149e+00     
O    -1.97662522e+00     1.39095310e+00      1.31198387e+00      
H    -2.81362386e+00     1.30718667e+00      8.45651318e-01      
H    -2.20229801e+00     1.59098324e+00      2.22446304e+00      
O    2.56518444e+00      -2.44455749e-02     1.07665853e+00      
H    2.88026425e+00      5.03857997e-01      1.81385686e+00      
H    3.23189557e+00      -7.03383355e-01     9.48671614e-01      
O    -9.17243377e-01     -2.24626396e+00     -1.29462893e+00     
H    -1.81771887e+00     -2.11209298e+00     -1.60477638e+00     
H    -8.07747875e-01     -3.19698000e+00     -1.20683147e+00     
20
1517.515973
N    1.40043704e-03      1.45556759e-02      -1.97419850e-02     
H    9.10629177e-01      -7.61805144e-02     4.76399567e-01      
H    -3.36536816e-01     -9.13085696e-01     -3.60425316e-01     
H    -7.27709787e-01     4.29944847e-01      6.02057772e-01      
C    2.02653791e-01      9.03978072e-01      -1.17903122e+00     
H    5.65321417e-01      1.87896223e+00      -8.60171809e-01     
H    9.65423029e-01      5.05276700e-01      -1.84462390e+00     
C    -1.10715024e+00     1.05202914e+00      -1.91794938e+00     
O    -2.14239424e+00     5.13019462e-01      -1.58657093e+00     
O    -9.51826645e-01     1.85257000e+00      -2.97188309e+00     
H    -1.81531072e+00     1.92063836e+00      -3.41780175e+00     
O    -1.97663703e+00     1.39095980e+00      1.31200364e+00      
H    -2.81353483e+00     1.30710738e+00      8.45519316e-01      
H    -2.20221054e+00     1.59100818e+00      2.22448785e+00      
O    2.56522000e+00      -2.44561191e-02     1.07668770e+00      
H    2.88001994e+00      5.04025531e-01      1.81384349e+00      
H    3.23173475e+00      -7.03502496e-01     9.48452799e-01      
O    -9.17246332e-01     -2.24628768e+00     -1.29463095e+00     
H    -1.81770267e+00     -2.11192225e+00     -1.60472922e+00     
H    -8.07654115e-01     -3.19697662e+00     -1.20682213e+00     
20
1517.515973
N    1.17143124e-03      1.42737513e-02      -1.94416636e-02     
H    9.12198829e-01      -7.40747143e-02     4.74099116e-01      
H    -3.36944513e-01     -9.12734889e-01     -3.62256456e-01     
H    -7.28424604e-01     4.31350102e-01      6.00982321e-01      
C    2.02259773e-01      9.03360031e-01      -1.17832895e+00     
H    5.70899157e-01      1.87869637e+00      -8.66199999e-01     
H    9.68737414e-01      5.12781702e-01      -1.84508312e+00     
C    -1.10719921e+00     1.05226533e+00      -1.91829886e+00     
O    -2.14245743e+00     5.12962253e-01      -1.58651679e+00     
O    -9.51836536e-01     1.85247859e+00      -2.97175956e+00     
H    -1.81524497e+00     1.92062903e+00      -3.41776201e+00     
O    -1.97664885e+00     1.39096650e+00      1.31202341e+00      
H    -2.81344581e+00     1.30702810e+00      8.45387315e-01      
H    -2.20212306e+00     1.59103311e+00      2.22451265e+00      
O    2.56525556e+00      -2.44666633e-02     1.07671686e+00      
H    2.87977563e+00      5.04193064e-01      1.81383013e+00      
H    3.23157394e+00      -7.03621636e-01     9.48233984e-01      
O    -9.17249287e-01     -2.24631139e+00     -1.29463298e+00     
H    -1.81768646e+00     -2.11175153e+00     -1.60468205e+00     
H    -8.07560355e-01     -3.19697325e+00     -1.20681278e+00     
20
1517.515973
N    7.13419644e-04      1.37099022e-02      -1.88410208e-02     
H    9.15338133e-01      -6.98631143e-02     4.69498213e-01      
H    -3.37759906e-01     -9.12033276e-01     -3.65918737e-01     
H    -7.29854237e-01     4.34160612e-01      5.98831420e-01      
C    2.01471737e-01      9.02123948e-01      -1.17692443e+00     
H    5.82054636e-01      1.87816464e+00      -8.78256379e-01     
H    9.75366183e-01      5.27791706e-01      -1.84600157e+00     
C    -1.10729714e+00     1.05273772e+00      -1.91899783e+00     
O    -2.14258381e+00     5.12847836e-01      -1.58640849e+00     
O    -9.51856317e-01     1.85229578e+00      -2.97151250e+00     
H    -1.81511348e+00     1.92061037e+00      -3.41768253e+00     
O    -1.97667247e+00     1.39097990e+00      1.31206294e+00      
H    -2.81326777e+00     1.30686954e+00      8.45123312e-01      
H    -2.20194810e+00     1.59108299e+00      2.22456225e+00      
O    2.56532668e+00      -2.44877518e-02     1.07677519e+00      
H    2.87928700e+00      5.04528132e-01      1.81380340e+00      
H    3.23125230e+00      -7.03859917e-01     9.47796354e-01      
O    -9.17255198e-01     -2.24635882e+00     -1.29463704e+00     
H    -1.81765405e+00     -2.11141007e+00     -1.60458771e+00     
H    -8.07372835e-01     -3.19696650e+00     -1.20679408e+00     
20
1517.515973
N    2.55408045e-04      1.31460531e-02      -1.82403779e-02     
H    9.18477438e-01      -6.56515142e-02     4.64897311e-01      
H    -3.38575300e-01     -9.11331664e-01     -3.69581018e-01     
H    -7.31283870e-01     4.36971122e-01      5.96680519e-01      
C    2.00683701e-01      9.00887866e-01      -1.17551990e+00     
H    5.93210116e-01      1.87763291e+00      -8.90312760e-01     
H    9.81994953e-01      5.42801710e-01      -1.84692001e+00     
C    -1.10739508e+00     1.05321011e+00      -1.91969679e+00     
O    -2.14271019e+00     5.12733419e-01      -1.58630020e+00     
O    -9.51876098e-01     1.85211296e+00      -2.97126544e+00     
H    -1.81498200e+00     1.92059170e+00      -3.41760305e+00     
O    -1.97669610e+00     1.39099330e+00      1.31210248e+00      
H    -2.81308972e+00     1.30671097e+00      8.44859309e-01      
H    -2.20177314e+00     1.59113287e+00      2.22461186e+00      
O    2.56539779e+00      -2.45088403e-02     1.07683352e+00      
H    2.87879837e+00      5.04863199e-01      1.81377666e+00      
H    3.23093067e+00      -7.04098198e-01     9.47358724e-01      
O    -9.17261109e-01     -2.24640626e+00     -1.29464109e+00     
H    -1.81762165e+00     -2.11106861e+00     -1.60449338e+00     
H    -8.07185315e-01     -3.19695975e+00     -1.20677538e+00     
20
1517.515973
N    -2.02603554e-04     1.25822040e-02      -1.76397351e-02     
H    9.21616742e-01      -6.14399141e-02     4.60296409e-01      
H    -3.39390693e-01     -9.10630051e-01     -3.73243298e-01     
H    -7.32713503e-01     4.39781632e-01      5.94529617e-01      
C    1.99895665e-01      8.99651784e-01      -1.17411537e+00     
H    6.04365595e-01      1.87710118e+00      -9.02369140e-01     
H    9.88623722e-01      5.57811715e-01      -1.84783845e+00     
C    -1.10749302e+00     1.05368249e+00      -1.92039576e+00     
O    -2.14283656e+00     5.12619002e-01      -1.58619191e+00     
O    -9.51895880e-01     1.85193014e+00      -2.97101837e+00     
H    -1.81485051e+00     1.92057304e+00      -3.41752357e+00     
O    -1.97671973e+00     1.39100670e+00      1.31214202e+00      
H    -2.81291168e+00     1.30655241e+00      8.44595306e-01      
H    -2.20159819e+00     1.59118275e+00      2.22466146e+00      
O    2.56546891e+00      -2.45299288e-02     1.07689185e+00      
H    2.87830974e+00      5.05198266e-01      1.81374993e+00      
H    3.23060904e+00      -7.04336479e-01     9.46921094e-01      
O    -9.17267019e-01     -2.24645369e+00     -1.29464515e+00     
H    -1.81758924e+00     -2.11072715e+00     -1.60439904e+00     
H    -8.06997795e-01     -3.19695300e+00     -1.20675669e+00     
20
1517.515973
N    -6.60615153e-04     1.20183549e-02      -1.70390923e-02     
H    9.24756046e-01      -5.72283140e-02     4.55695507e-01      
H    -3.40206086e-01     -9.09928438e-01     -3.76905579e-01     
H    -7.34143136e-01     4.42592142e-01      5.92378716e-01      
C    1.99107629e-01      8.98415702e-01      -1.17271084e+00     
H    6.15521075e-01      1.87656946e+00      -9.14425521e-01     
H    9.95252492e-01      5.72821719e-01      -1.84875689e+00     
C    -1.10759096e+00     1.05415488e+00      -1.92109472e+00     
O    -2.14296294e+00     5.12504585e-01      -1.58608362e+00     
O    -9.51915661e-01     1.85174732e+00      -2.97077131e+00     
H    -1.81471902e+00     1.92055438e+00      -3.41744409e+00     
O    -1.97674336e+00     1.39102010e+00      1.31218156e+00      
H    -2.81273363e+00     1.30639384e+00      8.44331302e-01      
H    -2.20142323e+00     1.59123262e+00      2.22471106e+00      
O    2.56554003e+00      -2.45510172e-02     1.07695019e+00      
H    2.87782112e+00      5.05533333e-01      1.81372320e+00      
H    3.23028741e+00      -7.04574760e-01     9.46483464e-01      
O    -9.17272930e-01     -2.24650112e+00     -1.29464921e+00     
H    -1.81755683e+00     -2.11038570e+00     -1.60430471e+00     
H    -8.06810275e-01     -3.19694625e+00     -1.20673799e+00     
20
1517.515973
N    -1.57663835e-03     1.08906568e-02      -1.58378066e-02     
H    9.31034654e-01      -4.88051139e-02     4.46493702e-01      
H    -3.41836873e-01     -9.08525212e-01     -3.84230140e-01     
H    -7.37002402e-01     4.48213162e-01      5.88076914e-01      
C    1.97531556e-01      8.95943537e-01      -1.16990178e+00     
H    6.37832034e-01      1.87550600e+00      -9.38538282e-01     
H    1.00851003e+00      6.02841728e-01      -1.85059378e+00     
C    -1.10778683e+00     1.05509965e+00      -1.92249266e+00     
O    -2.14321570e+00     5.12275752e-01      -1.58586703e+00     
O    -9.51955224e-01     1.85138169e+00      -2.97027719e+00     
H    -1.81445604e+00     1.92051706e+00      -3.41728514e+00     
O    -1.97679061e+00     1.39104689e+00      1.31226064e+00      
H    -2.81237754e+00     1.30607671e+00      8.43803296e-01      
H    -2.20107332e+00     1.59133238e+00      2.22481027e+00      
O    2.56568227e+00      -2.45931942e-02     1.07706685e+00      
H    2.87684386e+00      5.06203468e-01      1.81366974e+00      
H    3.22964415e+00      -7.05051322e-01     9.45608204e-01      
O    -9.17284751e-01     -2.24659598e+00     -1.29465732e+00     
H    -1.81749201e+00     -2.10970278e+00     -1.60411604e+00     
H    -8.06435235e-01     -3.19693275e+00     -1.20670060e+00     
