20
1818.947440
N    2.57385064e-03      1.65084642e-02      -2.19899951e-02     
H    8.84468130e-01      -1.09392602e-01     5.12110945e-01      
H    -3.01973727e-01     -9.30848350e-01     -3.41030827e-01     
H    -6.98223379e-01     4.29612514e-01      6.33943779e-01      
C    1.93620484e-01      9.04854682e-01      -1.18392575e+00     
H    5.21811030e-01      1.88696146e+00      -8.49330584e-01     
H    9.32277829e-01      4.77688884e-01      -1.85928596e+00     
C    -9.87037974e-01     1.11560436e+00      -1.95784485e+00     
O    -2.21649526e+00     4.75419985e-01      -1.56422157e+00     
O    -9.60377394e-01     1.84214207e+00      -2.96080733e+00     
H    -1.78851064e+00     1.95884854e+00      -3.46022746e+00     
O    -1.97571097e+00     1.39054100e+00      1.31109143e+00      
H    -2.82460965e+00     1.31389779e+00      8.61568781e-01      
H    -2.21321096e+00     1.59065566e+00      2.22099746e+00      
O    2.56545638e+00      -2.44511676e-02     1.07677685e+00      
H    2.87728560e+00      5.06578246e-01      1.81328903e+00      
H    3.23007619e+00      -7.04643082e-01     9.45251482e-01      
O    -9.16809444e-01     -2.24502700e+00     -1.29433956e+00     
H    -1.82093554e+00     -2.13205579e+00     -1.60797481e+00     
H    -8.18526924e-01     -3.19776720e+00     -1.21062644e+00     
20
1818.947440
N    2.45225159e-03      1.62317105e-02      -2.16532336e-02     
H    8.89831153e-01      -1.02668930e-01     5.04908439e-01      
H    -3.10308727e-01     -9.26670791e-01     -3.44506094e-01     
H    -7.05058869e-01     4.28641656e-01      6.26778865e-01      
C    1.96174324e-01      9.05099060e-01      -1.18322881e+00     
H    5.28505322e-01      1.88516105e+00      -8.47519748e-01     
H    9.38078340e-01      4.78957086e-01      -1.85527603e+00     
C    -1.01702931e+00     1.09953341e+00      -1.94760887e+00     
O    -2.19792261e+00     4.84862760e-01      -1.56984952e+00     
O    -9.58232288e-01     1.84481761e+00      -2.96366892e+00     
H    -1.79525997e+00     1.94930299e+00      -3.44965084e+00     
O    -1.97593363e+00     1.39064067e+00      1.31130465e+00      
H    -2.82190771e+00     1.31225965e+00      8.57655416e-01      
H    -2.21052646e+00     1.59072509e+00      2.22185146e+00      
O    2.56537062e+00      -2.44444973e-02     1.07673269e+00      
H    2.87815242e+00      5.05814417e-01      1.81343767e+00      
H    3.23061144e+00      -7.04268580e-01     9.46215922e-01      
O    -9.16916450e-01     -2.24532438e+00     -1.29441089e+00     
H    -1.82013948e+00     -2.12715045e+00     -1.60719879e+00     
H    -8.15879042e-01     -3.19757209e+00     -1.20968237e+00     
20
1818.947440
N    2.39145206e-03      1.60933337e-02      -2.14848529e-02     
H    8.92512664e-01      -9.93070945e-02     5.01307186e-01      
H    -3.14476227e-01     -9.24582012e-01     -3.46243728e-01     
H    -7.08476613e-01     4.28156227e-01      6.23196408e-01      
C    1.97451244e-01      9.05221249e-01      -1.18288035e+00     
H    5.31852468e-01      1.88426084e+00      -8.46614330e-01     
H    9.40978596e-01      4.79591187e-01      -1.85327106e+00     
C    -1.03202498e+00     1.09149793e+00      -1.94249088e+00     
O    -2.18863629e+00     4.89584148e-01      -1.57266350e+00     
O    -9.57159736e-01     1.84615538e+00      -2.96509971e+00     
H    -1.79863463e+00     1.94453022e+00      -3.44436253e+00     
O    -1.97604495e+00     1.39069051e+00      1.31141127e+00      
H    -2.82055674e+00     1.31144058e+00      8.55698733e-01      
H    -2.20918421e+00     1.59075980e+00      2.22227846e+00      
O    2.56532773e+00      -2.44411621e-02     1.07671061e+00      
H    2.87858583e+00      5.05432503e-01      1.81351199e+00      
H    3.23087907e+00      -7.04081329e-01     9.46698143e-01      
O    -9.16969952e-01     -2.24547307e+00     -1.29444655e+00     
H    -1.81974144e+00     -2.12469778e+00     -1.60681078e+00     
H    -8.14555101e-01     -3.19747453e+00     -1.20921034e+00     
20
1818.947440
N    2.33065254e-03      1.59549569e-02      -2.13164722e-02     
H    8.95194176e-01      -9.59452585e-02     4.97705932e-01      
H    -3.18643726e-01     -9.22493232e-01     -3.47981361e-01     
H    -7.11894358e-01     4.27670798e-01      6.19613951e-01      
C    1.98728164e-01      9.05343438e-01      -1.18253188e+00     
H    5.35199614e-01      1.88336064e+00      -8.45708911e-01     
H    9.43878852e-01      4.80225288e-01      -1.85126610e+00     
C    -1.04702065e+00     1.08346246e+00      -1.93737289e+00     
O    -2.17934996e+00     4.94305536e-01      -1.57547747e+00     
O    -9.56087183e-01     1.84749315e+00      -2.96653051e+00     
H    -1.80200929e+00     1.93975744e+00      -3.43907421e+00     
O    -1.97615628e+00     1.39074035e+00      1.31151788e+00      
H    -2.81920577e+00     1.31062151e+00      8.53742051e-01      
H    -2.20784196e+00     1.59079451e+00      2.22270545e+00      
O    2.56528485e+00      -2.44378270e-02     1.07668853e+00      
H    2.87901924e+00      5.05050588e-01      1.81358631e+00      
H    3.23114669e+00      -7.03894078e-01     9.47180363e-01      
O    -9.17023455e-01     -2.24562176e+00     -1.29448222e+00     
H    -1.81934341e+00     -2.12224511e+00     -1.60642277e+00     
H    -8.13231160e-01     -3.19737698e+00     -1.20873830e+00     
20
1818.947440
N    2.26985301e-03      1.58165800e-02      -2.11480915e-02     
H    8.97875687e-01      -9.25834225e-02     4.94104679e-01      
H    -3.22811226e-01     -9.20404453e-01     -3.49718995e-01     
H    -7.15312103e-01     4.27185369e-01      6.16031495e-01      
C    2.00005085e-01      9.05465628e-01      -1.18218341e+00     
H    5.38546760e-01      1.88246043e+00      -8.44803493e-01     
H    9.46779108e-01      4.80859390e-01      -1.84926113e+00     
C    -1.06201632e+00     1.07542698e+00      -1.93225490e+00     
O    -2.17006364e+00     4.99026924e-01      -1.57829145e+00     
O    -9.55014631e-01     1.84883092e+00      -2.96796130e+00     
H    -1.80538396e+00     1.93498467e+00      -3.43378590e+00     
O    -1.97626761e+00     1.39079019e+00      1.31162449e+00      
H    -2.81785480e+00     1.30980244e+00      8.51785368e-01      
H    -2.20649972e+00     1.59082922e+00      2.22313245e+00      
O    2.56524197e+00      -2.44344918e-02     1.07666644e+00      
H    2.87945265e+00      5.04668674e-01      1.81366063e+00      
H    3.23141432e+00      -7.03706827e-01     9.47662583e-01      
O    -9.17076958e-01     -2.24577045e+00     -1.29451788e+00     
H    -1.81894538e+00     -2.11979244e+00     -1.60603476e+00     
H    -8.11907219e-01     -3.19727942e+00     -1.20826627e+00     
20
1818.947440
N    2.20905349e-03      1.56782032e-02      -2.09797107e-02     
H    9.00557198e-01      -8.92215865e-02     4.90503426e-01      
H    -3.26978726e-01     -9.18315674e-01     -3.51456628e-01     
H    -7.18729848e-01     4.26699940e-01      6.12449038e-01      
C    2.01282005e-01      9.05587817e-01      -1.18183494e+00     
H    5.41893906e-01      1.88156023e+00      -8.43898075e-01     
H    9.49679363e-01      4.81493491e-01      -1.84725617e+00     
C    -1.07701199e+00     1.06739151e+00      -1.92713691e+00     
O    -2.16077732e+00     5.03748311e-01      -1.58110542e+00     
O    -9.53942078e-01     1.85016869e+00      -2.96939209e+00     
H    -1.80875862e+00     1.93021190e+00      -3.42849759e+00     
O    -1.97637894e+00     1.39084002e+00      1.31173110e+00      
H    -2.81650384e+00     1.30898337e+00      8.49828686e-01      
H    -2.20515747e+00     1.59086394e+00      2.22355945e+00      
O    2.56519909e+00      -2.44311567e-02     1.07664436e+00      
H    2.87988606e+00      5.04286759e-01      1.81373495e+00      
H    3.23168195e+00      -7.03519576e-01     9.48144803e-01      
O    -9.17130461e-01     -2.24591915e+00     -1.29455354e+00     
H    -1.81854735e+00     -2.11733978e+00     -1.60564674e+00     
H    -8.10583277e-01     -3.19718186e+00     -1.20779424e+00     
20
1818.947440
N    2.17865373e-03      1.56090148e-02      -2.08955204e-02     
H    9.01897954e-01      -8.75406685e-02     4.88702800e-01      
H    -3.29062476e-01     -9.17271284e-01     -3.52325445e-01     
H    -7.20438721e-01     4.26457226e-01      6.10657809e-01      
C    2.01920465e-01      9.05648911e-01      -1.18166071e+00     
H    5.43567479e-01      1.88111013e+00      -8.43445365e-01     
H    9.51129491e-01      4.81810541e-01      -1.84625369e+00     
C    -1.08450983e+00     1.06337377e+00      -1.92457792e+00     
O    -2.15613416e+00     5.06109005e-01      -1.58251241e+00     
O    -9.53405802e-01     1.85083757e+00      -2.97010749e+00     
H    -1.81044595e+00     1.92782551e+00      -3.42585344e+00     
O    -1.97643460e+00     1.39086494e+00      1.31178441e+00      
H    -2.81582835e+00     1.30857383e+00      8.48850345e-01      
H    -2.20448634e+00     1.59088129e+00      2.22377294e+00      
O    2.56517764e+00      -2.44294891e-02     1.07663332e+00      
H    2.88010277e+00      5.04095802e-01      1.81377211e+00      
H    3.23181576e+00      -7.03425950e-01     9.48385914e-01      
O    -9.17157212e-01     -2.24599349e+00     -1.29457138e+00     
H    -1.81834833e+00     -2.11611344e+00     -1.60545274e+00     
H    -8.09921307e-01     -3.19713309e+00     -1.20755822e+00     
20
1818.947440
N    2.14825396e-03      1.55398263e-02      -2.08113300e-02     
H    9.03238710e-01      -8.58597505e-02     4.86902173e-01      
H    -3.31146226e-01     -9.16226894e-01     -3.53194262e-01     
H    -7.22147593e-01     4.26214511e-01      6.08866581e-01      
C    2.02558925e-01      9.05710006e-01      -1.18148648e+00     
H    5.45241052e-01      1.88066002e+00      -8.42992656e-01     
H    9.52579619e-01      4.82127592e-01      -1.84525120e+00     
C    -1.09200766e+00     1.05935603e+00      -1.92201892e+00     
O    -2.15149099e+00     5.08469699e-01      -1.58391940e+00     
O    -9.52869526e-01     1.85150646e+00      -2.97082289e+00     
H    -1.81213329e+00     1.92543912e+00      -3.42320928e+00     
O    -1.97649026e+00     1.39088986e+00      1.31183772e+00      
H    -2.81515287e+00     1.30816430e+00      8.47872003e-01      
H    -2.20381522e+00     1.59089865e+00      2.22398644e+00      
O    2.56515620e+00      -2.44278215e-02     1.07662228e+00      
H    2.88031947e+00      5.03904845e-01      1.81380927e+00      
H    3.23194957e+00      -7.03332325e-01     9.48627024e-01      
O    -9.17183963e-01     -2.24606784e+00     -1.29458921e+00     
H    -1.81814931e+00     -2.11488711e+00     -1.60525873e+00     
H    -8.09259336e-01     -3.19708431e+00     -1.20732220e+00     
20
1818.947440
N    2.02665492e-03      1.52630727e-02      -2.04745686e-02     
H    9.08601732e-01      -7.91360785e-02     4.79699667e-01      
H    -3.39481226e-01     -9.12049336e-01     -3.56669528e-01     
H    -7.28983083e-01     4.25243653e-01      6.01701667e-01      
C    2.05112765e-01      9.05954384e-01      -1.18078954e+00     
H    5.51935344e-01      1.87885962e+00      -8.41181820e-01     
H    9.58380131e-01      4.83395794e-01      -1.84124128e+00     
C    -1.12199900e+00     1.04328509e+00      -1.91178294e+00     
O    -2.13291835e+00     5.17912475e-01      -1.58954734e+00     
O    -9.50724420e-01     1.85418200e+00      -2.97368447e+00     
H    -1.81888261e+00     1.91589358e+00      -3.41263266e+00     
O    -1.97671292e+00     1.39098954e+00      1.31205094e+00      
H    -2.81245093e+00     1.30652616e+00      8.43958639e-01      
H    -2.20113072e+00     1.59096807e+00      2.22484044e+00      
O    2.56507044e+00      -2.44211513e-02     1.07657812e+00      
H    2.88118629e+00      5.03141015e-01      1.81395791e+00      
H    3.23248483e+00      -7.02957823e-01     9.49591464e-01      
O    -9.17290969e-01     -2.24636522e+00     -1.29466053e+00     
H    -1.81735325e+00     -2.10998177e+00     -1.60448271e+00     
H    -8.06611454e-01     -3.19688919e+00     -1.20637814e+00     
20
1818.947440
N    1.99625515e-03      1.51938842e-02      -2.03903782e-02     
H    9.09942488e-01      -7.74551605e-02     4.77899040e-01      
H    -3.41564976e-01     -9.11004946e-01     -3.57538345e-01     
H    -7.30691955e-01     4.25000938e-01      5.99910439e-01      
C    2.05751225e-01      9.06015479e-01      -1.18061531e+00     
H    5.53608917e-01      1.87840951e+00      -8.40729111e-01     
H    9.59830259e-01      4.83712845e-01      -1.84023879e+00     
C    -1.12949683e+00     1.03926735e+00      -1.90922394e+00     
O    -2.12827518e+00     5.20273169e-01      -1.59095433e+00     
O    -9.50188144e-01     1.85485089e+00      -2.97439987e+00     
H    -1.82056995e+00     1.91350719e+00      -3.40998850e+00     
O    -1.97676858e+00     1.39101446e+00      1.31210425e+00      
H    -2.81177545e+00     1.30611663e+00      8.42980297e-01      
H    -2.20045960e+00     1.59098543e+00      2.22505394e+00      
O    2.56504900e+00      -2.44194837e-02     1.07656708e+00      
H    2.88140299e+00      5.02950058e-01      1.81399507e+00      
H    3.23261864e+00      -7.02864198e-01     9.49832574e-01      
O    -9.17317720e-01     -2.24643957e+00     -1.29467836e+00     
H    -1.81715423e+00     -2.10875544e+00     -1.60428870e+00     
H    -8.05949483e-01     -3.19684041e+00     -1.20614212e+00     
20
1818.947440
N    1.96585539e-03      1.51246958e-02      -2.03061879e-02     
H    9.11283244e-01      -7.57742425e-02     4.76098414e-01      
H    -3.43648726e-01     -9.09960556e-01     -3.58407162e-01     
H    -7.32400828e-01     4.24758224e-01      5.98119210e-01      
C    2.06389685e-01      9.06076573e-01      -1.18044108e+00     
H    5.55282490e-01      1.87795941e+00      -8.40276401e-01     
H    9.61280387e-01      4.84029895e-01      -1.83923631e+00     
C    -1.13699467e+00     1.03524961e+00      -1.90666495e+00     
O    -2.12363202e+00     5.22633863e-01      -1.59236132e+00     
O    -9.49651868e-01     1.85551977e+00      -2.97511527e+00     
H    -1.82225728e+00     1.91112080e+00      -3.40734435e+00     
O    -1.97682424e+00     1.39103938e+00      1.31215756e+00      
H    -2.81109996e+00     1.30570709e+00      8.42001956e-01      
H    -2.19978847e+00     1.59100278e+00      2.22526743e+00      
O    2.56502755e+00      -2.44178161e-02     1.07655604e+00      
H    2.88161970e+00      5.02759101e-01      1.81403223e+00      
H    3.23275245e+00      -7.02770572e-01     9.50073685e-01      
O    -9.17344471e-01     -2.24651391e+00     -1.29469620e+00     
H    -1.81695521e+00     -2.10752910e+00     -1.60409470e+00     
H    -8.05287513e-01     -3.19679164e+00     -1.20590610e+00     
20
1818.947440
N    1.90505587e-03      1.49863190e-02      -2.01378071e-02     
H    9.13964755e-01      -7.24124065e-02     4.72497161e-01      
H    -3.47816226e-01     -9.07871777e-01     -3.60144795e-01     
H    -7.35818573e-01     4.24272795e-01      5.94536753e-01      
C    2.07666605e-01      9.06198762e-01      -1.18009261e+00     
H    5.58629636e-01      1.87705921e+00      -8.39370983e-01     
H    9.64180642e-01      4.84663996e-01      -1.83723135e+00     
C    -1.15199034e+00     1.02721414e+00      -1.90154696e+00     
O    -2.11434570e+00     5.27355250e-01      -1.59517529e+00     
O    -9.48579315e-01     1.85685754e+00      -2.97654606e+00     
H    -1.82563194e+00     1.90634803e+00      -3.40205604e+00     
O    -1.97693557e+00     1.39108921e+00      1.31226417e+00      
H    -2.80974900e+00     1.30488802e+00      8.40045274e-01      
H    -2.19844622e+00     1.59103750e+00      2.22569443e+00      
O    2.56498467e+00      -2.44144810e-02     1.07653396e+00      
H    2.88205311e+00      5.02377186e-01      1.81410655e+00      
H    3.23302008e+00      -7.02583321e-01     9.50555905e-01      
O    -9.17397974e-01     -2.24666261e+00     -1.29473186e+00     
H    -1.81655718e+00     -2.10507644e+00     -1.60370668e+00     
H    -8.03963571e-01     -3.19669408e+00     -1.20543407e+00     
20
1818.947440
N    1.84425634e-03      1.48479421e-02      -1.99694264e-02     
H    9.16646266e-01      -6.90505705e-02     4.68895908e-01      
H    -3.51983726e-01     -9.05782998e-01     -3.61882429e-01     
H    -7.39236318e-01     4.23787366e-01      5.90954297e-01      
C    2.08943526e-01      9.06320952e-01      -1.17974414e+00     
H    5.61976782e-01      1.87615900e+00      -8.38465565e-01     
H    9.67080898e-01      4.85298098e-01      -1.83522638e+00     
C    -1.16698601e+00     1.01917866e+00      -1.89642897e+00     
O    -2.10505938e+00     5.32076638e-01      -1.59798927e+00     
O    -9.47506763e-01     1.85819531e+00      -2.97797685e+00     
H    -1.82900661e+00     1.90157526e+00      -3.39676773e+00     
O    -1.97704690e+00     1.39113905e+00      1.31237078e+00      
H    -2.80839803e+00     1.30406895e+00      8.38088591e-01      
H    -2.19710398e+00     1.59107221e+00      2.22612143e+00      
O    2.56494179e+00      -2.44111458e-02     1.07651187e+00      
H    2.88248652e+00      5.01995272e-01      1.81418087e+00      
H    3.23328771e+00      -7.02396070e-01     9.51038125e-01      
O    -9.17451477e-01     -2.24681130e+00     -1.29476752e+00     
H    -1.81615915e+00     -2.10262377e+00     -1.60331867e+00     
H    -8.02639630e-01     -3.19659652e+00     -1.20496204e+00     
20
1818.947440
N    1.78345682e-03      1.47095653e-02      -1.98010457e-02     
H    9.19327778e-01      -6.56887345e-02     4.65294654e-01      
H    -3.56151225e-01     -9.03694218e-01     -3.63620062e-01     
H    -7.42654063e-01     4.23301937e-01      5.87371840e-01      
C    2.10220446e-01      9.06443141e-01      -1.17939567e+00     
H    5.65323928e-01      1.87525880e+00      -8.37560146e-01     
H    9.69981154e-01      4.85932199e-01      -1.83322142e+00     
C    -1.18198168e+00     1.01114319e+00      -1.89131098e+00     
O    -2.09577305e+00     5.36798026e-01      -1.60080324e+00     
O    -9.46434210e-01     1.85953308e+00      -2.97940765e+00     
H    -1.83238127e+00     1.89680248e+00      -3.39147941e+00     
O    -1.97715823e+00     1.39118889e+00      1.31247739e+00      
H    -2.80704706e+00     1.30324988e+00      8.36131909e-01      
H    -2.19576173e+00     1.59110692e+00      2.22654842e+00      
O    2.56489891e+00      -2.44078107e-02     1.07648979e+00      
H    2.88291993e+00      5.01613357e-01      1.81425519e+00      
H    3.23355533e+00      -7.02208819e-01     9.51520345e-01      
O    -9.17504980e-01     -2.24695999e+00     -1.29480319e+00     
H    -1.81576112e+00     -2.10017110e+00     -1.60293066e+00     
H    -8.01315689e-01     -3.19649897e+00     -1.20449000e+00     
20
1818.947440
N    1.72265729e-03      1.45711885e-02      -1.96326650e-02     
H    9.22009289e-01      -6.23268986e-02     4.61693401e-01      
H    -3.60318725e-01     -9.01605439e-01     -3.65357696e-01     
H    -7.46071807e-01     4.22816508e-01      5.83789383e-01      
C    2.11497366e-01      9.06565330e-01      -1.17904721e+00     
H    5.68671074e-01      1.87435859e+00      -8.36654728e-01     
H    9.72881410e-01      4.86566300e-01      -1.83121645e+00     
C    -1.19697735e+00     1.00310771e+00      -1.88619299e+00     
O    -2.08648673e+00     5.41519414e-01      -1.60361722e+00     
O    -9.45361658e-01     1.86087085e+00      -2.98083844e+00     
H    -1.83575593e+00     1.89202971e+00      -3.38619110e+00     
O    -1.97726955e+00     1.39123873e+00      1.31258401e+00      
H    -2.80569609e+00     1.30243081e+00      8.34175226e-01      
H    -2.19441948e+00     1.59114163e+00      2.22697542e+00      
O    2.56485602e+00      -2.44044755e-02     1.07646771e+00      
H    2.88335334e+00      5.01231443e-01      1.81432951e+00      
H    3.23382296e+00      -7.02021568e-01     9.52002566e-01      
O    -9.17558482e-01     -2.24710868e+00     -1.29483885e+00     
H    -1.81536308e+00     -2.09771843e+00     -1.60254265e+00     
H    -7.99991748e-01     -3.19640141e+00     -1.20401797e+00     
20
1818.947440
N    1.60105824e-03      1.42944348e-02      -1.92959035e-02     
H    9.27372312e-01      -5.56032266e-02     4.54490895e-01      
H    -3.68653725e-01     -8.97427880e-01     -3.68832963e-01     
H    -7.52907297e-01     4.21845650e-01      5.76624469e-01      
C    2.14051206e-01      9.06809708e-01      -1.17835027e+00     
H    5.75365366e-01      1.87255818e+00      -8.34843892e-01     
H    9.78681921e-01      4.87834502e-01      -1.82720652e+00     
C    -1.22696869e+00     9.87036762e-01      -1.87595701e+00     
O    -2.06791408e+00     5.50962189e-01      -1.60924517e+00     
O    -9.43216552e-01     1.86354639e+00      -2.98370003e+00     
H    -1.84250526e+00     1.88248416e+00      -3.37561448e+00     
O    -1.97749221e+00     1.39133840e+00      1.31279723e+00      
H    -2.80299415e+00     1.30079267e+00      8.30261861e-01      
H    -2.19173498e+00     1.59121106e+00      2.22782942e+00      
O    2.56477026e+00      -2.43978052e-02     1.07642355e+00      
H    2.88422016e+00      5.00467614e-01      1.81447815e+00      
H    3.23435821e+00      -7.01647066e-01     9.52967006e-01      
O    -9.17665488e-01     -2.24740606e+00     -1.29491018e+00     
H    -1.81456702e+00     -2.09281309e+00     -1.60176663e+00     
H    -7.97343866e-01     -3.19620630e+00     -1.20307390e+00     
