20
1719.669177
N    3.27792445e-04      2.14415528e-02      -1.63142309e-02     
H    9.38971106e-01      -1.95981252e-01     4.01976674e-01      
H    -2.67555678e-01     -9.49049135e-01     -2.94082450e-01     
H    -7.89292001e-01     4.46840056e-01      5.34539175e-01      
C    2.03136005e-01      9.08233845e-01      -1.17941695e+00     
H    5.52514849e-01      1.88280354e+00      -8.43918474e-01     
H    9.51340064e-01      4.80453597e-01      -1.84088654e+00     
C    -1.10690024e+00     1.05096600e+00      -1.91715484e+00     
O    -2.14214750e+00     5.12995305e-01      -1.58687375e+00     
O    -9.51805712e-01     1.85287429e+00      -2.97223216e+00     
H    -1.81559350e+00     1.92095979e+00      -3.41771056e+00     
O    -1.97696154e+00     1.39117946e+00      1.31296378e+00      
H    -2.80901570e+00     1.30367700e+00      8.38465828e-01      
H    -2.19850813e+00     1.59274670e+00      2.22559520e+00      
O    2.56486740e+00      -2.35800397e-02     1.07720540e+00      
H    2.88505531e+00      5.02524910e-01      1.81363933e+00      
H    3.22879839e+00      -7.05183212e-01     9.47177066e-01      
O    -9.17269267e-01     -2.24511078e+00     -1.29468013e+00     
H    -1.81874736e+00     -2.12178297e+00     -1.60674803e+00     
H    -8.12451089e-01     -3.19691669e+00     -1.20668256e+00     
20
1719.669177
N    7.67707944e-04      1.99315270e-02      -1.73964105e-02     
H    9.30708385e-01      -1.67610417e-01     4.22307736e-01      
H    -2.84495190e-01     -9.40321380e-01     -3.09294811e-01     
H    -7.73360336e-01     4.41562312e-01      5.52225412e-01      
C    2.03310965e-01      9.07633432e-01      -1.17984721e+00     
H    5.51533187e-01      1.88204261e+00      -8.43460665e-01     
H    9.52375017e-01      4.81030621e-01      -1.84147647e+00     
C    -1.10692601e+00     1.05105464e+00      -1.91709137e+00     
O    -2.14216179e+00     5.13044250e-01      -1.58683865e+00     
O    -9.51803527e-01     1.85286678e+00      -2.97223754e+00     
H    -1.81557211e+00     1.92088643e+00      -3.41776316e+00     
O    -1.97687156e+00     1.39111952e+00      1.31270892e+00      
H    -2.81021225e+00     1.30459406e+00      8.40328201e-01      
H    -2.19949934e+00     1.59229336e+00      2.22529976e+00      
O    2.56492888e+00      -2.37911514e-02     1.07705410e+00      
H    2.88397970e+00      5.02774415e-01      1.81370039e+00      
H    3.22965310e+00      -7.04673678e-01     9.47660110e-01      
O    -9.17261317e-01     -2.24538722e+00     -1.29466631e+00     
H    -1.81849834e+00     -2.11944584e+00     -1.60627870e+00     
H    -8.11322165e-01     -3.19693420e+00     -1.20672446e+00     
20
1719.669177
N    9.87665693e-04      1.91765141e-02      -1.79375003e-02     
H    9.26577024e-01      -1.53425000e-01     4.32473266e-01      
H    -2.92964946e-01     -9.35957502e-01     -3.16900992e-01     
H    -7.65394503e-01     4.38923440e-01      5.61068531e-01      
C    2.03398445e-01      9.07333226e-01      -1.18006234e+00     
H    5.51042355e-01      1.88166214e+00      -8.43231761e-01     
H    9.52892493e-01      4.81319133e-01      -1.84177143e+00     
C    -1.10693890e+00     1.05109896e+00      -1.91705963e+00     
O    -2.14216894e+00     5.13068723e-01      -1.58682111e+00     
O    -9.51802435e-01     1.85286302e+00      -2.97224023e+00     
H    -1.81556142e+00     1.92084975e+00      -3.41778946e+00     
O    -1.97682656e+00     1.39108955e+00      1.31258149e+00      
H    -2.81081053e+00     1.30505259e+00      8.41259388e-01      
H    -2.19999494e+00     1.59206670e+00      2.22515204e+00      
O    2.56495962e+00      -2.38967072e-02     1.07697845e+00      
H    2.88344190e+00      5.02899167e-01      1.81373093e+00      
H    3.23008045e+00      -7.04418911e-01     9.47901632e-01      
O    -9.17257342e-01     -2.24552544e+00     -1.29465941e+00     
H    -1.81837383e+00     -2.11827727e+00     -1.60604404e+00     
H    -8.10757703e-01     -3.19694296e+00     -1.20674541e+00     
20
1719.669177
N    1.20762344e-03      1.84215011e-02      -1.84785901e-02     
H    9.22445664e-01      -1.39239583e-01     4.42638797e-01      
H    -3.01434702e-01     -9.31593625e-01     -3.24507172e-01     
H    -7.57428670e-01     4.36284569e-01      5.69911649e-01      
C    2.03485925e-01      9.07033020e-01      -1.18027748e+00     
H    5.50551524e-01      1.88128168e+00      -8.43002856e-01     
H    9.53409970e-01      4.81607645e-01      -1.84206639e+00     
C    -1.10695178e+00     1.05114328e+00      -1.91702789e+00     
O    -2.14217609e+00     5.13093196e-01      -1.58680356e+00     
O    -9.51801343e-01     1.85285926e+00      -2.97224292e+00     
H    -1.81555072e+00     1.92081307e+00      -3.41781576e+00     
O    -1.97678157e+00     1.39105958e+00      1.31245406e+00      
H    -2.81140880e+00     1.30551112e+00      8.42190574e-01      
H    -2.20049055e+00     1.59184003e+00      2.22500432e+00      
O    2.56499036e+00      -2.40022631e-02     1.07690280e+00      
H    2.88290410e+00      5.03023920e-01      1.81376146e+00      
H    3.23050780e+00      -7.04164143e-01     9.48143155e-01      
O    -9.17253367e-01     -2.24566365e+00     -1.29465250e+00     
H    -1.81824932e+00     -2.11710871e+00     -1.60580938e+00     
H    -8.10193242e-01     -3.19695172e+00     -1.20676636e+00     
20
1719.669177
N    1.42758119e-03      1.76664882e-02      -1.90196799e-02     
H    9.18314303e-01      -1.25054166e-01     4.52804328e-01      
H    -3.09904458e-01     -9.27229747e-01     -3.32113353e-01     
H    -7.49462837e-01     4.33645697e-01      5.78754768e-01      
C    2.03573405e-01      9.06732814e-01      -1.18049261e+00     
H    5.50060692e-01      1.88090121e+00      -8.42773952e-01     
H    9.53927446e-01      4.81896157e-01      -1.84236135e+00     
C    -1.10696467e+00     1.05118760e+00      -1.91699615e+00     
O    -2.14218323e+00     5.13117669e-01      -1.58678601e+00     
O    -9.51800250e-01     1.85285550e+00      -2.97224561e+00     
H    -1.81554003e+00     1.92077639e+00      -3.41784207e+00     
O    -1.97673657e+00     1.39102961e+00      1.31232662e+00      
H    -2.81200708e+00     1.30596965e+00      8.43121761e-01      
H    -2.20098615e+00     1.59161336e+00      2.22485660e+00      
O    2.56502110e+00      -2.41078189e-02     1.07682715e+00      
H    2.88236629e+00      5.03148672e-01      1.81379199e+00      
H    3.23093515e+00      -7.03909376e-01     9.48384677e-01      
O    -9.17249391e-01     -2.24580187e+00     -1.29464559e+00     
H    -1.81812481e+00     -2.11594014e+00     -1.60557471e+00     
H    -8.09628780e-01     -3.19696048e+00     -1.20678731e+00     
20
1719.669177
N    1.64753894e-03      1.69114753e-02      -1.95607697e-02     
H    9.14182942e-01      -1.10868749e-01     4.62969859e-01      
H    -3.18374214e-01     -9.22865870e-01     -3.39719534e-01     
H    -7.41497004e-01     4.31006825e-01      5.87597887e-01      
C    2.03660885e-01      9.06432607e-01      -1.18070774e+00     
H    5.49569861e-01      1.88052075e+00      -8.42545047e-01     
H    9.54444922e-01      4.82184669e-01      -1.84265632e+00     
C    -1.10697756e+00     1.05123192e+00      -1.91696441e+00     
O    -2.14219038e+00     5.13142141e-01      -1.58676846e+00     
O    -9.51799158e-01     1.85285175e+00      -2.97224830e+00     
H    -1.81552934e+00     1.92073971e+00      -3.41786837e+00     
O    -1.97669158e+00     1.39099964e+00      1.31219919e+00      
H    -2.81260535e+00     1.30642817e+00      8.44052948e-01      
H    -2.20148176e+00     1.59138669e+00      2.22470888e+00      
O    2.56505184e+00      -2.42133747e-02     1.07675150e+00      
H    2.88182849e+00      5.03273425e-01      1.81382252e+00      
H    3.23136250e+00      -7.03654609e-01     9.48626199e-01      
O    -9.17245416e-01     -2.24594009e+00     -1.29463868e+00     
H    -1.81800030e+00     -2.11477157e+00     -1.60534005e+00     
H    -8.09064318e-01     -3.19696923e+00     -1.20680827e+00     
20
1719.669177
N    1.75751782e-03      1.65339689e-02      -1.98313146e-02     
H    9.12117262e-01      -1.03776040e-01     4.68052624e-01      
H    -3.22609092e-01     -9.20683931e-01     -3.43522624e-01     
H    -7.37514087e-01     4.29687390e-01      5.92019446e-01      
C    2.03704625e-01      9.06282504e-01      -1.18081531e+00     
H    5.49324445e-01      1.88033052e+00      -8.42430595e-01     
H    9.54703661e-01      4.82328925e-01      -1.84280380e+00     
C    -1.10698400e+00     1.05125408e+00      -1.91694854e+00     
O    -2.14219395e+00     5.13154378e-01      -1.58675969e+00     
O    -9.51798612e-01     1.85284987e+00      -2.97224965e+00     
H    -1.81552399e+00     1.92072137e+00      -3.41788152e+00     
O    -1.97666908e+00     1.39098466e+00      1.31213548e+00      
H    -2.81290449e+00     1.30665744e+00      8.44518541e-01      
H    -2.20172956e+00     1.59127336e+00      2.22463502e+00      
O    2.56506721e+00      -2.42661526e-02     1.07671367e+00      
H    2.88155959e+00      5.03335801e-01      1.81383779e+00      
H    3.23157617e+00      -7.03527225e-01     9.48746961e-01      
O    -9.17243429e-01     -2.24600920e+00     -1.29463523e+00     
H    -1.81793804e+00     -2.11418729e+00     -1.60522272e+00     
H    -8.08782088e-01     -3.19697361e+00     -1.20681874e+00     
20
1719.669177
N    1.86749669e-03      1.61564624e-02      -2.01018595e-02     
H    9.10051582e-01      -9.66833317e-02     4.73135389e-01      
H    -3.26843970e-01     -9.18501992e-01     -3.47325714e-01     
H    -7.33531171e-01     4.28367954e-01      5.96441005e-01      
C    2.03748365e-01      9.06132401e-01      -1.18092288e+00     
H    5.49079029e-01      1.88014028e+00      -8.42316143e-01     
H    9.54962399e-01      4.82473181e-01      -1.84295128e+00     
C    -1.10699044e+00     1.05127624e+00      -1.91693267e+00     
O    -2.14219752e+00     5.13166614e-01      -1.58675092e+00     
O    -9.51798065e-01     1.85284799e+00      -2.97225099e+00     
H    -1.81551864e+00     1.92070303e+00      -3.41789467e+00     
O    -1.97664658e+00     1.39096967e+00      1.31207176e+00      
H    -2.81320363e+00     1.30688670e+00      8.44984134e-01      
H    -2.20197736e+00     1.59116003e+00      2.22456116e+00      
O    2.56508258e+00      -2.43189306e-02     1.07667585e+00      
H    2.88129068e+00      5.03398177e-01      1.81385306e+00      
H    3.23178985e+00      -7.03399841e-01     9.48867722e-01      
O    -9.17241441e-01     -2.24607831e+00     -1.29463178e+00     
H    -1.81787579e+00     -2.11360301e+00     -1.60510538e+00     
H    -8.08499857e-01     -3.19697799e+00     -1.20682922e+00     
20
1719.669177
N    2.30741219e-03      1.46464366e-02      -2.11840391e-02     
H    9.01788860e-01      -6.83124973e-02     4.93466451e-01      
H    -3.43783482e-01     -9.09774238e-01     -3.62538076e-01     
H    -7.17599505e-01     4.23090210e-01      6.14127243e-01      
C    2.03923325e-01      9.05531989e-01      -1.18135314e+00     
H    5.48097367e-01      1.87937936e+00      -8.41858333e-01     
H    9.55997351e-01      4.83050205e-01      -1.84354120e+00     
C    -1.10701622e+00     1.05136488e+00      -1.91686919e+00     
O    -2.14221182e+00     5.13215560e-01      -1.58671582e+00     
O    -9.51795881e-01     1.85284047e+00      -2.97225637e+00     
H    -1.81549726e+00     1.92062967e+00      -3.41794727e+00     
O    -1.97655660e+00     1.39090973e+00      1.31181690e+00      
H    -2.81440017e+00     1.30780376e+00      8.46846508e-01      
H    -2.20296858e+00     1.59070669e+00      2.22426572e+00      
O    2.56514406e+00      -2.45300422e-02     1.07652455e+00      
H    2.88021508e+00      5.03647683e-01      1.81391412e+00      
H    3.23264455e+00      -7.02890307e-01     9.49350766e-01      
O    -9.17233491e-01     -2.24635475e+00     -1.29461796e+00     
H    -1.81762677e+00     -2.11126587e+00     -1.60463606e+00     
H    -8.07370933e-01     -3.19699551e+00     -1.20687112e+00     
20
1719.669177
N    2.41739106e-03      1.42689301e-02      -2.14545840e-02     
H    8.99723180e-01      -6.12197888e-02     4.98549216e-01      
H    -3.48018360e-01     -9.07592299e-01     -3.66341166e-01     
H    -7.13616589e-01     4.21770774e-01      6.18548802e-01      
C    2.03967065e-01      9.05381886e-01      -1.18146071e+00     
H    5.47851951e-01      1.87918912e+00      -8.41743881e-01     
H    9.56256089e-01      4.83194461e-01      -1.84368868e+00     
C    -1.10702266e+00     1.05138704e+00      -1.91685332e+00     
O    -2.14221539e+00     5.13227796e-01      -1.58670705e+00     
O    -9.51795334e-01     1.85283859e+00      -2.97225771e+00     
H    -1.81549191e+00     1.92061133e+00      -3.41796042e+00     
O    -1.97653410e+00     1.39089474e+00      1.31175318e+00      
H    -2.81469931e+00     1.30803302e+00      8.47312101e-01      
H    -2.20321638e+00     1.59059336e+00      2.22419186e+00      
O    2.56515943e+00      -2.45828202e-02     1.07648673e+00      
H    2.87994617e+00      5.03710059e-01      1.81392939e+00      
H    3.23285823e+00      -7.02762923e-01     9.49471527e-01      
O    -9.17231503e-01     -2.24642386e+00     -1.29461451e+00     
H    -1.81756452e+00     -2.11068159e+00     -1.60451872e+00     
H    -8.07088702e-01     -3.19699989e+00     -1.20688160e+00     
20
1719.669177
N    2.52736994e-03      1.38914237e-02      -2.17251289e-02     
H    8.97657500e-01      -5.41270802e-02     5.03631981e-01      
H    -3.52253238e-01     -9.05410360e-01     -3.70144256e-01     
H    -7.09633672e-01     4.20451339e-01      6.22970361e-01      
C    2.04010805e-01      9.05231783e-01      -1.18156828e+00     
H    5.47606535e-01      1.87899889e+00      -8.41629429e-01     
H    9.56514828e-01      4.83338717e-01      -1.84383616e+00     
C    -1.10702910e+00     1.05140920e+00      -1.91683745e+00     
O    -2.14221896e+00     5.13240033e-01      -1.58669828e+00     
O    -9.51794788e-01     1.85283671e+00      -2.97225906e+00     
H    -1.81548656e+00     1.92059299e+00      -3.41797357e+00     
O    -1.97651160e+00     1.39087976e+00      1.31168947e+00      
H    -2.81499845e+00     1.30826229e+00      8.47777694e-01      
H    -2.20346418e+00     1.59048003e+00      2.22411800e+00      
O    2.56517480e+00      -2.46355981e-02     1.07644890e+00      
H    2.87967727e+00      5.03772435e-01      1.81394466e+00      
H    3.23307190e+00      -7.02635539e-01     9.49592289e-01      
O    -9.17229516e-01     -2.24649297e+00     -1.29461106e+00     
H    -1.81750226e+00     -2.11009731e+00     -1.60440139e+00     
H    -8.06806472e-01     -3.19700427e+00     -1.20689207e+00     
20
1719.669177
N    2.74732769e-03      1.31364108e-02      -2.22662187e-02     
H    8.93526139e-01      -3.99416630e-02     5.13797512e-01      
H    -3.60722994e-01     -9.01046483e-01     -3.77750437e-01     
H    -7.01667839e-01     4.17812467e-01      6.31813480e-01      
C    2.04098285e-01      9.04931576e-01      -1.18178341e+00     
H    5.47115704e-01      1.87861843e+00      -8.41400524e-01     
H    9.57032304e-01      4.83627229e-01      -1.84413113e+00     
C    -1.10704199e+00     1.05145352e+00      -1.91680571e+00     
O    -2.14222611e+00     5.13264505e-01      -1.58668073e+00     
O    -9.51793696e-01     1.85283296e+00      -2.97226175e+00     
H    -1.81547587e+00     1.92055631e+00      -3.41799987e+00     
O    -1.97646661e+00     1.39084979e+00      1.31156204e+00      
H    -2.81559672e+00     1.30872081e+00      8.48708881e-01      
H    -2.20395979e+00     1.59025336e+00      2.22397028e+00      
O    2.56520554e+00      -2.47411539e-02     1.07637325e+00      
H    2.87913947e+00      5.03897188e-01      1.81397519e+00      
H    3.23349925e+00      -7.02380772e-01     9.49833811e-01      
O    -9.17225541e-01     -2.24663119e+00     -1.29460415e+00     
H    -1.81737775e+00     -2.10892874e+00     -1.60416673e+00     
H    -8.06242010e-01     -3.19701302e+00     -1.20691303e+00     
20
1719.669177
N    2.96728544e-03      1.23813979e-02      -2.28073085e-02     
H    8.89394778e-01      -2.57562459e-02     5.23963043e-01      
H    -3.69192750e-01     -8.96682605e-01     -3.85356618e-01     
H    -6.93702006e-01     4.15173595e-01      6.40656599e-01      
C    2.04185765e-01      9.04631370e-01      -1.18199854e+00     
H    5.46624872e-01      1.87823796e+00      -8.41171620e-01     
H    9.57549780e-01      4.83915741e-01      -1.84442609e+00     
C    -1.10705488e+00     1.05149784e+00      -1.91677397e+00     
O    -2.14223325e+00     5.13288978e-01      -1.58666318e+00     
O    -9.51792603e-01     1.85282920e+00      -2.97226444e+00     
H    -1.81546518e+00     1.92051963e+00      -3.41802618e+00     
O    -1.97642161e+00     1.39081982e+00      1.31143460e+00      
H    -2.81619500e+00     1.30917934e+00      8.49640068e-01      
H    -2.20445539e+00     1.59002669e+00      2.22382256e+00      
O    2.56523628e+00      -2.48467097e-02     1.07629760e+00      
H    2.87860166e+00      5.04021940e-01      1.81400572e+00      
H    3.23392660e+00      -7.02126005e-01     9.50075333e-01      
O    -9.17221565e-01     -2.24676941e+00     -1.29459724e+00     
H    -1.81725324e+00     -2.10776017e+00     -1.60393206e+00     
H    -8.05677548e-01     -3.19702178e+00     -1.20693398e+00     
20
1719.669177
N    3.18724319e-03      1.16263849e-02      -2.33483983e-02     
H    8.85263418e-01      -1.15708287e-02     5.34128574e-01      
H    -3.77662506e-01     -8.92318728e-01     -3.92962798e-01     
H    -6.85736173e-01     4.12534724e-01      6.49499717e-01      
C    2.04273245e-01      9.04331164e-01      -1.18221368e+00     
H    5.46134041e-01      1.87785750e+00      -8.40942715e-01     
H    9.58067257e-01      4.84204253e-01      -1.84472105e+00     
C    -1.10706776e+00     1.05154216e+00      -1.91674223e+00     
O    -2.14224040e+00     5.13313451e-01      -1.58664563e+00     
O    -9.51791511e-01     1.85282544e+00      -2.97226713e+00     
H    -1.81545448e+00     1.92048295e+00      -3.41805248e+00     
O    -1.97637662e+00     1.39078985e+00      1.31130717e+00      
H    -2.81679327e+00     1.30963787e+00      8.50571254e-01      
H    -2.20495100e+00     1.58980002e+00      2.22367484e+00      
O    2.56526702e+00      -2.49522656e-02     1.07622195e+00      
H    2.87806386e+00      5.04146693e-01      1.81403625e+00      
H    3.23435395e+00      -7.01871237e-01     9.50316856e-01      
O    -9.17217590e-01     -2.24690762e+00     -1.29459033e+00     
H    -1.81712873e+00     -2.10659161e+00     -1.60369740e+00     
H    -8.05113087e-01     -3.19703054e+00     -1.20695493e+00     
20
1719.669177
N    3.40720094e-03      1.08713720e-02      -2.38894881e-02     
H    8.81132057e-01      2.61458846e-03      5.44294104e-01      
H    -3.86132262e-01     -8.87954850e-01     -4.00568979e-01     
H    -6.77770340e-01     4.09895852e-01      6.58342836e-01      
C    2.04360725e-01      9.04030958e-01      -1.18242881e+00     
H    5.45643209e-01      1.87747703e+00      -8.40713811e-01     
H    9.58584733e-01      4.84492765e-01      -1.84501601e+00     
C    -1.10708065e+00     1.05158648e+00      -1.91671049e+00     
O    -2.14224755e+00     5.13337924e-01      -1.58662809e+00     
O    -9.51790419e-01     1.85282168e+00      -2.97226982e+00     
H    -1.81544379e+00     1.92044627e+00      -3.41807878e+00     
O    -1.97633162e+00     1.39075988e+00      1.31117974e+00      
H    -2.81739155e+00     1.31009640e+00      8.51502441e-01      
H    -2.20544660e+00     1.58957336e+00      2.22352712e+00      
O    2.56529776e+00      -2.50578214e-02     1.07614630e+00      
H    2.87752606e+00      5.04271445e-01      1.81406679e+00      
H    3.23478130e+00      -7.01616470e-01     9.50558378e-01      
O    -9.17213615e-01     -2.24704584e+00     -1.29458343e+00     
H    -1.81700422e+00     -2.10542304e+00     -1.60346274e+00     
H    -8.04548625e-01     -3.19703930e+00     -1.20697588e+00     
20
1719.669177
N    3.84711643e-03      9.36134622e-03      -2.49716677e-02     
H    8.72869336e-01      3.09854228e-02      5.64625166e-01      
H    -4.03071774e-01     -8.79227095e-01     -4.15781340e-01     
H    -6.61838675e-01     4.04618108e-01      6.76029073e-01      
C    2.04535685e-01      9.03430545e-01      -1.18285907e+00     
H    5.44661547e-01      1.87671610e+00      -8.40256002e-01     
H    9.59619686e-01      4.85069789e-01      -1.84560594e+00     
C    -1.10710642e+00     1.05167512e+00      -1.91664702e+00     
O    -2.14226184e+00     5.13386869e-01      -1.58659299e+00     
O    -9.51788234e-01     1.85281417e+00      -2.97227520e+00     
H    -1.81542240e+00     1.92037291e+00      -3.41813138e+00     
O    -1.97624164e+00     1.39069994e+00      1.31092488e+00      
H    -2.81858810e+00     1.31101346e+00      8.53364814e-01      
H    -2.20643781e+00     1.58912002e+00      2.22323168e+00      
O    2.56535924e+00      -2.52689331e-02     1.07599500e+00      
H    2.87645045e+00      5.04520950e-01      1.81412785e+00      
H    3.23563601e+00      -7.01106936e-01     9.51041422e-01      
O    -9.17205665e-01     -2.24732228e+00     -1.29456961e+00     
H    -1.81675520e+00     -2.10308591e+00     -1.60299341e+00     
H    -8.03419701e-01     -3.19705681e+00     -1.20701778e+00     
