20
3125.222414
N    2.16319627e-03      1.53723175e-02      -2.05714521e-02     
H    9.04232320e-01      -8.29098447e-02     4.83189717e-01      
H    -3.34507201e-01     -9.10791803e-01     -3.54250576e-01     
H    -7.23446542e-01     4.24571140e-01      6.02737240e-01      
C    1.91615283e-01      8.99831347e-01      -1.17773117e+00     
H    5.92531201e-01      2.00579797e+00      -7.96582765e-01     
H    1.05257629e+00      4.26306973e-01      -1.92852549e+00     
C    -1.10698373e+00     1.05127360e+00      -1.91682744e+00     
O    -2.14204702e+00     5.13249421e-01      -1.58675069e+00     
O    -9.51815486e-01     1.85282764e+00      -2.97223806e+00     
H    -1.81568074e+00     1.92088777e+00      -3.41830016e+00     
O    -1.97661117e+00     1.39095855e+00      1.31195408e+00      
H    -2.81364528e+00     1.30718112e+00      8.45895553e-01      
H    -2.20248039e+00     1.59084707e+00      2.22426433e+00      
O    2.56512620e+00      -2.44107927e-02     1.07658633e+00      
H    2.88067986e+00      5.03206613e-01      1.81369499e+00      
H    3.23198739e+00      -7.02923099e-01     9.49306416e-01      
O    -9.17236619e-01     -2.24623350e+00     -1.29464079e+00     
H    -1.81767627e+00     -2.11231841e+00     -1.60468972e+00     
H    -8.08012428e-01     -3.19683408e+00     -1.20682802e+00     
20
3125.222414
N    2.14426081e-03      1.53796005e-02      -2.05893264e-02     
H    9.04654295e-01      -8.28068621e-02     4.83217518e-01      
H    -3.34708832e-01     -9.11628381e-01     -3.54420906e-01     
H    -7.23976241e-01     4.24860625e-01      6.03373961e-01      
C    1.94670423e-01      9.01331559e-01      -1.17858288e+00     
H    5.81545450e-01      1.97428844e+00      -8.07958883e-01     
H    1.02830219e+00      4.40420653e-01      -1.90720568e+00     
C    -1.10698863e+00     1.05128534e+00      -1.91684581e+00     
O    -2.14208643e+00     5.13234838e-01      -1.58674636e+00     
O    -9.51810858e-01     1.85283179e+00      -2.97224196e+00     
H    -1.81563754e+00     1.92083241e+00      -3.41820536e+00     
O    -1.97660878e+00     1.39095383e+00      1.31195164e+00      
H    -2.81368443e+00     1.30722214e+00      8.45900495e-01      
H    -2.20247854e+00     1.59086864e+00      2.22430161e+00      
O    2.56512298e+00      -2.44142161e-02     1.07658979e+00      
H    2.88069812e+00      5.03285692e-01      1.81374214e+00      
H    3.23204485e+00      -7.02978593e-01     9.49257123e-01      
O    -9.17236830e-01     -2.24622926e+00     -1.29463681e+00     
H    -1.81769502e+00     -2.11234742e+00     -1.60473497e+00     
H    -8.07993170e-01     -3.19687224e+00     -1.20683356e+00     
20
3125.222414
N    2.13479309e-03      1.53832420e-02      -2.05982636e-02     
H    9.04865283e-01      -8.27553709e-02     4.83231418e-01      
H    -3.34809648e-01     -9.12046670e-01     -3.54506071e-01     
H    -7.24241090e-01     4.25005368e-01      6.03692321e-01      
C    1.96197994e-01      9.02081665e-01      -1.17900873e+00     
H    5.76052575e-01      1.95853367e+00      -8.13646943e-01     
H    1.01616514e+00      4.47477493e-01      -1.89654577e+00     
C    -1.10699108e+00     1.05129121e+00      -1.91685500e+00     
O    -2.14210614e+00     5.13227546e-01      -1.58674420e+00     
O    -9.51808544e-01     1.85283386e+00      -2.97224392e+00     
H    -1.81561594e+00     1.92080474e+00      -3.41815796e+00     
O    -1.97660758e+00     1.39095148e+00      1.31195042e+00      
H    -2.81370401e+00     1.30724266e+00      8.45902966e-01      
H    -2.20247761e+00     1.59087943e+00      2.22432025e+00      
O    2.56512137e+00      -2.44159278e-02     1.07659153e+00      
H    2.88070724e+00      5.03325232e-01      1.81376571e+00      
H    3.23207357e+00      -7.03006339e-01     9.49232477e-01      
O    -9.17236936e-01     -2.24622713e+00     -1.29463482e+00     
H    -1.81770440e+00     -2.11236192e+00     -1.60475760e+00     
H    -8.07983541e-01     -3.19689133e+00     -1.20683633e+00     
20
3125.222414
N    2.12532536e-03      1.53868835e-02      -2.06072007e-02     
H    9.05076271e-01      -8.27038796e-02     4.83245319e-01      
H    -3.34910464e-01     -9.12464959e-01     -3.54591236e-01     
H    -7.24505940e-01     4.25150111e-01      6.04010682e-01      
C    1.97725564e-01      9.02831771e-01      -1.17943459e+00     
H    5.70559699e-01      1.94277890e+00      -8.19335002e-01     
H    1.00402808e+00      4.54534333e-01      -1.88588587e+00     
C    -1.10699353e+00     1.05129708e+00      -1.91686419e+00     
O    -2.14212584e+00     5.13220254e-01      -1.58674203e+00     
O    -9.51806230e-01     1.85283594e+00      -2.97224587e+00     
H    -1.81559435e+00     1.92077706e+00      -3.41811057e+00     
O    -1.97660638e+00     1.39094912e+00      1.31194920e+00      
H    -2.81372359e+00     1.30726317e+00      8.45905437e-01      
H    -2.20247668e+00     1.59089021e+00      2.22433889e+00      
O    2.56511976e+00      -2.44176396e-02     1.07659326e+00      
H    2.88071637e+00      5.03364772e-01      1.81378929e+00      
H    3.23210230e+00      -7.03034086e-01     9.49207830e-01      
O    -9.17237042e-01     -2.24622501e+00     -1.29463283e+00     
H    -1.81771377e+00     -2.11237643e+00     -1.60478022e+00     
H    -8.07973911e-01     -3.19691041e+00     -1.20683910e+00     
20
3125.222414
N    2.11585763e-03      1.53905250e-02      -2.06161379e-02     
H    9.05287258e-01      -8.26523883e-02     4.83259219e-01      
H    -3.35011279e-01     -9.12883248e-01     -3.54676401e-01     
H    -7.24770789e-01     4.25294854e-01      6.04329042e-01      
C    1.99253134e-01      9.03581877e-01      -1.17986044e+00     
H    5.65066824e-01      1.92702413e+00      -8.25023061e-01     
H    9.91891032e-01      4.61591173e-01      -1.87522596e+00     
C    -1.10699598e+00     1.05130295e+00      -1.91687337e+00     
O    -2.14214555e+00     5.13212962e-01      -1.58673987e+00     
O    -9.51803915e-01     1.85283801e+00      -2.97224782e+00     
H    -1.81557275e+00     1.92074938e+00      -3.41806317e+00     
O    -1.97660518e+00     1.39094677e+00      1.31194799e+00      
H    -2.81374317e+00     1.30728369e+00      8.45907908e-01      
H    -2.20247575e+00     1.59090100e+00      2.22435752e+00      
O    2.56511815e+00      -2.44193513e-02     1.07659500e+00      
H    2.88072550e+00      5.03404311e-01      1.81381286e+00      
H    3.23213102e+00      -7.03061833e-01     9.49183184e-01      
O    -9.17237148e-01     -2.24622289e+00     -1.29463084e+00     
H    -1.81772315e+00     -2.11239093e+00     -1.60480285e+00     
H    -8.07964282e-01     -3.19692950e+00     -1.20684186e+00     
20
3125.222414
N    2.10638990e-03      1.53941665e-02      -2.06250750e-02     
H    9.05498246e-01      -8.26008970e-02     4.83273119e-01      
H    -3.35112095e-01     -9.13301537e-01     -3.54761565e-01     
H    -7.25035639e-01     4.25439596e-01      6.04647403e-01      
C    2.00780704e-01      9.04331983e-01      -1.18028630e+00     
H    5.59573949e-01      1.91126936e+00      -8.30711120e-01     
H    9.79753980e-01      4.68648013e-01      -1.86456605e+00     
C    -1.10699843e+00     1.05130882e+00      -1.91688256e+00     
O    -2.14216526e+00     5.13205671e-01      -1.58673770e+00     
O    -9.51801601e-01     1.85284008e+00      -2.97224977e+00     
H    -1.81555115e+00     1.92072170e+00      -3.41801577e+00     
O    -1.97660399e+00     1.39094441e+00      1.31194677e+00      
H    -2.81376274e+00     1.30730420e+00      8.45910379e-01      
H    -2.20247483e+00     1.59091179e+00      2.22437616e+00      
O    2.56511654e+00      -2.44210630e-02     1.07659673e+00      
H    2.88073463e+00      5.03443851e-01      1.81383644e+00      
H    3.23215975e+00      -7.03089580e-01     9.49158537e-01      
O    -9.17237254e-01     -2.24622077e+00     -1.29462885e+00     
H    -1.81773253e+00     -2.11240543e+00     -1.60482547e+00     
H    -8.07954653e-01     -3.19694858e+00     -1.20684463e+00     
20
3125.222414
N    2.10165603e-03      1.53959872e-02      -2.06295436e-02     
H    9.05603740e-01      -8.25751514e-02     4.83280070e-01      
H    -3.35162503e-01     -9.13510682e-01     -3.54804148e-01     
H    -7.25168064e-01     4.25511968e-01      6.04806583e-01      
C    2.01544490e-01      9.04707036e-01      -1.18049923e+00     
H    5.56827511e-01      1.90339197e+00      -8.33555149e-01     
H    9.73685454e-01      4.72176433e-01      -1.85923610e+00     
C    -1.10699966e+00     1.05131176e+00      -1.91688715e+00     
O    -2.14217511e+00     5.13202025e-01      -1.58673662e+00     
O    -9.51800444e-01     1.85284112e+00      -2.97225075e+00     
H    -1.81554035e+00     1.92070787e+00      -3.41799207e+00     
O    -1.97660339e+00     1.39094323e+00      1.31194616e+00      
H    -2.81377253e+00     1.30731446e+00      8.45911615e-01      
H    -2.20247436e+00     1.59091718e+00      2.22438548e+00      
O    2.56511573e+00      -2.44219188e-02     1.07659760e+00      
H    2.88073919e+00      5.03463621e-01      1.81384823e+00      
H    3.23217411e+00      -7.03103454e-01     9.49146214e-01      
O    -9.17237307e-01     -2.24621971e+00     -1.29462785e+00     
H    -1.81773722e+00     -2.11241268e+00     -1.60483678e+00     
H    -8.07949839e-01     -3.19695812e+00     -1.20684602e+00     
20
3125.222414
N    2.09692217e-03      1.53978080e-02      -2.06340122e-02     
H    9.05709233e-01      -8.25494058e-02     4.83287020e-01      
H    -3.35212910e-01     -9.13719826e-01     -3.54846730e-01     
H    -7.25300488e-01     4.25584339e-01      6.04965763e-01      
C    2.02308275e-01      9.05082089e-01      -1.18071215e+00     
H    5.54081073e-01      1.89551459e+00      -8.36399179e-01     
H    9.67616927e-01      4.75704853e-01      -1.85390615e+00     
C    -1.10700088e+00     1.05131469e+00      -1.91689174e+00     
O    -2.14218496e+00     5.13198379e-01      -1.58673554e+00     
O    -9.51799287e-01     1.85284216e+00      -2.97225173e+00     
H    -1.81552955e+00     1.92069403e+00      -3.41796837e+00     
O    -1.97660279e+00     1.39094206e+00      1.31194555e+00      
H    -2.81378232e+00     1.30732472e+00      8.45912850e-01      
H    -2.20247390e+00     1.59092257e+00      2.22439480e+00      
O    2.56511493e+00      -2.44227747e-02     1.07659847e+00      
H    2.88074375e+00      5.03483390e-01      1.81386001e+00      
H    3.23218847e+00      -7.03117327e-01     9.49133891e-01      
O    -9.17237360e-01     -2.24621865e+00     -1.29462686e+00     
H    -1.81774190e+00     -2.11241994e+00     -1.60484810e+00     
H    -8.07945024e-01     -3.19696767e+00     -1.20684740e+00     
20
3125.222414
N    2.07798671e-03      1.54050910e-02      -2.06518864e-02     
H    9.06131209e-01      -8.24464232e-02     4.83314820e-01      
H    -3.35414542e-01     -9.14556404e-01     -3.55017060e-01     
H    -7.25830188e-01     4.25873825e-01      6.05602485e-01      
C    2.05363415e-01      9.06582301e-01      -1.18156387e+00     
H    5.43095323e-01      1.86400505e+00      -8.47775297e-01     
H    9.43342823e-01      4.89818533e-01      -1.83258633e+00     
C    -1.10700578e+00     1.05132643e+00      -1.91691012e+00     
O    -2.14222438e+00     5.13183795e-01      -1.58673120e+00     
O    -9.51794659e-01     1.85284630e+00      -2.97225563e+00     
H    -1.81548635e+00     1.92063867e+00      -3.41787357e+00     
O    -1.97660039e+00     1.39093734e+00      1.31194311e+00      
H    -2.81382148e+00     1.30736574e+00      8.45917792e-01      
H    -2.20247204e+00     1.59094415e+00      2.22443208e+00      
O    2.56511171e+00      -2.44261981e-02     1.07660193e+00      
H    2.88076201e+00      5.03562470e-01      1.81390717e+00      
H    3.23224593e+00      -7.03172821e-01     9.49084597e-01      
O    -9.17237572e-01     -2.24621441e+00     -1.29462288e+00     
H    -1.81776066e+00     -2.11244894e+00     -1.60489334e+00     
H    -8.07925766e-01     -3.19700583e+00     -1.20685294e+00     
20
3125.222414
N    2.07325285e-03      1.54069118e-02      -2.06563550e-02     
H    9.06236702e-01      -8.24206776e-02     4.83321770e-01      
H    -3.35464949e-01     -9.14765548e-01     -3.55059642e-01     
H    -7.25962612e-01     4.25946196e-01      6.05761665e-01      
C    2.06127200e-01      9.06957354e-01      -1.18177679e+00     
H    5.40348885e-01      1.85612767e+00      -8.50619327e-01     
H    9.37274296e-01      4.93346953e-01      -1.82725638e+00     
C    -1.10700700e+00     1.05132936e+00      -1.91691471e+00     
O    -2.14223423e+00     5.13180149e-01      -1.58673012e+00     
O    -9.51793502e-01     1.85284734e+00      -2.97225661e+00     
H    -1.81547555e+00     1.92062483e+00      -3.41784987e+00     
O    -1.97659979e+00     1.39093617e+00      1.31194250e+00      
H    -2.81383127e+00     1.30737600e+00      8.45919027e-01      
H    -2.20247158e+00     1.59094954e+00      2.22444140e+00      
O    2.56511091e+00      -2.44270540e-02     1.07660280e+00      
H    2.88076657e+00      5.03582239e-01      1.81391895e+00      
H    3.23226029e+00      -7.03186694e-01     9.49072274e-01      
O    -9.17237625e-01     -2.24621335e+00     -1.29462189e+00     
H    -1.81776534e+00     -2.11245620e+00     -1.60490466e+00     
H    -8.07920951e-01     -3.19701538e+00     -1.20685432e+00     
20
3125.222414
N    2.06851898e-03      1.54087325e-02      -2.06608236e-02     
H    9.06342196e-01      -8.23949320e-02     4.83328721e-01      
H    -3.35515357e-01     -9.14974693e-01     -3.55102225e-01     
H    -7.26095037e-01     4.26018568e-01      6.05920845e-01      
C    2.06890986e-01      9.07332407e-01      -1.18198972e+00     
H    5.37602447e-01      1.84825028e+00      -8.53463356e-01     
H    9.31205770e-01      4.96875373e-01      -1.82192643e+00     
C    -1.10700823e+00     1.05133230e+00      -1.91691930e+00     
O    -2.14224408e+00     5.13176503e-01      -1.58672904e+00     
O    -9.51792345e-01     1.85284838e+00      -2.97225759e+00     
H    -1.81546475e+00     1.92061100e+00      -3.41782617e+00     
O    -1.97659919e+00     1.39093499e+00      1.31194189e+00      
H    -2.81384106e+00     1.30738626e+00      8.45920263e-01      
H    -2.20247111e+00     1.59095493e+00      2.22445072e+00      
O    2.56511010e+00      -2.44279098e-02     1.07660367e+00      
H    2.88077113e+00      5.03602009e-01      1.81393074e+00      
H    3.23227465e+00      -7.03200568e-01     9.49059951e-01      
O    -9.17237678e-01     -2.24621229e+00     -1.29462089e+00     
H    -1.81777003e+00     -2.11246345e+00     -1.60491597e+00     
H    -8.07916137e-01     -3.19702492e+00     -1.20685571e+00     
20
3125.222414
N    2.05905125e-03      1.54123740e-02      -2.06697607e-02     
H    9.06553184e-01      -8.23434407e-02     4.83342621e-01      
H    -3.35616173e-01     -9.15392982e-01     -3.55187389e-01     
H    -7.26359887e-01     4.26163310e-01      6.06239206e-01      
C    2.08418556e-01      9.08082513e-01      -1.18241558e+00     
H    5.32109572e-01      1.83249551e+00      -8.59151415e-01     
H    9.19068718e-01      5.03932213e-01      -1.81126652e+00     
C    -1.10701068e+00     1.05133817e+00      -1.91692849e+00     
O    -2.14226379e+00     5.13169212e-01      -1.58672687e+00     
O    -9.51790031e-01     1.85285045e+00      -2.97225954e+00     
H    -1.81544315e+00     1.92058332e+00      -3.41777877e+00     
O    -1.97659800e+00     1.39093263e+00      1.31194067e+00      
H    -2.81386063e+00     1.30740677e+00      8.45922734e-01      
H    -2.20247019e+00     1.59096572e+00      2.22446936e+00      
O    2.56510849e+00      -2.44296215e-02     1.07660540e+00      
H    2.88078026e+00      5.03641549e-01      1.81395432e+00      
H    3.23230338e+00      -7.03228315e-01     9.49035304e-01      
O    -9.17237784e-01     -2.24621017e+00     -1.29461890e+00     
H    -1.81777941e+00     -2.11247795e+00     -1.60493859e+00     
H    -8.07906508e-01     -3.19704400e+00     -1.20685848e+00     
20
3125.222414
N    2.04958352e-03      1.54160155e-02      -2.06786979e-02     
H    9.06764171e-01      -8.22919494e-02     4.83356521e-01      
H    -3.35716988e-01     -9.15811271e-01     -3.55272554e-01     
H    -7.26624736e-01     4.26308053e-01      6.06557566e-01      
C    2.09946126e-01      9.08832619e-01      -1.18284143e+00     
H    5.26616697e-01      1.81674074e+00      -8.64839474e-01     
H    9.06931665e-01      5.10989053e-01      -1.80060661e+00     
C    -1.10701313e+00     1.05134404e+00      -1.91693767e+00     
O    -2.14228350e+00     5.13161920e-01      -1.58672471e+00     
O    -9.51787716e-01     1.85285252e+00      -2.97226149e+00     
H    -1.81542155e+00     1.92055564e+00      -3.41773137e+00     
O    -1.97659680e+00     1.39093028e+00      1.31193946e+00      
H    -2.81388021e+00     1.30742729e+00      8.45925205e-01      
H    -2.20246926e+00     1.59097651e+00      2.22448799e+00      
O    2.56510688e+00      -2.44313332e-02     1.07660714e+00      
H    2.88078939e+00      5.03681088e-01      1.81397789e+00      
H    3.23233210e+00      -7.03256062e-01     9.49010658e-01      
O    -9.17237890e-01     -2.24620805e+00     -1.29461691e+00     
H    -1.81778879e+00     -2.11249245e+00     -1.60496122e+00     
H    -8.07896879e-01     -3.19706309e+00     -1.20686124e+00     
20
3125.222414
N    2.04011579e-03      1.54196570e-02      -2.06876350e-02     
H    9.06975159e-01      -8.22404581e-02     4.83370422e-01      
H    -3.35817804e-01     -9.16229560e-01     -3.55357719e-01     
H    -7.26889586e-01     4.26452796e-01      6.06875927e-01      
C    2.11473696e-01      9.09582725e-01      -1.18326729e+00     
H    5.21123821e-01      1.80098597e+00      -8.70527533e-01     
H    8.94794613e-01      5.18045893e-01      -1.78994671e+00     
C    -1.10701558e+00     1.05134991e+00      -1.91694686e+00     
O    -2.14230320e+00     5.13154628e-01      -1.58672254e+00     
O    -9.51785402e-01     1.85285460e+00      -2.97226344e+00     
H    -1.81539996e+00     1.92052796e+00      -3.41768398e+00     
O    -1.97659560e+00     1.39092792e+00      1.31193824e+00      
H    -2.81389979e+00     1.30744780e+00      8.45927676e-01      
H    -2.20246833e+00     1.59098729e+00      2.22450663e+00      
O    2.56510527e+00      -2.44330450e-02     1.07660887e+00      
H    2.88079852e+00      5.03720628e-01      1.81400147e+00      
H    3.23236083e+00      -7.03283809e-01     9.48986011e-01      
O    -9.17237996e-01     -2.24620593e+00     -1.29461492e+00     
H    -1.81779816e+00     -2.11250696e+00     -1.60498384e+00     
H    -8.07887249e-01     -3.19708217e+00     -1.20686401e+00     
20
3125.222414
N    2.03064807e-03      1.54232985e-02      -2.06965722e-02     
H    9.07186147e-01      -8.21889669e-02     4.83384322e-01      
H    -3.35918620e-01     -9.16647849e-01     -3.55442884e-01     
H    -7.27154435e-01     4.26597539e-01      6.07194287e-01      
C    2.13001267e-01      9.10332831e-01      -1.18369314e+00     
H    5.15630946e-01      1.78523120e+00      -8.76215593e-01     
H    8.82657560e-01      5.25102733e-01      -1.77928680e+00     
C    -1.10701803e+00     1.05135578e+00      -1.91695605e+00     
O    -2.14232291e+00     5.13147336e-01      -1.58672038e+00     
O    -9.51783088e-01     1.85285667e+00      -2.97226540e+00     
H    -1.81537836e+00     1.92050029e+00      -3.41763658e+00     
O    -1.97659440e+00     1.39092557e+00      1.31193702e+00      
H    -2.81391937e+00     1.30746832e+00      8.45930147e-01      
H    -2.20246740e+00     1.59099808e+00      2.22452527e+00      
O    2.56510366e+00      -2.44347567e-02     1.07661061e+00      
H    2.88080764e+00      5.03760168e-01      1.81402504e+00      
H    3.23238955e+00      -7.03311555e-01     9.48961365e-01      
O    -9.17238102e-01     -2.24620380e+00     -1.29461293e+00     
H    -1.81780754e+00     -2.11252146e+00     -1.60500647e+00     
H    -8.07877620e-01     -3.19710126e+00     -1.20686678e+00     
20
3125.222414
N    2.01171261e-03      1.54305815e-02      -2.07144465e-02     
H    9.07608122e-01      -8.20859843e-02     4.83412123e-01      
H    -3.36120251e-01     -9.17484427e-01     -3.55613214e-01     
H    -7.27684134e-01     4.26887024e-01      6.07831008e-01      
C    2.16056407e-01      9.11833043e-01      -1.18454485e+00     
H    5.04645195e-01      1.75372167e+00      -8.87591711e-01     
H    8.58383455e-01      5.39216413e-01      -1.75796699e+00     
C    -1.10702293e+00     1.05136752e+00      -1.91697442e+00     
O    -2.14236232e+00     5.13132753e-01      -1.58671605e+00     
O    -9.51778460e-01     1.85286082e+00      -2.97226930e+00     
H    -1.81533516e+00     1.92044493e+00      -3.41754178e+00     
O    -1.97659201e+00     1.39092085e+00      1.31193458e+00      
H    -2.81395852e+00     1.30750934e+00      8.45935089e-01      
H    -2.20246555e+00     1.59101965e+00      2.22456255e+00      
O    2.56510044e+00      -2.44381801e-02     1.07661407e+00      
H    2.88082590e+00      5.03839247e-01      1.81407219e+00      
H    3.23244701e+00      -7.03367049e-01     9.48912072e-01      
O    -9.17238313e-01     -2.24619956e+00     -1.29460895e+00     
H    -1.81782629e+00     -2.11255047e+00     -1.60505172e+00     
H    -8.07858362e-01     -3.19713942e+00     -1.20687232e+00     
