20
3800.500924
N    2.13001042e-03      1.52644140e-02      -2.07423195e-02     
H    9.05970891e-01      -8.26888692e-02     4.83158538e-01      
H    -3.34210803e-01     -9.11735874e-01     -3.54521349e-01     
H    -7.27592484e-01     4.26319232e-01      6.07055669e-01      
C    2.03824119e-01      9.05873032e-01      -1.18110904e+00     
H    5.48429764e-01      1.87936577e+00      -8.42230962e-01     
H    9.55798410e-01      4.82591465e-01      -1.84350365e+00     
C    -1.10701162e+00     1.05134890e+00      -1.91687953e+00     
O    -2.14220650e+00     5.13196539e-01      -1.58672940e+00     
O    -9.51796687e-01     1.85284120e+00      -2.97225679e+00     
H    -1.81549723e+00     1.92066987e+00      -3.41791086e+00     
O    -1.98257874e+00     1.39190162e+00      1.31557882e+00      
H    -2.73829366e+00     1.31576237e+00      8.94459879e-01      
H    -2.18224386e+00     1.56710023e+00      2.11738963e+00      
O    2.56510578e+00      -2.43698569e-02     1.07664559e+00      
H    2.88046516e+00      5.03049725e-01      1.81321411e+00      
H    3.23262741e+00      -7.03547492e-01     9.49051474e-01      
O    -9.13319162e-01     -2.24070922e+00     -1.29353520e+00     
H    -1.89843349e+00     -2.09486381e+00     -1.63348497e+00     
H    -7.89943671e-01     -3.30300303e+00     -1.19560705e+00     
20
3800.500924
N    2.11937143e-03      1.52986729e-02      -2.07174770e-02     
H    9.05958224e-01      -8.26411305e-02     4.83194133e-01      
H    -3.34486534e-01     -9.12336434e-01     -3.54623985e-01     
H    -7.27085697e-01     4.26171694e-01      6.06612783e-01      
C    2.03827050e-01      9.05862823e-01      -1.18111628e+00     
H    5.48469373e-01      1.87946428e+00      -8.42195031e-01     
H    9.55718776e-01      4.82634022e-01      -1.84343930e+00     
C    -1.10700955e+00     1.05134182e+00      -1.91688488e+00     
O    -2.14220604e+00     5.13195176e-01      -1.58673039e+00     
O    -9.51796759e-01     1.85284196e+00      -2.97225601e+00     
H    -1.81549991e+00     1.92066899e+00      -3.41791339e+00     
O    -1.98108445e+00     1.39166114e+00      1.31467020e+00      
H    -2.75717072e+00     1.31365808e+00      8.82323739e-01      
H    -2.18730114e+00     1.57305852e+00      2.14414558e+00      
O    2.56510767e+00      -2.43835143e-02     1.07663425e+00      
H    2.88053709e+00      5.03168026e-01      1.81338148e+00      
H    3.23252486e+00      -7.03446887e-01     9.49065917e-01      
O    -9.14298738e-01     -2.24208605e+00     -1.29380762e+00     
H    -1.87826294e+00     -2.09925647e+00     -1.62633141e+00     
H    -7.94441602e-01     -3.27649896e+00     -1.19841783e+00     
20
3800.500924
N    2.11405193e-03      1.53158023e-02      -2.07050557e-02     
H    9.05951890e-01      -8.26172612e-02     4.83211931e-01      
H    -3.34624399e-01     -9.12636714e-01     -3.54675303e-01     
H    -7.26832304e-01     4.26097926e-01      6.06391340e-01      
C    2.03828516e-01      9.05857718e-01      -1.18111991e+00     
H    5.48489177e-01      1.87951354e+00      -8.42177066e-01     
H    9.55678959e-01      4.82655301e-01      -1.84340712e+00     
C    -1.10700851e+00     1.05133827e+00      -1.91688756e+00     
O    -2.14220581e+00     5.13194495e-01      -1.58673089e+00     
O    -9.51796794e-01     1.85284234e+00      -2.97225563e+00     
H    -1.81550125e+00     1.92066855e+00      -3.41791465e+00     
O    -1.98033731e+00     1.39154090e+00      1.31421589e+00      
H    -2.76660925e+00     1.31260594e+00      8.76255670e-01      
H    -2.18982978e+00     1.57603766e+00      2.15752356e+00      
O    2.56510861e+00      -2.43903430e-02     1.07662857e+00      
H    2.88057306e+00      5.03227177e-01      1.81346516e+00      
H    3.23247358e+00      -7.03396585e-01     9.49073138e-01      
O    -9.14788526e-01     -2.24277446e+00     -1.29394383e+00     
H    -1.86817766e+00     -2.10145280e+00     -1.62275463e+00     
H    -7.96690567e-01     -3.26324692e+00     -1.19982322e+00     
20
3800.500924
N    2.10873243e-03      1.53329317e-02      -2.06926344e-02     
H    9.05945556e-01      -8.25933919e-02     4.83229729e-01      
H    -3.34762265e-01     -9.12936994e-01     -3.54726622e-01     
H    -7.26578911e-01     4.26024157e-01      6.06169896e-01      
C    2.03829982e-01      9.05852614e-01      -1.18112353e+00     
H    5.48508981e-01      1.87956280e+00      -8.42159100e-01     
H    9.55639142e-01      4.82676579e-01      -1.84337494e+00     
C    -1.10700748e+00     1.05133473e+00      -1.91689023e+00     
O    -2.14220559e+00     5.13193813e-01      -1.58673138e+00     
O    -9.51796830e-01     1.85284272e+00      -2.97225524e+00     
H    -1.81550259e+00     1.92066811e+00      -3.41791592e+00     
O    -1.97959017e+00     1.39142066e+00      1.31376158e+00      
H    -2.77604778e+00     1.31155380e+00      8.70187600e-01      
H    -2.19235842e+00     1.57901680e+00      2.17090153e+00      
O    2.56510955e+00      -2.43971717e-02     1.07662290e+00      
H    2.88060902e+00      5.03286327e-01      1.81354885e+00      
H    3.23242230e+00      -7.03346283e-01     9.49080359e-01      
O    -9.15278314e-01     -2.24346288e+00     -1.29408004e+00     
H    -1.85809239e+00     -2.10364913e+00     -1.61917785e+00     
H    -7.98939533e-01     -3.24999489e+00     -1.20122861e+00     
20
3800.500924
N    2.10341293e-03      1.53500612e-02      -2.06802131e-02     
H    9.05939222e-01      -8.25695225e-02     4.83247527e-01      
H    -3.34900130e-01     -9.13237274e-01     -3.54777940e-01     
H    -7.26325518e-01     4.25950388e-01      6.05948453e-01      
C    2.03831448e-01      9.05847509e-01      -1.18112715e+00     
H    5.48528785e-01      1.87961205e+00      -8.42141135e-01     
H    9.55599326e-01      4.82697858e-01      -1.84334277e+00     
C    -1.10700644e+00     1.05133119e+00      -1.91689291e+00     
O    -2.14220536e+00     5.13193132e-01      -1.58673188e+00     
O    -9.51796866e-01     1.85284309e+00      -2.97225485e+00     
H    -1.81550393e+00     1.92066767e+00      -3.41791718e+00     
O    -1.97884302e+00     1.39130042e+00      1.31330727e+00      
H    -2.78548631e+00     1.31050166e+00      8.64119530e-01      
H    -2.19488705e+00     1.58199594e+00      2.18427951e+00      
O    2.56511049e+00      -2.44040003e-02     1.07661722e+00      
H    2.88064499e+00      5.03345478e-01      1.81363253e+00      
H    3.23237103e+00      -7.03295981e-01     9.49087580e-01      
O    -9.15768102e-01     -2.24415129e+00     -1.29421624e+00     
H    -1.84800711e+00     -2.10584546e+00     -1.61560106e+00     
H    -8.01188498e-01     -3.23674285e+00     -1.20263400e+00     
20
3800.500924
N    2.09809344e-03      1.53671906e-02      -2.06677919e-02     
H    9.05932889e-01      -8.25456532e-02     4.83265324e-01      
H    -3.35037995e-01     -9.13537555e-01     -3.54829258e-01     
H    -7.26072124e-01     4.25876619e-01      6.05727010e-01      
C    2.03832913e-01      9.05842404e-01      -1.18113077e+00     
H    5.48548590e-01      1.87966131e+00      -8.42123169e-01     
H    9.55559509e-01      4.82719136e-01      -1.84331059e+00     
C    -1.10700540e+00     1.05132765e+00      -1.91689558e+00     
O    -2.14220513e+00     5.13192450e-01      -1.58673238e+00     
O    -9.51796902e-01     1.85284347e+00      -2.97225446e+00     
H    -1.81550527e+00     1.92066723e+00      -3.41791844e+00     
O    -1.97809588e+00     1.39118018e+00      1.31285295e+00      
H    -2.79492484e+00     1.30944951e+00      8.58051460e-01      
H    -2.19741569e+00     1.58497508e+00      2.19765749e+00      
O    2.56511144e+00      -2.44108290e-02     1.07661155e+00      
H    2.88068095e+00      5.03404629e-01      1.81371622e+00      
H    3.23231975e+00      -7.03245678e-01     9.49094802e-01      
O    -9.16257890e-01     -2.24483970e+00     -1.29435245e+00     
H    -1.83792183e+00     -2.10804178e+00     -1.61202428e+00     
H    -8.03437464e-01     -3.22349082e+00     -1.20403939e+00     
20
3800.500924
N    2.09543369e-03      1.53757553e-02      -2.06615812e-02     
H    9.05929722e-01      -8.25337185e-02     4.83274223e-01      
H    -3.35106928e-01     -9.13687695e-01     -3.54854918e-01     
H    -7.25945428e-01     4.25839735e-01      6.05616289e-01      
C    2.03833646e-01      9.05839852e-01      -1.18113258e+00     
H    5.48558492e-01      1.87968594e+00      -8.42114186e-01     
H    9.55539600e-01      4.82729775e-01      -1.84329450e+00     
C    -1.10700489e+00     1.05132587e+00      -1.91689692e+00     
O    -2.14220501e+00     5.13192109e-01      -1.58673263e+00     
O    -9.51796919e-01     1.85284366e+00      -2.97225426e+00     
H    -1.81550594e+00     1.92066701e+00      -3.41791908e+00     
O    -1.97772231e+00     1.39112006e+00      1.31262580e+00      
H    -2.79964411e+00     1.30892344e+00      8.55017426e-01      
H    -2.19868001e+00     1.58646465e+00      2.20434647e+00      
O    2.56511191e+00      -2.44142434e-02     1.07660871e+00      
H    2.88069893e+00      5.03434204e-01      1.81375806e+00      
H    3.23229411e+00      -7.03220527e-01     9.49098412e-01      
O    -9.16502784e-01     -2.24518391e+00     -1.29442056e+00     
H    -1.83287920e+00     -2.10913995e+00     -1.61023589e+00     
H    -8.04561947e-01     -3.21686480e+00     -1.20474208e+00     
20
3800.500924
N    2.09277394e-03      1.53843201e-02      -2.06553706e-02     
H    9.05926555e-01      -8.25217838e-02     4.83283122e-01      
H    -3.35175861e-01     -9.13837835e-01     -3.54880577e-01     
H    -7.25818731e-01     4.25802851e-01      6.05505567e-01      
C    2.03834379e-01      9.05837300e-01      -1.18113439e+00     
H    5.48568394e-01      1.87971056e+00      -8.42105204e-01     
H    9.55519692e-01      4.82740415e-01      -1.84327842e+00     
C    -1.10700437e+00     1.05132410e+00      -1.91689826e+00     
O    -2.14220490e+00     5.13191769e-01      -1.58673287e+00     
O    -9.51796937e-01     1.85284385e+00      -2.97225407e+00     
H    -1.81550661e+00     1.92066679e+00      -3.41791971e+00     
O    -1.97734873e+00     1.39105994e+00      1.31239864e+00      
H    -2.80436337e+00     1.30839737e+00      8.51983391e-01      
H    -2.19994433e+00     1.58795422e+00      2.21103546e+00      
O    2.56511238e+00      -2.44176577e-02     1.07660587e+00      
H    2.88071692e+00      5.03463779e-01      1.81379990e+00      
H    3.23226848e+00      -7.03195376e-01     9.49102023e-01      
O    -9.16747678e-01     -2.24552812e+00     -1.29448866e+00     
H    -1.82783656e+00     -2.11023811e+00     -1.60844750e+00     
H    -8.05686429e-01     -3.21023878e+00     -1.20544478e+00     
20
3800.500924
N    2.08213494e-03      1.54185789e-02      -2.06305280e-02     
H    9.05913887e-01      -8.24740452e-02     4.83318718e-01      
H    -3.35451591e-01     -9.14438395e-01     -3.54983213e-01     
H    -7.25311945e-01     4.25655313e-01      6.05062681e-01      
C    2.03837311e-01      9.05827090e-01      -1.18114163e+00     
H    5.48608002e-01      1.87980908e+00      -8.42069272e-01     
H    9.55440058e-01      4.82782971e-01      -1.84321406e+00     
C    -1.10700229e+00     1.05131702e+00      -1.91690360e+00     
O    -2.14220444e+00     5.13190405e-01      -1.58673387e+00     
O    -9.51797009e-01     1.85284461e+00      -2.97225329e+00     
H    -1.81550929e+00     1.92066591e+00      -3.41792223e+00     
O    -1.97585445e+00     1.39081946e+00      1.31149002e+00      
H    -2.82324043e+00     1.30629309e+00      8.39847251e-01      
H    -2.20500161e+00     1.59391250e+00      2.23779142e+00      
O    2.56511426e+00      -2.44313151e-02     1.07659453e+00      
H    2.88078884e+00      5.03582081e-01      1.81396728e+00      
H    3.23216592e+00      -7.03094772e-01     9.49116465e-01      
O    -9.17727254e-01     -2.24690494e+00     -1.29476108e+00     
H    -1.80766600e+00     -2.11463077e+00     -1.60129394e+00     
H    -8.10184361e-01     -3.18373472e+00     -1.20825556e+00     
20
3800.500924
N    2.07947519e-03      1.54271437e-02      -2.06243174e-02     
H    9.05910720e-01      -8.24621105e-02     4.83327617e-01      
H    -3.35520524e-01     -9.14588535e-01     -3.55008872e-01     
H    -7.25185248e-01     4.25618429e-01      6.04951959e-01      
C    2.03838044e-01      9.05824538e-01      -1.18114344e+00     
H    5.48617904e-01      1.87983370e+00      -8.42060290e-01     
H    9.55420150e-01      4.82793611e-01      -1.84319798e+00     
C    -1.10700177e+00     1.05131525e+00      -1.91690494e+00     
O    -2.14220433e+00     5.13190065e-01      -1.58673411e+00     
O    -9.51797027e-01     1.85284480e+00      -2.97225310e+00     
H    -1.81550996e+00     1.92066569e+00      -3.41792286e+00     
O    -1.97548087e+00     1.39075934e+00      1.31126286e+00      
H    -2.82795969e+00     1.30576702e+00      8.36813216e-01      
H    -2.20626593e+00     1.59540207e+00      2.24448041e+00      
O    2.56511473e+00      -2.44347294e-02     1.07659169e+00      
H    2.88080683e+00      5.03611656e-01      1.81400912e+00      
H    3.23214029e+00      -7.03069621e-01     9.49120076e-01      
O    -9.17972148e-01     -2.24724915e+00     -1.29482918e+00     
H    -1.80262336e+00     -2.11572893e+00     -1.59950555e+00     
H    -8.11308843e-01     -3.17710870e+00     -1.20895826e+00     
20
3800.500924
N    2.07681544e-03      1.54357084e-02      -2.06181067e-02     
H    9.05907553e-01      -8.24501758e-02     4.83336516e-01      
H    -3.35589457e-01     -9.14738675e-01     -3.55034532e-01     
H    -7.25058552e-01     4.25581545e-01      6.04841238e-01      
C    2.03838777e-01      9.05821986e-01      -1.18114525e+00     
H    5.48627806e-01      1.87985833e+00      -8.42051307e-01     
H    9.55400241e-01      4.82804250e-01      -1.84318189e+00     
C    -1.10700126e+00     1.05131347e+00      -1.91690628e+00     
O    -2.14220421e+00     5.13189724e-01      -1.58673436e+00     
O    -9.51797044e-01     1.85284499e+00      -2.97225290e+00     
H    -1.81551063e+00     1.92066547e+00      -3.41792350e+00     
O    -1.97510730e+00     1.39069922e+00      1.31103571e+00      
H    -2.83267896e+00     1.30524095e+00      8.33779182e-01      
H    -2.20753025e+00     1.59689164e+00      2.25116939e+00      
O    2.56511520e+00      -2.44381438e-02     1.07658885e+00      
H    2.88082481e+00      5.03641231e-01      1.81405096e+00      
H    3.23211465e+00      -7.03044470e-01     9.49123686e-01      
O    -9.18217042e-01     -2.24759336e+00     -1.29489729e+00     
H    -1.79758073e+00     -2.11682710e+00     -1.59771716e+00     
H    -8.12433326e-01     -3.17048268e+00     -1.20966095e+00     
20
3800.500924
N    2.07149595e-03      1.54528378e-02      -2.06056855e-02     
H    9.05901220e-01      -8.24263065e-02     4.83354313e-01      
H    -3.35727322e-01     -9.15038956e-01     -3.55085850e-01     
H    -7.24805158e-01     4.25507776e-01      6.04619795e-01      
C    2.03840242e-01      9.05816881e-01      -1.18114887e+00     
H    5.48647611e-01      1.87990759e+00      -8.42033341e-01     
H    9.55360424e-01      4.82825528e-01      -1.84314971e+00     
C    -1.10700022e+00     1.05130993e+00      -1.91690895e+00     
O    -2.14220398e+00     5.13189042e-01      -1.58673486e+00     
O    -9.51797080e-01     1.85284537e+00      -2.97225251e+00     
H    -1.81551197e+00     1.92066503e+00      -3.41792476e+00     
O    -1.97436016e+00     1.39057898e+00      1.31058139e+00      
H    -2.84211749e+00     1.30418880e+00      8.27711112e-01      
H    -2.21005889e+00     1.59987078e+00      2.26454737e+00      
O    2.56511615e+00      -2.44449725e-02     1.07658318e+00      
H    2.88086077e+00      5.03700382e-01      1.81413465e+00      
H    3.23206337e+00      -7.02994167e-01     9.49130908e-01      
O    -9.18706830e-01     -2.24828177e+00     -1.29503350e+00     
H    -1.78749545e+00     -2.11902342e+00     -1.59414038e+00     
H    -8.14682292e-01     -3.15723065e+00     -1.21106634e+00     
20
3800.500924
N    2.06617645e-03      1.54699673e-02      -2.05932642e-02     
H    9.05894886e-01      -8.24024371e-02     4.83372111e-01      
H    -3.35865187e-01     -9.15339236e-01     -3.55137168e-01     
H    -7.24551765e-01     4.25434007e-01      6.04398352e-01      
C    2.03841708e-01      9.05811776e-01      -1.18115249e+00     
H    5.48667415e-01      1.87995684e+00      -8.42015376e-01     
H    9.55320608e-01      4.82846807e-01      -1.84311754e+00     
C    -1.10699918e+00     1.05130639e+00      -1.91691163e+00     
O    -2.14220375e+00     5.13188361e-01      -1.58673536e+00     
O    -9.51797116e-01     1.85284574e+00      -2.97225212e+00     
H    -1.81551331e+00     1.92066459e+00      -3.41792602e+00     
O    -1.97361301e+00     1.39045874e+00      1.31012708e+00      
H    -2.85155602e+00     1.30313666e+00      8.21643042e-01      
H    -2.21258752e+00     1.60284992e+00      2.27792535e+00      
O    2.56511709e+00      -2.44518011e-02     1.07657750e+00      
H    2.88089674e+00      5.03759533e-01      1.81421833e+00      
H    3.23201210e+00      -7.02943865e-01     9.49138129e-01      
O    -9.19196618e-01     -2.24897018e+00     -1.29516970e+00     
H    -1.77741017e+00     -2.12121975e+00     -1.59056359e+00     
H    -8.16931257e-01     -3.14397861e+00     -1.21247173e+00     
20
3800.500924
N    2.06085695e-03      1.54870967e-02      -2.05808429e-02     
H    9.05888552e-01      -8.23785678e-02     4.83389909e-01      
H    -3.36003053e-01     -9.15639516e-01     -3.55188487e-01     
H    -7.24298372e-01     4.25360238e-01      6.04176908e-01      
C    2.03843174e-01      9.05806672e-01      -1.18115611e+00     
H    5.48687219e-01      1.88000610e+00      -8.41997410e-01     
H    9.55280791e-01      4.82868085e-01      -1.84308536e+00     
C    -1.10699815e+00     1.05130285e+00      -1.91691430e+00     
O    -2.14220353e+00     5.13187679e-01      -1.58673585e+00     
O    -9.51797152e-01     1.85284612e+00      -2.97225173e+00     
H    -1.81551465e+00     1.92066415e+00      -3.41792729e+00     
O    -1.97286587e+00     1.39033850e+00      1.30967277e+00      
H    -2.86099455e+00     1.30208452e+00      8.15574972e-01      
H    -2.21511616e+00     1.60582906e+00      2.29130332e+00      
O    2.56511803e+00      -2.44586298e-02     1.07657183e+00      
H    2.88093270e+00      5.03818683e-01      1.81430202e+00      
H    3.23196082e+00      -7.02893563e-01     9.49145350e-01      
O    -9.19686406e-01     -2.24965860e+00     -1.29530591e+00     
H    -1.76732490e+00     -2.12341608e+00     -1.58698681e+00     
H    -8.19180223e-01     -3.13072658e+00     -1.21387712e+00     
20
3800.500924
N    2.05553745e-03      1.55042261e-02      -2.05684216e-02     
H    9.05882218e-01      -8.23546985e-02     4.83407707e-01      
H    -3.36140918e-01     -9.15939796e-01     -3.55239805e-01     
H    -7.24044979e-01     4.25286470e-01      6.03955465e-01      
C    2.03844640e-01      9.05801567e-01      -1.18115974e+00     
H    5.48707023e-01      1.88005536e+00      -8.41979445e-01     
H    9.55240974e-01      4.82889364e-01      -1.84305318e+00     
C    -1.10699711e+00     1.05129930e+00      -1.91691698e+00     
O    -2.14220330e+00     5.13186998e-01      -1.58673635e+00     
O    -9.51797187e-01     1.85284650e+00      -2.97225135e+00     
H    -1.81551599e+00     1.92066371e+00      -3.41792855e+00     
O    -1.97211873e+00     1.39021826e+00      1.30921846e+00      
H    -2.87043308e+00     1.30103238e+00      8.09506903e-01      
H    -2.21764480e+00     1.60880820e+00      2.30468130e+00      
O    2.56511897e+00      -2.44654585e-02     1.07656615e+00      
H    2.88096867e+00      5.03877834e-01      1.81438570e+00      
H    3.23190954e+00      -7.02843261e-01     9.49152571e-01      
O    -9.20176194e-01     -2.25034701e+00     -1.29544212e+00     
H    -1.75723962e+00     -2.12561241e+00     -1.58341003e+00     
H    -8.21429188e-01     -3.11747454e+00     -1.21528251e+00     
20
3800.500924
N    2.04489846e-03      1.55384850e-02      -2.05435791e-02     
H    9.05869551e-01      -8.23069598e-02     4.83443302e-01      
H    -3.36416649e-01     -9.16540356e-01     -3.55342441e-01     
H    -7.23538192e-01     4.25138932e-01      6.03512579e-01      
C    2.03847571e-01      9.05791358e-01      -1.18116698e+00     
H    5.48746632e-01      1.88015387e+00      -8.41943514e-01     
H    9.55161340e-01      4.82931921e-01      -1.84298883e+00     
C    -1.10699504e+00     1.05129222e+00      -1.91692233e+00     
O    -2.14220284e+00     5.13185635e-01      -1.58673734e+00     
O    -9.51797259e-01     1.85284726e+00      -2.97225057e+00     
H    -1.81551867e+00     1.92066283e+00      -3.41793108e+00     
O    -1.97062444e+00     1.38997778e+00      1.30830984e+00      
H    -2.88931014e+00     1.29892809e+00      7.97370763e-01      
H    -2.22270208e+00     1.61476649e+00      2.33143725e+00      
O    2.56512086e+00      -2.44791159e-02     1.07655481e+00      
H    2.88104060e+00      5.03996135e-01      1.81455307e+00      
H    3.23180699e+00      -7.02742656e-01     9.49167014e-01      
O    -9.21155770e-01     -2.25172384e+00     -1.29571454e+00     
H    -1.73706907e+00     -2.13000507e+00     -1.57625647e+00     
H    -8.25927119e-01     -3.09097047e+00     -1.21809329e+00     
