20
41.495438
N    -1.86847390e-03     2.89853320e-02      -1.09088642e-02     
H    9.02641289e-01      -7.12375433e-02     4.91369481e-01      
H    -3.35599221e-01     -9.01287475e-01     -3.48109106e-01     
H    -7.31774067e-01     4.35180477e-01      6.14443070e-01      
C    1.97931083e-01      9.26103370e-01      -1.16661166e+00     
H    5.25511226e-01      1.90384259e+00      -8.21241713e-01     
H    9.61884546e-01      5.15915468e-01      -1.82307633e+00     
C    -1.10803451e+00     1.05485620e+00      -1.91436666e+00     
O    -2.13401849e+00     4.85081694e-01      -1.60687635e+00     
O    -9.59797700e-01     1.88030448e+00      -2.95257402e+00     
H    -1.81936480e+00     1.93389739e+00      -3.40843764e+00     
O    -2.00110671e+00     1.40767507e+00      1.28811980e+00      
H    -2.83721224e+00     1.30058810e+00      8.24346748e-01      
H    -2.23014251e+00     1.62854466e+00      2.19532480e+00      
O    2.57648029e+00      -6.34539447e-02     1.04863235e+00      
H    2.94234817e+00      5.01127955e-01      1.73819616e+00      
H    3.19779726e+00      -7.94070053e-01     9.57929844e-01      
O    -8.95205111e-01     -2.25444445e+00     -1.26470692e+00     
H    -1.78872578e+00     -2.12494276e+00     -1.59710977e+00     
H    -7.89304862e-01     -3.20353679e+00     -1.15550648e+00     
20
41.495438
N    -8.79491811e-04     2.55893614e-02      -1.33423855e-02     
H    9.03461022e-01      -7.40526361e-02     4.89352341e-01      
H    -3.35527847e-01     -9.04500135e-01     -3.49814803e-01     
H    -7.30221885e-01     4.32817628e-01      6.12153333e-01      
C    1.99407274e-01      9.21035576e-01      -1.17024325e+00     
H    5.31280469e-01      1.89782190e+00      -8.26453095e-01     
H    9.60283379e-01      5.07627024e-01      -1.82811881e+00     
C    -1.10777671e+00     1.05397229e+00      -1.91500023e+00     
O    -2.13606503e+00     4.92109043e-01      -1.60184061e+00     
O    -9.57797518e-01     1.87343942e+00      -2.95749394e+00     
H    -1.81840058e+00     1.93058963e+00      -3.41080847e+00     
O    -1.99498043e+00     1.40349123e+00      1.29407593e+00      
H    -2.83135966e+00     1.30227738e+00      8.29738892e-01      
H    -2.22322513e+00     1.61914184e+00      2.20259696e+00      
O    2.57363855e+00      -5.36965801e-02     1.05562432e+00      
H    2.92694934e+00      5.01726699e-01      1.75711802e+00      
H    3.20640224e+00      -7.71338808e-01     9.55724694e-01      
O    -9.00713200e-01     -2.25238747e+00     -1.27218641e+00     
H    -1.79598215e+00     -2.12181568e+00     -1.59905001e+00     
H    -7.93962495e-01     -3.20189928e+00     -1.16834240e+00     
20
41.495438
N    -3.85000770e-04     2.38913761e-02      -1.45591461e-02     
H    9.03870888e-01      -7.54601825e-02     4.88343771e-01      
H    -3.35492160e-01     -9.06106465e-01     -3.50667652e-01     
H    -7.29445794e-01     4.31636204e-01      6.11008465e-01      
C    2.00145369e-01      9.18501680e-01      -1.17205904e+00     
H    5.34165091e-01      1.89481155e+00      -8.29058785e-01     
H    9.59482795e-01      5.03482802e-01      -1.83064005e+00     
C    -1.10764782e+00     1.05353034e+00      -1.91531701e+00     
O    -2.13708831e+00     4.95622717e-01      -1.59932273e+00     
O    -9.56797427e-01     1.87000689e+00      -2.95995390e+00     
H    -1.81791848e+00     1.92893575e+00      -3.41199389e+00     
O    -1.99191729e+00     1.40139931e+00      1.29705400e+00      
H    -2.82843336e+00     1.30312202e+00      8.32434963e-01      
H    -2.21976643e+00     1.61444042e+00      2.20623304e+00      
O    2.57221768e+00      -4.88178978e-02     1.05912030e+00      
H    2.91924993e+00      5.02026070e-01      1.76657895e+00      
H    3.21070473e+00      -7.59973186e-01     9.54622119e-01      
O    -9.03467244e-01     -2.25135898e+00     -1.27592615e+00     
H    -1.79961034e+00     -2.12025214e+00     -1.60002013e+00     
H    -7.96291312e-01     -3.20108052e+00     -1.17476036e+00     
20
41.495438
N    1.09490272e-04      2.21933907e-02      -1.57759068e-02     
H    9.04280755e-01      -7.68677289e-02     4.87335200e-01      
H    -3.35456473e-01     -9.07712795e-01     -3.51520501e-01     
H    -7.28669703e-01     4.30454780e-01      6.09863597e-01      
C    2.00883464e-01      9.15967783e-01      -1.17387484e+00     
H    5.37049712e-01      1.89180121e+00      -8.31664476e-01     
H    9.58682211e-01      4.99338580e-01      -1.83316129e+00     
C    -1.10751892e+00     1.05308838e+00      -1.91563380e+00     
O    -2.13811158e+00     4.99136391e-01      -1.59680486e+00     
O    -9.55797336e-01     1.86657436e+00      -2.96241385e+00     
H    -1.81743637e+00     1.92728187e+00      -3.41317931e+00     
O    -1.98885415e+00     1.39930738e+00      1.30003206e+00      
H    -2.82550707e+00     1.30396666e+00      8.35131035e-01      
H    -2.21630774e+00     1.60973901e+00      2.20986912e+00      
O    2.57079681e+00      -4.39392155e-02     1.06261628e+00      
H    2.91155052e+00      5.02325442e-01      1.77603988e+00      
H    3.21500723e+00      -7.48607563e-01     9.53519544e-01      
O    -9.06221289e-01     -2.25033049e+00     -1.27966589e+00     
H    -1.80323853e+00     -2.11868860e+00     -1.60099025e+00     
H    -7.98620128e-01     -3.20026177e+00     -1.18117832e+00     
20
41.495438
N    6.03981314e-04      2.04954054e-02      -1.69926674e-02     
H    9.04690621e-01      -7.82752753e-02     4.86326630e-01      
H    -3.35420787e-01     -9.09319125e-01     -3.52373349e-01     
H    -7.27893612e-01     4.29273355e-01      6.08718729e-01      
C    2.01621559e-01      9.13433886e-01      -1.17569063e+00     
H    5.39934334e-01      1.88879086e+00      -8.34270166e-01     
H    9.57881627e-01      4.95194359e-01      -1.83568253e+00     
C    -1.10739002e+00     1.05264643e+00      -1.91595058e+00     
O    -2.13913485e+00     5.02650065e-01      -1.59428699e+00     
O    -9.54797246e-01     1.86314182e+00      -2.96487381e+00     
H    -1.81695427e+00     1.92562799e+00      -3.41436472e+00     
O    -1.98579101e+00     1.39721546e+00      1.30301013e+00      
H    -2.82258078e+00     1.30481131e+00      8.37827106e-01      
H    -2.21284905e+00     1.60503760e+00      2.21350520e+00      
O    2.56937593e+00      -3.90605333e-02     1.06611226e+00      
H    2.90385111e+00      5.02624814e-01      1.78550080e+00      
H    3.21930972e+00      -7.37241941e-01     9.52416969e-01      
O    -9.08975333e-01     -2.24930200e+00     -1.28340564e+00     
H    -1.80686672e+00     -2.11712506e+00     -1.60196037e+00     
H    -8.00948945e-01     -3.19944301e+00     -1.18759629e+00     
20
41.495438
N    1.09847236e-03      1.87974201e-02      -1.82094280e-02     
H    9.05100488e-01      -7.96828217e-02     4.85318060e-01      
H    -3.35385100e-01     -9.10925455e-01     -3.53226198e-01     
H    -7.27117520e-01     4.28091931e-01      6.07573860e-01      
C    2.02359655e-01      9.10899989e-01      -1.17750642e+00     
H    5.42818955e-01      1.88578051e+00      -8.36875857e-01     
H    9.57081043e-01      4.91050137e-01      -1.83820376e+00     
C    -1.10726112e+00     1.05220447e+00      -1.91626736e+00     
O    -2.14015812e+00     5.06163739e-01      -1.59176912e+00     
O    -9.53797155e-01     1.85970929e+00      -2.96733377e+00     
H    -1.81647216e+00     1.92397411e+00      -3.41555014e+00     
O    -1.98272787e+00     1.39512354e+00      1.30598820e+00      
H    -2.81965449e+00     1.30565595e+00      8.40523178e-01      
H    -2.20939036e+00     1.60033619e+00      2.21714128e+00      
O    2.56795506e+00      -3.41818510e-02     1.06960824e+00      
H    2.89615170e+00      5.02924186e-01      1.79496173e+00      
H    3.22361221e+00      -7.25876319e-01     9.51314394e-01      
O    -9.11729377e-01     -2.24827351e+00     -1.28714538e+00     
H    -1.81049490e+00     -2.11556152e+00     -1.60293048e+00     
H    -8.03277762e-01     -3.19862426e+00     -1.19401425e+00     
20
41.495438
N    1.34571788e-03      1.79484275e-02      -1.88178083e-02     
H    9.05305421e-01      -8.03865949e-02     4.84813775e-01      
H    -3.35367256e-01     -9.11728620e-01     -3.53652622e-01     
H    -7.26729475e-01     4.27501219e-01      6.07001426e-01      
C    2.02728702e-01      9.09633040e-01      -1.17841432e+00     
H    5.44261266e-01      1.88427534e+00      -8.38178702e-01     
H    9.56680751e-01      4.88978026e-01      -1.83946438e+00     
C    -1.10719668e+00     1.05198349e+00      -1.91642575e+00     
O    -2.14066976e+00     5.07920576e-01      -1.59051018e+00     
O    -9.53297109e-01     1.85799303e+00      -2.96856374e+00     
H    -1.81623111e+00     1.92314717e+00      -3.41614285e+00     
O    -1.98119630e+00     1.39407758e+00      1.30747723e+00      
H    -2.81819134e+00     1.30607827e+00      8.41871214e-01      
H    -2.20766101e+00     1.59798548e+00      2.21895932e+00      
O    2.56724463e+00      -3.17425098e-02     1.07135623e+00      
H    2.89230200e+00      5.03073872e-01      1.79969220e+00      
H    3.22576346e+00      -7.20193507e-01     9.50763106e-01      
O    -9.13106399e-01     -2.24775927e+00     -1.28901525e+00     
H    -1.81230900e+00     -2.11477975e+00     -1.60341554e+00     
H    -8.04442170e-01     -3.19821488e+00     -1.19722323e+00     
20
41.495438
N    1.59296340e-03      1.70994348e-02      -1.94261887e-02     
H    9.05510354e-01      -8.10903681e-02     4.84309490e-01      
H    -3.35349413e-01     -9.12531785e-01     -3.54079046e-01     
H    -7.26341429e-01     4.26910506e-01      6.06428992e-01      
C    2.03097750e-01      9.08366092e-01      -1.17932222e+00     
H    5.45703577e-01      1.88277017e+00      -8.39481547e-01     
H    9.56280459e-01      4.86905915e-01      -1.84072500e+00     
C    -1.10713223e+00     1.05176252e+00      -1.91658415e+00     
O    -2.14118140e+00     5.09677413e-01      -1.58925124e+00     
O    -9.52797064e-01     1.85627676e+00      -2.96979372e+00     
H    -1.81599006e+00     1.92232023e+00      -3.41673555e+00     
O    -1.97966473e+00     1.39303162e+00      1.30896626e+00      
H    -2.81672819e+00     1.30650059e+00      8.43219249e-01      
H    -2.20593166e+00     1.59563477e+00      2.22077736e+00      
O    2.56653419e+00      -2.93031687e-02     1.07310422e+00      
H    2.88845229e+00      5.03223558e-01      1.80442266e+00      
H    3.22791471e+00      -7.14510696e-01     9.50211819e-01      
O    -9.14483422e-01     -2.24724502e+00     -1.29088513e+00     
H    -1.81412309e+00     -2.11399798e+00     -1.60390060e+00     
H    -8.05606578e-01     -3.19780550e+00     -1.20043221e+00     
20
41.495438
N    2.58194548e-03      1.37034642e-02      -2.18597099e-02     
H    9.06330088e-01      -8.39054609e-02     4.82292350e-01      
H    -3.35278039e-01     -9.15744445e-01     -3.55784744e-01     
H    -7.24789247e-01     4.24547658e-01      6.04139256e-01      
C    2.04573940e-01      9.03298298e-01      -1.18295380e+00     
H    5.51472819e-01      1.87674947e+00      -8.44692929e-01     
H    9.54679291e-01      4.78617471e-01      -1.84576748e+00     
C    -1.10687443e+00     1.05087860e+00      -1.91721771e+00     
O    -2.14322794e+00     5.16704761e-01      -1.58421550e+00     
O    -9.50796882e-01     1.84941170e+00      -2.97471364e+00     
H    -1.81502584e+00     1.91901247e+00      -3.41910639e+00     
O    -1.97353845e+00     1.38884778e+00      1.31492240e+00      
H    -2.81087561e+00     1.30818987e+00      8.48611393e-01      
H    -2.19901428e+00     1.58623195e+00      2.22804952e+00      
O    2.56369245e+00      -1.95458041e-02     1.08009618e+00      
H    2.87305347e+00      5.03822302e-01      1.82334452e+00      
H    3.23651969e+00      -6.91779452e-01     9.48006669e-01      
O    -9.19991510e-01     -2.24518804e+00     -1.29836461e+00     
H    -1.82137947e+00     -2.11087090e+00     -1.60584084e+00     
H    -8.10264212e-01     -3.19616800e+00     -1.21326813e+00     
20
41.495438
N    2.82919100e-03      1.28544715e-02      -2.24680903e-02     
H    9.06535021e-01      -8.46092341e-02     4.81788065e-01      
H    -3.35260196e-01     -9.16547610e-01     -3.56211168e-01     
H    -7.24401201e-01     4.23956945e-01      6.03566822e-01      
C    2.04942988e-01      9.02031350e-01      -1.18386170e+00     
H    5.52915130e-01      1.87524430e+00      -8.45995774e-01     
H    9.54278999e-01      4.76545360e-01      -1.84702810e+00     
C    -1.10680998e+00     1.05065763e+00      -1.91737611e+00     
O    -2.14373958e+00     5.18461598e-01      -1.58295656e+00     
O    -9.50296837e-01     1.84769543e+00      -2.97594362e+00     
H    -1.81478479e+00     1.91818553e+00      -3.41969909e+00     
O    -1.97200688e+00     1.38780182e+00      1.31641143e+00      
H    -2.80941246e+00     1.30861219e+00      8.49959428e-01      
H    -2.19728493e+00     1.58388124e+00      2.22986756e+00      
O    2.56298201e+00      -1.71064630e-02     1.08184417e+00      
H    2.86920376e+00      5.03971988e-01      1.82807498e+00      
H    3.23867094e+00      -6.86096641e-01     9.47455382e-01      
O    -9.21368533e-01     -2.24467379e+00     -1.30023449e+00     
H    -1.82319356e+00     -2.11008913e+00     -1.60632590e+00     
H    -8.11428620e-01     -3.19575862e+00     -1.21647711e+00     
20
41.495438
N    3.07643652e-03      1.20054789e-02      -2.30764706e-02     
H    9.06739954e-01      -8.53130073e-02     4.81283780e-01      
H    -3.35242352e-01     -9.17350775e-01     -3.56637592e-01     
H    -7.24013156e-01     4.23366233e-01      6.02994388e-01      
C    2.05312035e-01      9.00764401e-01      -1.18476960e+00     
H    5.54357441e-01      1.87373913e+00      -8.47298619e-01     
H    9.53878707e-01      4.74473249e-01      -1.84828872e+00     
C    -1.10674554e+00     1.05043665e+00      -1.91753450e+00     
O    -2.14425122e+00     5.20218435e-01      -1.58169762e+00     
O    -9.49796791e-01     1.84597917e+00      -2.97717359e+00     
H    -1.81454374e+00     1.91735859e+00      -3.42029180e+00     
O    -1.97047531e+00     1.38675586e+00      1.31790046e+00      
H    -2.80794931e+00     1.30903451e+00      8.51307464e-01      
H    -2.19555558e+00     1.58153053e+00      2.23168560e+00      
O    2.56227158e+00      -1.46671218e-02     1.08359216e+00      
H    2.86535406e+00      5.04121674e-01      1.83280545e+00      
H    3.24082219e+00      -6.80413829e-01     9.46904094e-01      
O    -9.22745555e-01     -2.24415955e+00     -1.30210436e+00     
H    -1.82500766e+00     -2.10930736e+00     -1.60681096e+00     
H    -8.12593028e-01     -3.19534924e+00     -1.21968609e+00     
20
41.495438
N    3.57092757e-03      1.03074936e-02      -2.42932312e-02     
H    9.07149821e-01      -8.67205537e-02     4.80275210e-01      
H    -3.35206665e-01     -9.18957105e-01     -3.57490441e-01     
H    -7.23237064e-01     4.22184809e-01      6.01849519e-01      
C    2.06050131e-01      8.98230504e-01      -1.18658539e+00     
H    5.57242062e-01      1.87072878e+00      -8.49904310e-01     
H    9.53078123e-01      4.70329027e-01      -1.85080995e+00     
C    -1.10661664e+00     1.04999469e+00      -1.91785128e+00     
O    -2.14527449e+00     5.23732109e-01      -1.57917975e+00     
O    -9.48796700e-01     1.84254664e+00      -2.97963355e+00     
H    -1.81406163e+00     1.91570471e+00      -3.42147722e+00     
O    -1.96741217e+00     1.38466394e+00      1.32087853e+00      
H    -2.80502302e+00     1.30987915e+00      8.54003536e-01      
H    -2.19209689e+00     1.57682912e+00      2.23532168e+00      
O    2.56085071e+00      -9.78843954e-03     1.08708814e+00      
H    2.85765465e+00      5.04421046e-01      1.84226638e+00      
H    3.24512468e+00      -6.69048207e-01     9.45801519e-01      
O    -9.25499599e-01     -2.24313106e+00     -1.30584410e+00     
H    -1.82863584e+00     -2.10774382e+00     -1.60778107e+00     
H    -8.14921845e-01     -3.19453049e+00     -1.22610405e+00     
20
41.495438
N    4.06541861e-03      8.60950826e-03      -2.55099918e-02     
H    9.07559687e-01      -8.81281001e-02     4.79266640e-01      
H    -3.35170979e-01     -9.20563435e-01     -3.58343289e-01     
H    -7.22460973e-01     4.21003384e-01      6.00704651e-01      
C    2.06788226e-01      8.95696607e-01      -1.18840118e+00     
H    5.60126684e-01      1.86771843e+00      -8.52510000e-01     
H    9.52277539e-01      4.66184806e-01      -1.85333119e+00     
C    -1.10648774e+00     1.04955274e+00      -1.91816806e+00     
O    -2.14629776e+00     5.27245783e-01      -1.57666188e+00     
O    -9.47796610e-01     1.83911410e+00      -2.98209351e+00     
H    -1.81357953e+00     1.91405083e+00      -3.42266263e+00     
O    -1.96434903e+00     1.38257202e+00      1.32385660e+00      
H    -2.80209673e+00     1.31072380e+00      8.56699607e-01      
H    -2.18863820e+00     1.57212771e+00      2.23895776e+00      
O    2.55942983e+00      -4.90975726e-03     1.09058412e+00      
H    2.84995524e+00      5.04720418e-01      1.85172730e+00      
H    3.24942717e+00      -6.57682585e-01     9.44698944e-01      
O    -9.28253643e-01     -2.24210257e+00     -1.30958385e+00     
H    -1.83226403e+00     -2.10618028e+00     -1.60875119e+00     
H    -8.17250662e-01     -3.19371173e+00     -1.23252202e+00     
20
41.495438
N    4.55990965e-03      6.91152294e-03      -2.67267525e-02     
H    9.07969554e-01      -8.95356465e-02     4.78258069e-01      
H    -3.35135292e-01     -9.22169765e-01     -3.59196138e-01     
H    -7.21684882e-01     4.19821960e-01      5.99559783e-01      
C    2.07526321e-01      8.93162710e-01      -1.19021698e+00     
H    5.63011305e-01      1.86470809e+00      -8.55115691e-01     
H    9.51476955e-01      4.62040584e-01      -1.85585243e+00     
C    -1.10635884e+00     1.04911078e+00      -1.91848485e+00     
O    -2.14732103e+00     5.30759457e-01      -1.57414401e+00     
O    -9.46796519e-01     1.83568157e+00      -2.98455346e+00     
H    -1.81309742e+00     1.91239695e+00      -3.42384805e+00     
O    -1.96128589e+00     1.38048009e+00      1.32683466e+00      
H    -2.79917044e+00     1.31156844e+00      8.59395679e-01      
H    -2.18517951e+00     1.56742630e+00      2.24259384e+00      
O    2.55800896e+00      -3.10749703e-05     1.09408010e+00      
H    2.84225583e+00      5.05019790e-01      1.86118823e+00      
H    3.25372967e+00      -6.46316962e-01     9.43596369e-01      
O    -9.31007688e-01     -2.24107408e+00     -1.31332359e+00     
H    -1.83589222e+00     -2.10461674e+00     -1.60972131e+00     
H    -8.19579478e-01     -3.19289298e+00     -1.23893998e+00     
20
41.495438
N    5.05440069e-03      5.21353763e-03      -2.79435131e-02     
H    9.08379420e-01      -9.09431929e-02     4.77249499e-01      
H    -3.35099605e-01     -9.23776095e-01     -3.60048987e-01     
H    -7.20908791e-01     4.18640536e-01      5.98414915e-01      
C    2.08264416e-01      8.90628814e-01      -1.19203277e+00     
H    5.65895927e-01      1.86169774e+00      -8.57721381e-01     
H    9.50676371e-01      4.57896362e-01      -1.85837367e+00     
C    -1.10622995e+00     1.04866883e+00      -1.91880163e+00     
O    -2.14834431e+00     5.34273131e-01      -1.57162613e+00     
O    -9.45796428e-01     1.83224904e+00      -2.98701342e+00     
H    -1.81261532e+00     1.91074307e+00      -3.42503347e+00     
O    -1.95822275e+00     1.37838817e+00      1.32981273e+00      
H    -2.79624414e+00     1.31241308e+00      8.62091750e-01      
H    -2.18172081e+00     1.56272488e+00      2.24622992e+00      
O    2.55658809e+00      4.84760732e-03      1.09757608e+00      
H    2.83455642e+00      5.05319161e-01      1.87064916e+00      
H    3.25803216e+00      -6.34951340e-01     9.42493794e-01      
O    -9.33761732e-01     -2.24004559e+00     -1.31706333e+00     
H    -1.83952041e+00     -2.10305320e+00     -1.61069143e+00     
H    -8.21908295e-01     -3.19207422e+00     -1.24535794e+00     
20
41.495438
N    6.04338278e-03      1.81756701e-03      -3.03770344e-02     
H    9.09199153e-01      -9.37582857e-02     4.75232359e-01      
H    -3.35028231e-01     -9.26988755e-01     -3.61754684e-01     
H    -7.19356609e-01     4.16277687e-01      5.96125178e-01      
C    2.09740607e-01      8.85561020e-01      -1.19566436e+00     
H    5.71665170e-01      1.85567705e+00      -8.62932763e-01     
H    9.49075204e-01      4.49607918e-01      -1.86341615e+00     
C    -1.10597215e+00     1.04778492e+00      -1.91943520e+00     
O    -2.15039085e+00     5.41300480e-01      -1.56659039e+00     
O    -9.43796246e-01     1.82538398e+00      -2.99193334e+00     
H    -1.81165110e+00     1.90743531e+00      -3.42740430e+00     
O    -1.95209647e+00     1.37420433e+00      1.33576886e+00      
H    -2.79039156e+00     1.31410236e+00      8.67483894e-01      
H    -2.17480343e+00     1.55332206e+00      2.25350208e+00      
O    2.55374635e+00      1.46049719e-02      1.10456805e+00      
H    2.81915759e+00      5.05917905e-01      1.88957102e+00      
H    3.26663714e+00      -6.12220095e-01     9.40288644e-01      
O    -9.39269821e-01     -2.23798861e+00     -1.32454282e+00     
H    -1.84677678e+00     -2.09992612e+00     -1.61263167e+00     
H    -8.26565928e-01     -3.19043671e+00     -1.25819386e+00     
