20
42.540285
N    4.47763998e-03      1.97230449e-02      -2.57035534e-02     
H    9.09881638e-01      -7.62961194e-02     4.76255721e-01      
H    -3.28822365e-01     -9.11340212e-01     -3.58968152e-01     
H    -7.19796858e-01     4.31010030e-01      6.03027052e-01      
C    1.93191147e-01      9.08759275e-01      -1.18955147e+00     
H    5.34103044e-01      1.88592538e+00      -8.55803818e-01     
H    9.41196003e-01      4.88229106e-01      -1.85746254e+00     
C    -1.12545463e+00     1.04393735e+00      -1.91409804e+00     
O    -2.15408447e+00     4.99802393e-01      -1.57287461e+00     
O    -9.85852007e-01     1.84352748e+00      -2.97309868e+00     
H    -1.85437842e+00     1.90405786e+00      -3.41054621e+00     
O    -1.94531756e+00     1.43798458e+00      1.30575345e+00      
H    -2.79242892e+00     1.35032337e+00      8.58106117e-01      
H    -2.15243967e+00     1.65695396e+00      2.21878516e+00      
O    2.55031881e+00      -5.68821415e-02     1.11588386e+00      
H    2.86327508e+00      4.68265773e-01      1.85619307e+00      
H    3.21479979e+00      -7.38584617e-01     9.91280788e-01      
O    -8.73748709e-01     -2.24108191e+00     -1.33085637e+00     
H    -1.77980387e+00     -2.12637253e+00     -1.63347155e+00     
H    -7.40624418e-01     -3.19029128e+00     -1.25500228e+00     
20
42.540285
N    3.88009360e-03      1.86426460e-02      -2.44384024e-02     
H    9.08891284e-01      -7.78465681e-02     4.78017021e-01      
H    -3.30445205e-01     -9.12039688e-01     -3.57959088e-01     
H    -7.21238978e-01     4.29689793e-01      6.03591320e-01      
C    1.95852321e-01      9.08027505e-01      -1.18744811e+00     
H    5.37724333e-01      1.88438399e+00      -8.52374673e-01     
H    9.44766971e-01      4.86862252e-01      -1.85390846e+00     
C    -1.12084180e+00     1.04578315e+00      -1.91479877e+00     
O    -2.15111452e+00     5.03149567e-01      -1.57633930e+00     
O    -9.77338248e-01     1.84585667e+00      -2.97288743e+00     
H    -1.84466080e+00     1.90820998e+00      -3.41238990e+00     
O    -1.95313857e+00     1.42622336e+00      1.30730117e+00      
H    -2.79777216e+00     1.33957883e+00      8.55058418e-01      
H    -2.16494799e+00     1.64044881e+00      2.22019223e+00      
O    2.55401744e+00      -4.87677277e-02     1.10606295e+00      
H    2.86764453e+00      4.77080062e-01      1.84561570e+00      
H    3.21915414e+00      -7.29724731e-01     9.80737902e-01      
O    -8.84620898e-01     -2.24236557e+00     -1.32179849e+00     
H    -1.78929073e+00     -2.12288801e+00     -1.62632134e+00     
H    -7.57452162e-01     -3.19196515e+00     -1.24296425e+00     
20
42.540285
N    3.58132040e-03      1.81024466e-02      -2.38058268e-02     
H    9.08396107e-01      -7.86217925e-02     4.78897670e-01      
H    -3.31256625e-01     -9.12389426e-01     -3.57454556e-01     
H    -7.21960038e-01     4.29029675e-01      6.03873454e-01      
C    1.97182908e-01      9.07661620e-01      -1.18639642e+00     
H    5.39534977e-01      1.88361330e+00      -8.50660101e-01     
H    9.46552455e-01      4.86178826e-01      -1.85213143e+00     
C    -1.11853539e+00     1.04670605e+00      -1.91514913e+00     
O    -2.14962954e+00     5.04823153e-01      -1.57807165e+00     
O    -9.73081369e-01     1.84702126e+00      -2.97278181e+00     
H    -1.83980199e+00     1.91028604e+00      -3.41331175e+00     
O    -1.95704907e+00     1.42034275e+00      1.30807503e+00      
H    -2.80044378e+00     1.33420657e+00      8.53534568e-01      
H    -2.17120215e+00     1.63219624e+00      2.22089577e+00      
O    2.55586675e+00      -4.47105208e-02     1.10115249e+00      
H    2.86982925e+00      4.81487207e-01      1.84032701e+00      
H    3.22133132e+00      -7.25294788e-01     9.75466459e-01      
O    -8.90056993e-01     -2.24300739e+00     -1.31726956e+00     
H    -1.79403415e+00     -2.12114575e+00     -1.62274624e+00     
H    -7.65866034e-01     -3.19280208e+00     -1.23694524e+00     
20
42.540285
N    3.28254721e-03      1.75622472e-02      -2.31732513e-02     
H    9.07900929e-01      -7.93970169e-02     4.79778320e-01      
H    -3.32068045e-01     -9.12739164e-01     -3.56950024e-01     
H    -7.22681098e-01     4.28369556e-01      6.04155588e-01      
C    1.98513496e-01      9.07295735e-01      -1.18534474e+00     
H    5.41345621e-01      1.88284260e+00      -8.48945528e-01     
H    9.48337939e-01      4.85495399e-01      -1.85035439e+00     
C    -1.11622898e+00     1.04762895e+00      -1.91549949e+00     
O    -2.14814457e+00     5.06496740e-01      -1.57980399e+00     
O    -9.68824490e-01     1.84818586e+00      -2.97267618e+00     
H    -1.83494319e+00     1.91236210e+00      -3.41423359e+00     
O    -1.96095957e+00     1.41446214e+00      1.30884889e+00      
H    -2.80311541e+00     1.32883430e+00      8.52010719e-01      
H    -2.17745632e+00     1.62394366e+00      2.22159930e+00      
O    2.55771607e+00      -4.06533139e-02     1.09624203e+00      
H    2.87201398e+00      4.85894351e-01      1.83503833e+00      
H    3.22350849e+00      -7.20864846e-01     9.70195016e-01      
O    -8.95493087e-01     -2.24364922e+00     -1.31274062e+00     
H    -1.79877758e+00     -2.11940348e+00     -1.61917114e+00     
H    -7.74279906e-01     -3.19363901e+00     -1.23092623e+00     
20
42.540285
N    2.98377402e-03      1.70220478e-02      -2.25406758e-02     
H    9.07405752e-01      -8.01722413e-02     4.80658970e-01      
H    -3.32879465e-01     -9.13088902e-01     -3.56445491e-01     
H    -7.23402158e-01     4.27709438e-01      6.04437722e-01      
C    1.99844083e-01      9.06929850e-01      -1.18429306e+00     
H    5.43156265e-01      1.88207191e+00      -8.47230956e-01     
H    9.50123423e-01      4.84811973e-01      -1.84857735e+00     
C    -1.11392257e+00     1.04855185e+00      -1.91584985e+00     
O    -2.14665959e+00     5.08170327e-01      -1.58153634e+00     
O    -9.64567611e-01     1.84935045e+00      -2.97257056e+00     
H    -1.83008438e+00     1.91443817e+00      -3.41515544e+00     
O    -1.96487008e+00     1.40858153e+00      1.30962275e+00      
H    -2.80578703e+00     1.32346203e+00      8.50486869e-01      
H    -2.18371048e+00     1.61569109e+00      2.22230284e+00      
O    2.55956538e+00      -3.65961071e-02     1.09133157e+00      
H    2.87419870e+00      4.90301496e-01      1.82974964e+00      
H    3.22568567e+00      -7.16434903e-01     9.64923573e-01      
O    -9.00929182e-01     -2.24429105e+00     -1.30821168e+00     
H    -1.80352100e+00     -2.11766122e+00     -1.61559603e+00     
H    -7.82693779e-01     -3.19447595e+00     -1.22490721e+00     
20
42.540285
N    2.68500083e-03      1.64818483e-02      -2.19081003e-02     
H    9.06910575e-01      -8.09474657e-02     4.81539620e-01      
H    -3.33690886e-01     -9.13438639e-01     -3.55940959e-01     
H    -7.24123218e-01     4.27049319e-01      6.04719856e-01      
C    2.01174670e-01      9.06563965e-01      -1.18324138e+00     
H    5.44966910e-01      1.88130121e+00      -8.45516383e-01     
H    9.51908907e-01      4.84128546e-01      -1.84680031e+00     
C    -1.11161615e+00     1.04947476e+00      -1.91620021e+00     
O    -2.14517462e+00     5.09843914e-01      -1.58326868e+00     
O    -9.60310731e-01     1.85051504e+00      -2.97246493e+00     
H    -1.82522557e+00     1.91651423e+00      -3.41607728e+00     
O    -1.96878058e+00     1.40270092e+00      1.31039661e+00      
H    -2.80845865e+00     1.31808976e+00      8.48963020e-01      
H    -2.18996464e+00     1.60743851e+00      2.22300637e+00      
O    2.56141469e+00      -3.25389002e-02     1.08642112e+00      
H    2.87638343e+00      4.94708641e-01      1.82446096e+00      
H    3.22786285e+00      -7.12004960e-01     9.59652130e-01      
O    -9.06365277e-01     -2.24493288e+00     -1.30368274e+00     
H    -1.80826443e+00     -2.11591896e+00     -1.61202093e+00     
H    -7.91107651e-01     -3.19531288e+00     -1.21888820e+00     
20
42.540285
N    2.53561423e-03      1.62117486e-02      -2.15918126e-02     
H    9.06662987e-01      -8.13350779e-02     4.81979945e-01      
H    -3.34096596e-01     -9.13613508e-01     -3.55688693e-01     
H    -7.24483748e-01     4.26719260e-01      6.04860923e-01      
C    2.01839964e-01      9.06381023e-01      -1.18271553e+00     
H    5.45872232e-01      1.88091586e+00      -8.44659097e-01     
H    9.52801649e-01      4.83786833e-01      -1.84591180e+00     
C    -1.11046295e+00     1.04993621e+00      -1.91637539e+00     
O    -2.14443213e+00     5.10680707e-01      -1.58413485e+00     
O    -9.58182292e-01     1.85109734e+00      -2.97241212e+00     
H    -1.82279616e+00     1.91755226e+00      -3.41653820e+00     
O    -1.97073583e+00     1.39976062e+00      1.31078354e+00      
H    -2.80979447e+00     1.31540363e+00      8.48201095e-01      
H    -2.19309173e+00     1.60331222e+00      2.22335814e+00      
O    2.56233935e+00      -3.05102967e-02     1.08396589e+00      
H    2.87747579e+00      4.96912213e-01      1.82181662e+00      
H    3.22895144e+00      -7.09789988e-01     9.57016409e-01      
O    -9.09083324e-01     -2.24525379e+00     -1.30141828e+00     
H    -1.81063614e+00     -2.11504783e+00     -1.61023338e+00     
H    -7.95314587e-01     -3.19573135e+00     -1.21587869e+00     
20
42.540285
N    2.38622763e-03      1.59416489e-02      -2.12755248e-02     
H    9.06415398e-01      -8.17226901e-02     4.82420270e-01      
H    -3.34502306e-01     -9.13788377e-01     -3.55436427e-01     
H    -7.24844278e-01     4.26389201e-01      6.05001990e-01      
C    2.02505258e-01      9.06198080e-01      -1.18218969e+00     
H    5.46777554e-01      1.88053052e+00      -8.43801811e-01     
H    9.53694391e-01      4.83445120e-01      -1.84502328e+00     
C    -1.10930974e+00     1.05039766e+00      -1.91655057e+00     
O    -2.14368964e+00     5.11517500e-01      -1.58500103e+00     
O    -9.56053852e-01     1.85167964e+00      -2.97235931e+00     
H    -1.82036676e+00     1.91859029e+00      -3.41699913e+00     
O    -1.97269109e+00     1.39682031e+00      1.31117047e+00      
H    -2.81113028e+00     1.31271750e+00      8.47439170e-01      
H    -2.19621881e+00     1.59918594e+00      2.22370991e+00      
O    2.56326401e+00      -2.84816933e-02     1.08151066e+00      
H    2.87856815e+00      4.99115785e-01      1.81917227e+00      
H    3.23004002e+00      -7.07575017e-01     9.54380687e-01      
O    -9.11801371e-01     -2.24557470e+00     -1.29915381e+00     
H    -1.81300785e+00     -2.11417670e+00     -1.60844582e+00     
H    -7.99521523e-01     -3.19614982e+00     -1.21286918e+00     
20
42.540285
N    1.78868125e-03      1.48612501e-02      -2.00103738e-02     
H    9.05425044e-01      -8.32731389e-02     4.84181570e-01      
H    -3.36125146e-01     -9.14487853e-01     -3.54427363e-01     
H    -7.26286398e-01     4.25068963e-01      6.05566258e-01      
C    2.05166432e-01      9.05466310e-01      -1.18008633e+00     
H    5.50398842e-01      1.87898912e+00      -8.40372665e-01     
H    9.57265359e-01      4.82078266e-01      -1.84146920e+00     
C    -1.10469692e+00     1.05224346e+00      -1.91725129e+00     
O    -2.14071970e+00     5.14864674e-01      -1.58846571e+00     
O    -9.47540094e-01     1.85400882e+00      -2.97214805e+00     
H    -1.81064914e+00     1.92274241e+00      -3.41884281e+00     
O    -1.98051209e+00     1.38505909e+00      1.31271819e+00      
H    -2.81647352e+00     1.30197296e+00      8.44391472e-01      
H    -2.20872713e+00     1.58268078e+00      2.22511697e+00      
O    2.56696263e+00      -2.03672795e-02     1.07168974e+00      
H    2.88293761e+00      5.07930075e-01      1.80859491e+00      
H    3.23439438e+00      -6.98715131e-01     9.43837801e-01      
O    -9.22673561e-01     -2.24685836e+00     -1.29009593e+00     
H    -1.82249471e+00     -2.11069218e+00     -1.60129562e+00     
H    -8.16349267e-01     -3.19782368e+00     -1.20083116e+00     
20
42.540285
N    1.63929465e-03      1.45911504e-02      -1.96940860e-02     
H    9.05177455e-01      -8.36607511e-02     4.84621895e-01      
H    -3.36530856e-01     -9.14662722e-01     -3.54175097e-01     
H    -7.26646928e-01     4.24738904e-01      6.05707325e-01      
C    2.05831726e-01      9.05283367e-01      -1.17956049e+00     
H    5.51304164e-01      1.87860378e+00      -8.39515379e-01     
H    9.58158101e-01      4.81736553e-01      -1.84058068e+00     
C    -1.10354371e+00     1.05270491e+00      -1.91742647e+00     
O    -2.13997721e+00     5.15701467e-01      -1.58933189e+00     
O    -9.45411654e-01     1.85459112e+00      -2.97209524e+00     
H    -1.80821974e+00     1.92378044e+00      -3.41930374e+00     
O    -1.98246735e+00     1.38211878e+00      1.31310512e+00      
H    -2.81780933e+00     1.29928683e+00      8.43629547e-01      
H    -2.21185421e+00     1.57855450e+00      2.22546874e+00      
O    2.56788729e+00      -1.83386761e-02     1.06923451e+00      
H    2.88402997e+00      5.10133647e-01      1.80595056e+00      
H    3.23548296e+00      -6.96500160e-01     9.41202079e-01      
O    -9.25391608e-01     -2.24717927e+00     -1.28783146e+00     
H    -1.82486642e+00     -2.10982105e+00     -1.59950806e+00     
H    -8.20556203e-01     -3.19824215e+00     -1.19782165e+00     
20
42.540285
N    1.48990805e-03      1.43210507e-02      -1.93777983e-02     
H    9.04929867e-01      -8.40483633e-02     4.85062220e-01      
H    -3.36936566e-01     -9.14837591e-01     -3.53922831e-01     
H    -7.27007458e-01     4.24408845e-01      6.05848392e-01      
C    2.06497020e-01      9.05100425e-01      -1.17903464e+00     
H    5.52209486e-01      1.87821843e+00      -8.38658093e-01     
H    9.59050843e-01      4.81394840e-01      -1.83969217e+00     
C    -1.10239051e+00     1.05316636e+00      -1.91760165e+00     
O    -2.13923472e+00     5.16538260e-01      -1.59019806e+00     
O    -9.43283215e-01     1.85517342e+00      -2.97204243e+00     
H    -1.80579033e+00     1.92481847e+00      -3.41976466e+00     
O    -1.98442260e+00     1.37917848e+00      1.31349205e+00      
H    -2.81914515e+00     1.29660070e+00      8.42867622e-01      
H    -2.21498130e+00     1.57442821e+00      2.22582051e+00      
O    2.56881195e+00      -1.63100726e-02     1.06677928e+00      
H    2.88512233e+00      5.12337219e-01      1.80330622e+00      
H    3.23657155e+00      -6.94285188e-01     9.38566358e-01      
O    -9.28109655e-01     -2.24750018e+00     -1.28556700e+00     
H    -1.82723813e+00     -2.10894992e+00     -1.59772051e+00     
H    -8.24763139e-01     -3.19866062e+00     -1.19481214e+00     
20
42.540285
N    1.19113486e-03      1.37808512e-02      -1.87452228e-02     
H    9.04434690e-01      -8.48235877e-02     4.85942870e-01      
H    -3.37747987e-01     -9.15187328e-01     -3.53418299e-01     
H    -7.27728518e-01     4.23748726e-01      6.06130526e-01      
C    2.07827607e-01      9.04734540e-01      -1.17798296e+00     
H    5.54020131e-01      1.87744773e+00      -8.36943520e-01     
H    9.60836327e-01      4.80711413e-01      -1.83791513e+00     
C    -1.10008409e+00     1.05408927e+00      -1.91795201e+00     
O    -2.13774975e+00     5.18211847e-01      -1.59193040e+00     
O    -9.39026335e-01     1.85633801e+00      -2.97193680e+00     
H    -1.80093152e+00     1.92689453e+00      -3.42068650e+00     
O    -1.98833310e+00     1.37329787e+00      1.31426591e+00      
H    -2.82181677e+00     1.29122843e+00      8.41343773e-01      
H    -2.22123546e+00     1.56617563e+00      2.22652404e+00      
O    2.57066126e+00      -1.22528657e-02     1.06186883e+00      
H    2.88730706e+00      5.16744364e-01      1.79801754e+00      
H    3.23874873e+00      -6.89855245e-01     9.33294915e-01      
O    -9.33545750e-01     -2.24814201e+00     -1.28103806e+00     
H    -1.83198156e+00     -2.10720766e+00     -1.59414541e+00     
H    -8.33177011e-01     -3.19949755e+00     -1.18879313e+00     
20
42.540285
N    8.92361668e-04      1.32406518e-02      -1.81126473e-02     
H    9.03939513e-01      -8.55988121e-02     4.86823520e-01      
H    -3.38559407e-01     -9.15537066e-01     -3.52913766e-01     
H    -7.28449578e-01     4.23088608e-01      6.06412660e-01      
C    2.09158194e-01      9.04368655e-01      -1.17693128e+00     
H    5.55830775e-01      1.87667704e+00      -8.35228948e-01     
H    9.62621811e-01      4.80027987e-01      -1.83613809e+00     
C    -1.09777768e+00     1.05501217e+00      -1.91830237e+00     
O    -2.13626477e+00     5.19885434e-01      -1.59366275e+00     
O    -9.34769456e-01     1.85750260e+00      -2.97183118e+00     
H    -1.79607271e+00     1.92897060e+00      -3.42160835e+00     
O    -1.99224361e+00     1.36741726e+00      1.31503977e+00      
H    -2.82448839e+00     1.28585616e+00      8.39819923e-01      
H    -2.22748962e+00     1.55792306e+00      2.22722758e+00      
O    2.57251057e+00      -8.19565886e-03     1.05695837e+00      
H    2.88949178e+00      5.21151509e-01      1.79272885e+00      
H    3.24092591e+00      -6.85425302e-01     9.28023472e-01      
O    -9.38981845e-01     -2.24878384e+00     -1.27650912e+00     
H    -1.83672498e+00     -2.10546540e+00     -1.59057030e+00     
H    -8.41590884e-01     -3.20033449e+00     -1.18277411e+00     
20
42.540285
N    5.93588475e-04      1.27004524e-02      -1.74800718e-02     
H    9.03444335e-01      -8.63740365e-02     4.87704170e-01      
H    -3.39370827e-01     -9.15886804e-01     -3.52409234e-01     
H    -7.29170638e-01     4.22428489e-01      6.06694794e-01      
C    2.10488782e-01      9.04002770e-01      -1.17587960e+00     
H    5.57641419e-01      1.87590634e+00      -8.33514375e-01     
H    9.64407295e-01      4.79344560e-01      -1.83436105e+00     
C    -1.09547127e+00     1.05593507e+00      -1.91865273e+00     
O    -2.13477980e+00     5.21559021e-01      -1.59539509e+00     
O    -9.30512577e-01     1.85866720e+00      -2.97172555e+00     
H    -1.79121391e+00     1.93104666e+00      -3.42253019e+00     
O    -1.99615411e+00     1.36153665e+00      1.31581363e+00      
H    -2.82716002e+00     1.28048389e+00      8.38296074e-01      
H    -2.23374379e+00     1.54967048e+00      2.22793111e+00      
O    2.57435989e+00      -4.13845198e-03     1.05204791e+00      
H    2.89167651e+00      5.25558653e-01      1.78744017e+00      
H    3.24310308e+00      -6.80995360e-01     9.22752029e-01      
O    -9.44417939e-01     -2.24942567e+00     -1.27198018e+00     
H    -1.84146841e+00     -2.10372313e+00     -1.58699520e+00     
H    -8.50004756e-01     -3.20117142e+00     -1.17675510e+00     
20
42.540285
N    2.94815282e-04      1.21602530e-02      -1.68474962e-02     
H    9.02949158e-01      -8.71492609e-02     4.88584819e-01      
H    -3.40182247e-01     -9.16236542e-01     -3.51904702e-01     
H    -7.29891698e-01     4.21768371e-01      6.06976928e-01      
C    2.11819369e-01      9.03636885e-01      -1.17482791e+00     
H    5.59452063e-01      1.87513565e+00      -8.31799803e-01     
H    9.66192779e-01      4.78661134e-01      -1.83258402e+00     
C    -1.09316486e+00     1.05685797e+00      -1.91900309e+00     
O    -2.13329482e+00     5.23232607e-01      -1.59712744e+00     
O    -9.26255698e-01     1.85983179e+00      -2.97161993e+00     
H    -1.78635510e+00     1.93312272e+00      -3.42345204e+00     
O    -2.00006461e+00     1.35565604e+00      1.31658749e+00      
H    -2.82983164e+00     1.27511163e+00      8.36772224e-01      
H    -2.23999795e+00     1.54141791e+00      2.22863465e+00      
O    2.57620920e+00      -8.12450975e-05     1.04713745e+00      
H    2.89386123e+00      5.29965798e-01      1.78215148e+00      
H    3.24528026e+00      -6.76565417e-01     9.17480586e-01      
O    -9.49854034e-01     -2.25006749e+00     -1.26745125e+00     
H    -1.84621183e+00     -2.10198087e+00     -1.58342010e+00     
H    -8.58418628e-01     -3.20200835e+00     -1.17073609e+00     
20
42.540285
N    -3.02731104e-04     1.10798541e-02      -1.55823452e-02     
H    9.01958804e-01      -8.86997096e-02     4.90346119e-01      
H    -3.41805087e-01     -9.16936018e-01     -3.50895638e-01     
H    -7.31333818e-01     4.20448134e-01      6.07541196e-01      
C    2.14480543e-01      9.02905115e-01      -1.17272455e+00     
H    5.63073352e-01      1.87359426e+00      -8.28370658e-01     
H    9.69763747e-01      4.77294280e-01      -1.82902994e+00     
C    -1.08855203e+00     1.05870377e+00      -1.91970382e+00     
O    -2.13032487e+00     5.26579781e-01      -1.60059213e+00     
O    -9.17741939e-01     1.86216098e+00      -2.97140868e+00     
H    -1.77663748e+00     1.93727484e+00      -3.42529573e+00     
O    -2.00788562e+00     1.34389482e+00      1.31813521e+00      
H    -2.83517488e+00     1.26436709e+00      8.33724525e-01      
H    -2.25250627e+00     1.52491276e+00      2.23004172e+00      
O    2.57990783e+00      8.03316867e-03      1.03731654e+00      
H    2.89823068e+00      5.38780087e-01      1.77157411e+00      
H    3.24963461e+00      -6.67705531e-01     9.06937700e-01      
O    -9.60726223e-01     -2.25135115e+00     -1.25839337e+00     
H    -1.85569869e+00     -2.09849635e+00     -1.57626989e+00     
H    -8.75246372e-01     -3.20368222e+00     -1.15869806e+00     
