29
83.102383
N    8.92697469e-03      1.12473709e-02      4.96020228e-02      
H    3.88679651e-02      -8.41173466e-01     -5.47810304e-01     
H    9.32297559e-01      4.82953164e-01      5.00462424e-02      
H    -7.24051603e-01     6.72037800e-01      -3.02675920e-01     
C    -3.25612559e-01     -3.64593950e-01     1.43602539e+00      
H    4.23322092e-01      -1.04594574e+00     1.82886855e+00      
H    -3.55753570e-01     5.27755485e-01      2.05375215e+00      
C    -1.68316704e+00     -1.04460866e+00     1.41746980e+00      
O    -2.21762996e+00     -1.42377622e+00     3.90123800e-01      
O    -2.15476838e+00     -1.16177968e+00     2.63982721e+00      
H    -3.09395638e+00     -1.53008658e+00     2.59757756e+00      
O    -1.93254674e+00     1.83918185e+00      -4.12563451e-01     
H    -2.82250191e+00     1.66526591e+00      -5.68165077e-02     
H    -2.01970614e+00     2.57209211e+00      -1.02391863e+00     
O    1.85620929e-01      -2.51197520e+00     -1.08424933e+00     
H    -6.70122398e-01     -2.94726903e+00     -1.03687078e+00     
H    6.53990592e-01      -2.93015226e+00     -1.81174413e+00     
O    -4.33684365e+00     1.12118204e+00      6.85331726e-01      
H    -4.66770329e+00     1.31836350e+00      1.56322714e+00      
H    -4.72727485e+00     2.75278549e-01      4.33773502e-01      
O    -4.63679887e+00     -1.93968893e+00     2.53211369e+00      
H    -4.96488705e+00     -2.05264593e+00     1.62898621e+00      
H    -5.07881105e+00     -2.59133440e+00     3.08487495e+00      
O    -4.97693327e+00     -1.54650248e+00     -2.11224436e-01     
H    -5.58211413e+00     -1.83354791e+00     -9.00410812e-01     
H    -4.09064133e+00     -1.72006909e+00     -5.43985510e-01     
O    2.49721683e+00      1.24575976e+00      4.25062319e-01      
H    2.65580760e+00      2.19416935e+00      4.43748047e-01      
H    3.36762707e+00      8.41719352e-01      3.62450655e-01      
29
83.102383
N    1.57398205e-02      7.97877733e-03      5.13867080e-02      
H    4.68971345e-02      -8.45264654e-01     -5.44980151e-01     
H    9.38707700e-01      4.80503696e-01      5.29908642e-02      
H    -7.17091428e-01     6.67439439e-01      -3.03169944e-01     
C    -3.23317695e-01     -3.64738165e-01     1.43750944e+00      
H    4.22446152e-01      -1.04781158e+00     1.83327711e+00      
H    -3.52199804e-01     5.28694537e-01      2.05368742e+00      
C    -1.68277571e+00     -1.04104818e+00     1.41651217e+00      
O    -2.21384365e+00     -1.42484338e+00     3.89229923e-01      
O    -2.15997599e+00     -1.14943157e+00     2.63720912e+00      
H    -3.09725335e+00     -1.52218267e+00     2.59439226e+00      
O    -1.93134688e+00     1.82988354e+00      -4.09088153e-01     
H    -2.82162036e+00     1.65658526e+00      -5.37709326e-02     
H    -2.01734272e+00     2.56593975e+00      -1.01671893e+00     
O    1.86551022e-01      -2.51299990e+00     -1.08754021e+00     
H    -6.71853721e-01     -2.94271840e+00     -1.03985745e+00     
H    6.51062767e-01      -2.93186788e+00     -1.81699603e+00     
O    -4.34078604e+00     1.12145552e+00      6.85626582e-01      
H    -4.66918385e+00     1.32003637e+00      1.56410004e+00      
H    -4.73334606e+00     2.76028364e-01      4.35876608e-01      
O    -4.63576006e+00     -1.94632965e+00     2.53074298e+00      
H    -4.96739022e+00     -2.05764153e+00     1.62883761e+00      
H    -5.07147270e+00     -2.60240684e+00     3.08279758e+00      
O    -4.98761605e+00     -1.54400630e+00     -2.09472231e-01     
H    -5.59749757e+00     -1.82696458e+00     -8.95970070e-01     
H    -4.10405043e+00     -1.71909598e+00     -5.48090712e-01     
O    2.50244220e+00      1.24950400e+00      4.25093012e-01      
H    2.65634189e+00      2.19747704e+00      4.57806219e-01      
H    3.37404003e+00      8.52208049e-01      3.49385133e-01      
29
83.102383
N    1.91462434e-02      6.34448055e-03      5.22790506e-02      
H    5.09117191e-02      -8.47310249e-01     -5.43565074e-01     
H    9.41912770e-01      4.79278962e-01      5.44631751e-02      
H    -7.13611340e-01     6.65140259e-01      -3.03416955e-01     
C    -3.22170263e-01     -3.64810273e-01     1.43825146e+00      
H    4.22008182e-01      -1.04874450e+00     1.83548138e+00      
H    -3.50422921e-01     5.29164063e-01      2.05365506e+00      
C    -1.68258004e+00     -1.03926793e+00     1.41603336e+00      
O    -2.21195050e+00     -1.42537696e+00     3.88782984e-01      
O    -2.16257980e+00     -1.14325751e+00     2.63590007e+00      
H    -3.09890183e+00     -1.51823071e+00     2.59279960e+00      
O    -1.93074696e+00     1.82523439e+00      -4.07350504e-01     
H    -2.82117959e+00     1.65224493e+00      -5.22481450e-02     
H    -2.01616101e+00     2.56286357e+00      -1.01311908e+00     
O    1.87016068e-01      -2.51351225e+00     -1.08918565e+00     
H    -6.72719383e-01     -2.94044309e+00     -1.04135079e+00     
H    6.49598854e-01      -2.93272569e+00     -1.81962197e+00     
O    -4.34275724e+00     1.12159226e+00      6.85774010e-01      
H    -4.66992412e+00     1.32087280e+00      1.56453649e+00      
H    -4.73638167e+00     2.76403272e-01      4.36928160e-01      
O    -4.63524065e+00     -1.94965002e+00     2.53005763e+00      
H    -4.96864181e+00     -2.06013933e+00     1.62876331e+00      
H    -5.06780352e+00     -2.60794307e+00     3.08175889e+00      
O    -4.99295744e+00     -1.54275821e+00     -2.08596129e-01     
H    -5.60518930e+00     -1.82367292e+00     -8.93749699e-01     
H    -4.11075499e+00     -1.71860942e+00     -5.50143312e-01     
O    2.50505488e+00      1.25137613e+00      4.25108358e-01      
H    2.65660904e+00      2.19913089e+00      4.64835305e-01      
H    3.37724651e+00      8.57452398e-01      3.42852372e-01      
29
83.102383
N    2.25526662e-02      4.71018377e-03      5.31713933e-02      
H    5.49263038e-02      -8.49355843e-01     -5.42149998e-01     
H    9.45117840e-01      4.78054229e-01      5.59354860e-02      
H    -7.10131253e-01     6.62841078e-01      -3.03663967e-01     
C    -3.21022831e-01     -3.64882380e-01     1.43899349e+00      
H    4.21570212e-01      -1.04967742e+00     1.83768566e+00      
H    -3.48646038e-01     5.29633589e-01      2.05362270e+00      
C    -1.68238438e+00     -1.03748769e+00     1.41555455e+00      
O    -2.21005734e+00     -1.42591053e+00     3.88336045e-01      
O    -2.16518360e+00     -1.13708346e+00     2.63459102e+00      
H    -3.10055032e+00     -1.51427876e+00     2.59120695e+00      
O    -1.93014703e+00     1.82058523e+00      -4.05612855e-01     
H    -2.82073882e+00     1.64790461e+00      -5.07253575e-02     
H    -2.01497931e+00     2.55978739e+00      -1.00951923e+00     
O    1.87481114e-01      -2.51402460e+00     -1.09083109e+00     
H    -6.73585045e-01     -2.93816778e+00     -1.04284412e+00     
H    6.48134942e-01      -2.93358350e+00     -1.82224792e+00     
O    -4.34472843e+00     1.12172900e+00      6.85921438e-01      
H    -4.67066440e+00     1.32170923e+00      1.56497294e+00      
H    -4.73941727e+00     2.76778179e-01      4.37979713e-01      
O    -4.63472124e+00     -1.95297038e+00     2.52937228e+00      
H    -4.96989340e+00     -2.06263712e+00     1.62868901e+00      
H    -5.06413435e+00     -2.61347929e+00     3.08072020e+00      
O    -4.99829883e+00     -1.54151012e+00     -2.07720026e-01     
H    -5.61288102e+00     -1.82038126e+00     -8.91529328e-01     
H    -4.11745954e+00     -1.71812287e+00     -5.52195913e-01     
O    2.50766756e+00      1.25324825e+00      4.25123705e-01      
H    2.65687619e+00      2.20078473e+00      4.71864391e-01      
H    3.38045299e+00      8.62696746e-01      3.36319611e-01      
29
83.102383
N    2.59590891e-02      3.07588700e-03      5.40637359e-02      
H    5.89408884e-02      -8.51401437e-01     -5.40734921e-01     
H    9.48322911e-01      4.76829495e-01      5.74077970e-02      
H    -7.06651165e-01     6.60541898e-01      -3.03910979e-01     
C    -3.19875399e-01     -3.64954488e-01     1.43973551e+00      
H    4.21132243e-01      -1.05061035e+00     1.83988994e+00      
H    -3.46869155e-01     5.30103114e-01      2.05359034e+00      
C    -1.68218871e+00     -1.03570745e+00     1.41507574e+00      
O    -2.20816419e+00     -1.42644411e+00     3.87889106e-01      
O    -2.16778741e+00     -1.13090940e+00     2.63328198e+00      
H    -3.10219880e+00     -1.51032680e+00     2.58961430e+00      
O    -1.92954710e+00     1.81593608e+00      -4.03875206e-01     
H    -2.82029805e+00     1.64356428e+00      -4.92025699e-02     
H    -2.01379760e+00     2.55671120e+00      -1.00591938e+00     
O    1.87946160e-01      -2.51453695e+00     -1.09247652e+00     
H    -6.74450707e-01     -2.93589247e+00     -1.04433746e+00     
H    6.46671029e-01      -2.93444131e+00     -1.82487387e+00     
O    -4.34669963e+00     1.12186574e+00      6.86068866e-01      
H    -4.67140468e+00     1.32254566e+00      1.56540939e+00      
H    -4.74245288e+00     2.77153087e-01      4.39031266e-01      
O    -4.63420184e+00     -1.95629074e+00     2.52868692e+00      
H    -4.97114499e+00     -2.06513492e+00     1.62861471e+00      
H    -5.06046517e+00     -2.61901551e+00     3.07968152e+00      
O    -5.00364022e+00     -1.54026203e+00     -2.06843924e-01     
H    -5.62057274e+00     -1.81708959e+00     -8.89308958e-01     
H    -4.12416410e+00     -1.71763631e+00     -5.54248513e-01     
O    2.51028024e+00      1.25512037e+00      4.25139051e-01      
H    2.65714333e+00      2.20243858e+00      4.78893477e-01      
H    3.38365947e+00      8.67941095e-01      3.29786851e-01      
29
83.102383
N    2.93655120e-02      1.44159022e-03      5.49560785e-02      
H    6.29554731e-02      -8.53447031e-01     -5.39319844e-01     
H    9.51527981e-01      4.75604761e-01      5.88801079e-02      
H    -7.03171078e-01     6.58242717e-01      -3.04157991e-01     
C    -3.18727967e-01     -3.65026596e-01     1.44047753e+00      
H    4.20694273e-01      -1.05154327e+00     1.84209422e+00      
H    -3.45092272e-01     5.30572640e-01      2.05355798e+00      
C    -1.68199305e+00     -1.03392721e+00     1.41459692e+00      
O    -2.20627103e+00     -1.42697769e+00     3.87442168e-01      
O    -2.17039122e+00     -1.12473535e+00     2.63197293e+00      
H    -3.10384728e+00     -1.50637485e+00     2.58802165e+00      
O    -1.92894717e+00     1.81128693e+00      -4.02137557e-01     
H    -2.81985727e+00     1.63922395e+00      -4.76797823e-02     
H    -2.01261589e+00     2.55363502e+00      -1.00231953e+00     
O    1.88411207e-01      -2.51504931e+00     -1.09412196e+00     
H    -6.75316369e-01     -2.93361715e+00     -1.04583080e+00     
H    6.45207117e-01      -2.93529912e+00     -1.82749982e+00     
O    -4.34867082e+00     1.12200248e+00      6.86216294e-01      
H    -4.67214496e+00     1.32338209e+00      1.56584584e+00      
H    -4.74548849e+00     2.77527994e-01      4.40082819e-01      
O    -4.63368243e+00     -1.95961110e+00     2.52800157e+00      
H    -4.97239657e+00     -2.06763272e+00     1.62854040e+00      
H    -5.05679599e+00     -2.62455173e+00     3.07864283e+00      
O    -5.00898161e+00     -1.53901394e+00     -2.05967821e-01     
H    -5.62826446e+00     -1.81379793e+00     -8.87088587e-01     
H    -4.13086865e+00     -1.71714975e+00     -5.56301114e-01     
O    2.51289292e+00      1.25699249e+00      4.25154397e-01      
H    2.65741048e+00      2.20409242e+00      4.85922563e-01      
H    3.38686595e+00      8.73185444e-01      3.23254090e-01      
29
83.102383
N    3.10687235e-02      6.24441828e-04      5.54022499e-02      
H    6.49627654e-02      -8.54469829e-01     -5.38612306e-01     
H    9.53130516e-01      4.74992395e-01      5.96162633e-02      
H    -7.01431034e-01     6.57093127e-01      -3.04281496e-01     
C    -3.18154251e-01     -3.65062650e-01     1.44084854e+00      
H    4.20475288e-01      -1.05200973e+00     1.84319636e+00      
H    -3.44203830e-01     5.30807403e-01      2.05354180e+00      
C    -1.68189522e+00     -1.03303708e+00     1.41435752e+00      
O    -2.20532445e+00     -1.42724448e+00     3.87218698e-01      
O    -2.17169312e+00     -1.12164832e+00     2.63131841e+00      
H    -3.10467153e+00     -1.50439887e+00     2.58722532e+00      
O    -1.92864721e+00     1.80896235e+00      -4.01268732e-01     
H    -2.81963689e+00     1.63705379e+00      -4.69183885e-02     
H    -2.01202503e+00     2.55209693e+00      -1.00051960e+00     
O    1.88643730e-01      -2.51530548e+00     -1.09494468e+00     
H    -6.75749200e-01     -2.93247950e+00     -1.04657747e+00     
H    6.44475161e-01      -2.93572803e+00     -1.82881279e+00     
O    -4.34965642e+00     1.12207085e+00      6.86290008e-01      
H    -4.67251509e+00     1.32380030e+00      1.56606407e+00      
H    -4.74700629e+00     2.77715448e-01      4.40608595e-01      
O    -4.63342273e+00     -1.96127129e+00     2.52765889e+00      
H    -4.97302237e+00     -2.06888162e+00     1.62850325e+00      
H    -5.05496140e+00     -2.62731985e+00     3.07812349e+00      
O    -5.01165231e+00     -1.53838989e+00     -2.05529770e-01     
H    -5.63211033e+00     -1.81215210e+00     -8.85978401e-01     
H    -4.13422093e+00     -1.71690647e+00     -5.57327414e-01     
O    2.51419926e+00      1.25792856e+00      4.25162070e-01      
H    2.65754405e+00      2.20491934e+00      4.89437106e-01      
H    3.38846919e+00      8.75807618e-01      3.19987709e-01      
29
83.102383
N    3.27719349e-02      -1.92706561e-04     5.58484212e-02      
H    6.69700577e-02      -8.55492626e-01     -5.37904768e-01     
H    9.54733052e-01      4.74380028e-01      6.03524188e-02      
H    -6.99690990e-01     6.55943537e-01      -3.04405002e-01     
C    -3.17580535e-01     -3.65098703e-01     1.44121956e+00      
H    4.20256303e-01      -1.05247619e+00     1.84429850e+00      
H    -3.43315389e-01     5.31042166e-01      2.05352562e+00      
C    -1.68179738e+00     -1.03214696e+00     1.41411811e+00      
O    -2.20437788e+00     -1.42751127e+00     3.86995229e-01      
O    -2.17299502e+00     -1.11856129e+00     2.63066389e+00      
H    -3.10549577e+00     -1.50242289e+00     2.58642899e+00      
O    -1.92834725e+00     1.80663777e+00      -4.00399908e-01     
H    -2.81941650e+00     1.63488363e+00      -4.61569948e-02     
H    -2.01143418e+00     2.55055884e+00      -9.98719677e-01     
O    1.88876253e-01      -2.51556166e+00     -1.09576740e+00     
H    -6.76182031e-01     -2.93134184e+00     -1.04732413e+00     
H    6.43743204e-01      -2.93615693e+00     -1.83012576e+00     
O    -4.35064202e+00     1.12213922e+00      6.86363722e-01      
H    -4.67288523e+00     1.32421852e+00      1.56628229e+00      
H    -4.74852409e+00     2.77902902e-01      4.41134371e-01      
O    -4.63316303e+00     -1.96293147e+00     2.52731621e+00      
H    -4.97364816e+00     -2.07013052e+00     1.62846610e+00      
H    -5.05312682e+00     -2.63008796e+00     3.07760415e+00      
O    -5.01432300e+00     -1.53776585e+00     -2.05091719e-01     
H    -5.63595619e+00     -1.81050626e+00     -8.84868216e-01     
H    -4.13757321e+00     -1.71666320e+00     -5.58353714e-01     
O    2.51550560e+00      1.25886462e+00      4.25169744e-01      
H    2.65767762e+00      2.20574627e+00      4.92951649e-01      
H    3.39007243e+00      8.78429792e-01      3.16721329e-01      
29
83.102383
N    3.95847807e-02      -3.46130012e-03     5.76331064e-02      
H    7.49992271e-02      -8.59583814e-01     -5.35074614e-01     
H    9.61143192e-01      4.71930560e-01      6.32970406e-02      
H    -6.92730816e-01     6.51345175e-01      -3.04899026e-01     
C    -3.15285671e-01     -3.65242919e-01     1.44270360e+00      
H    4.19380363e-01      -1.05434203e+00     1.84870706e+00      
H    -3.39761623e-01     5.31981218e-01      2.05346090e+00      
C    -1.68140606e+00     -1.02858648e+00     1.41316049e+00      
O    -2.20059156e+00     -1.42857843e+00     3.86101351e-01      
O    -2.17820264e+00     -1.10621319e+00     2.62804579e+00      
H    -3.10879273e+00     -1.49451899e+00     2.58324369e+00      
O    -1.92714739e+00     1.79733947e+00      -3.96924610e-01     
H    -2.81853496e+00     1.62620297e+00      -4.31114196e-02     
H    -2.00907076e+00     2.54440648e+00      -9.91519977e-01     
O    1.89806345e-01      -2.51658636e+00     -1.09905828e+00     
H    -6.77913355e-01     -2.92679122e+00     -1.05031081e+00     
H    6.40815380e-01      -2.93787255e+00     -1.83537766e+00     
O    -4.35458440e+00     1.12241270e+00      6.86658578e-01      
H    -4.67436579e+00     1.32589138e+00      1.56715519e+00      
H    -4.75459531e+00     2.78652716e-01      4.43237477e-01      
O    -4.63212421e+00     -1.96957219e+00     2.52594551e+00      
H    -4.97615134e+00     -2.07512612e+00     1.62831750e+00      
H    -5.04578846e+00     -2.64116040e+00     3.07552677e+00      
O    -5.02500578e+00     -1.53526967e+00     -2.03339513e-01     
H    -5.65133963e+00     -1.80392294e+00     -8.80427474e-01     
H    -4.15098231e+00     -1.71569008e+00     -5.62458916e-01     
O    2.52073096e+00      1.26260886e+00      4.25200436e-01      
H    2.65821192e+00      2.20905395e+00      5.07009821e-01      
H    3.39648539e+00      8.88918490e-01      3.03655807e-01      
29
83.102383
N    4.12879921e-02      -4.27844851e-03     5.80792777e-02      
H    7.70065194e-02      -8.60606611e-01     -5.34367076e-01     
H    9.62745728e-01      4.71318193e-01      6.40331961e-02      
H    -6.90990772e-01     6.50195585e-01      -3.05022532e-01     
C    -3.14711955e-01     -3.65278972e-01     1.44307462e+00      
H    4.19161378e-01      -1.05480849e+00     1.84980920e+00      
H    -3.38873182e-01     5.32215981e-01      2.05344472e+00      
C    -1.68130822e+00     -1.02769636e+00     1.41292108e+00      
O    -2.19964499e+00     -1.42884522e+00     3.85877882e-01      
O    -2.17950454e+00     -1.10312616e+00     2.62739127e+00      
H    -3.10961697e+00     -1.49254301e+00     2.58244736e+00      
O    -1.92684743e+00     1.79501489e+00      -3.96055786e-01     
H    -2.81831457e+00     1.62403281e+00      -4.23500259e-02     
H    -2.00847991e+00     2.54286839e+00      -9.89720051e-01     
O    1.90038868e-01      -2.51684254e+00     -1.09988100e+00     
H    -6.78346186e-01     -2.92565356e+00     -1.05105747e+00     
H    6.40083423e-01      -2.93830145e+00     -1.83669063e+00     
O    -4.35557000e+00     1.12248107e+00      6.86732292e-01      
H    -4.67473593e+00     1.32630960e+00      1.56737341e+00      
H    -4.75611311e+00     2.78840170e-01      4.43763253e-01      
O    -4.63186451e+00     -1.97123237e+00     2.52560283e+00      
H    -4.97677713e+00     -2.07637502e+00     1.62828035e+00      
H    -5.04395388e+00     -2.64392851e+00     3.07500743e+00      
O    -5.02767647e+00     -1.53464563e+00     -2.02901462e-01     
H    -5.65518549e+00     -1.80227710e+00     -8.79317289e-01     
H    -4.15433459e+00     -1.71544681e+00     -5.63485216e-01     
O    2.52203730e+00      1.26354492e+00      4.25208110e-01      
H    2.65834549e+00      2.20988088e+00      5.10524364e-01      
H    3.39808863e+00      8.91540664e-01      3.00389427e-01      
29
83.102383
N    4.29912036e-02      -5.09559690e-03     5.85254491e-02      
H    7.90138117e-02      -8.61629409e-01     -5.33659538e-01     
H    9.64348263e-01      4.70705827e-01      6.47693515e-02      
H    -6.89250728e-01     6.49045995e-01      -3.05146037e-01     
C    -3.14138239e-01     -3.65315026e-01     1.44344563e+00      
H    4.18942393e-01      -1.05527495e+00     1.85091134e+00      
H    -3.37984740e-01     5.32450744e-01      2.05342854e+00      
C    -1.68121039e+00     -1.02680623e+00     1.41268168e+00      
O    -2.19869841e+00     -1.42911201e+00     3.85654412e-01      
O    -2.18080644e+00     -1.10003913e+00     2.62673675e+00      
H    -3.11044122e+00     -1.49056703e+00     2.58165103e+00      
O    -1.92654747e+00     1.79269031e+00      -3.95186961e-01     
H    -2.81809419e+00     1.62186265e+00      -4.15886321e-02     
H    -2.00788905e+00     2.54133030e+00      -9.87920126e-01     
O    1.90271391e-01      -2.51709871e+00     -1.10070372e+00     
H    -6.78779017e-01     -2.92451591e+00     -1.05180414e+00     
H    6.39351467e-01      -2.93873036e+00     -1.83800360e+00     
O    -4.35655560e+00     1.12254944e+00      6.86806006e-01      
H    -4.67510606e+00     1.32672781e+00      1.56759164e+00      
H    -4.75763091e+00     2.79027624e-01      4.44289029e-01      
O    -4.63160481e+00     -1.97289256e+00     2.52526015e+00      
H    -4.97740293e+00     -2.07762392e+00     1.62824320e+00      
H    -5.04211929e+00     -2.64669663e+00     3.07448809e+00      
O    -5.03034717e+00     -1.53402158e+00     -2.02463411e-01     
H    -5.65903136e+00     -1.80063127e+00     -8.78207103e-01     
H    -4.15768687e+00     -1.71520353e+00     -5.64511516e-01     
O    2.52334364e+00      1.26448099e+00      4.25215783e-01      
H    2.65847906e+00      2.21070780e+00      5.14038907e-01      
H    3.39969187e+00      8.94162838e-01      2.97123046e-01      
29
83.102383
N    4.63976265e-02      -6.72989368e-03     5.94177917e-02      
H    8.30283964e-02      -8.63675003e-01     -5.32244461e-01     
H    9.67553333e-01      4.69481093e-01      6.62416624e-02      
H    -6.85770641e-01     6.46746814e-01      -3.05393049e-01     
C    -3.12990807e-01     -3.65387134e-01     1.44418765e+00      
H    4.18504423e-01      -1.05620787e+00     1.85311562e+00      
H    -3.36207857e-01     5.32920270e-01      2.05339618e+00      
C    -1.68101473e+00     -1.02502599e+00     1.41220286e+00      
O    -2.19680525e+00     -1.42964559e+00     3.85207474e-01      
O    -2.18341025e+00     -1.09386508e+00     2.62542770e+00      
H    -3.11208970e+00     -1.48661508e+00     2.58005838e+00      
O    -1.92594754e+00     1.78804116e+00      -3.93449312e-01     
H    -2.81765341e+00     1.61752232e+00      -4.00658445e-02     
H    -2.00670734e+00     2.53825412e+00      -9.84320276e-01     
O    1.90736438e-01      -2.51761107e+00     -1.10234916e+00     
H    -6.79644679e-01     -2.92224059e+00     -1.05329748e+00     
H    6.37887555e-01      -2.93958817e+00     -1.84062955e+00     
O    -4.35852679e+00     1.12268618e+00      6.86953434e-01      
H    -4.67584634e+00     1.32756424e+00      1.56802809e+00      
H    -4.76066652e+00     2.79402531e-01      4.45340582e-01      
O    -4.63108540e+00     -1.97621292e+00     2.52457480e+00      
H    -4.97865451e+00     -2.08012172e+00     1.62816889e+00      
H    -5.03845011e+00     -2.65223285e+00     3.07344940e+00      
O    -5.03568856e+00     -1.53277349e+00     -2.01587308e-01     
H    -5.66672308e+00     -1.79733961e+00     -8.75986732e-01     
H    -4.16439142e+00     -1.71471697e+00     -5.66564117e-01     
O    2.52595632e+00      1.26635311e+00      4.25231129e-01      
H    2.65874621e+00      2.21236164e+00      5.21067993e-01      
H    3.40289835e+00      8.99407187e-01      2.90590285e-01      
29
83.102383
N    4.98040494e-02      -8.36419045e-03     6.03101343e-02      
H    8.70429810e-02      -8.65720597e-01     -5.30829384e-01     
H    9.70758404e-01      4.68256359e-01      6.77139734e-02      
H    -6.82290553e-01     6.44447634e-01      -3.05640061e-01     
C    -3.11843375e-01     -3.65459242e-01     1.44492967e+00      
H    4.18066454e-01      -1.05714080e+00     1.85531990e+00      
H    -3.34430974e-01     5.33389795e-01      2.05336382e+00      
C    -1.68081906e+00     -1.02324575e+00     1.41172405e+00      
O    -2.19491210e+00     -1.43017917e+00     3.84760535e-01      
O    -2.18601406e+00     -1.08769102e+00     2.62411866e+00      
H    -3.11373818e+00     -1.48266312e+00     2.57846573e+00      
O    -1.92534761e+00     1.78339201e+00      -3.91711663e-01     
H    -2.81721264e+00     1.61318199e+00      -3.85430569e-02     
H    -2.00552563e+00     2.53517793e+00      -9.80720426e-01     
O    1.91201484e-01      -2.51812342e+00     -1.10399459e+00     
H    -6.80510341e-01     -2.91996528e+00     -1.05479082e+00     
H    6.36423642e-01      -2.94044598e+00     -1.84325550e+00     
O    -4.36049799e+00     1.12282292e+00      6.87100862e-01      
H    -4.67658662e+00     1.32840067e+00      1.56846454e+00      
H    -4.76370213e+00     2.79777439e-01      4.46392135e-01      
O    -4.63056600e+00     -1.97953328e+00     2.52388944e+00      
H    -4.97990610e+00     -2.08261952e+00     1.62809459e+00      
H    -5.03478093e+00     -2.65776907e+00     3.07241072e+00      
O    -5.04102995e+00     -1.53152540e+00     -2.00711206e-01     
H    -5.67441480e+00     -1.79404794e+00     -8.73766362e-01     
H    -4.17109598e+00     -1.71423041e+00     -5.68616717e-01     
O    2.52856900e+00      1.26822523e+00      4.25246475e-01      
H    2.65901335e+00      2.21401549e+00      5.28097079e-01      
H    3.40610483e+00      9.04651536e-01      2.84057525e-01      
29
83.102383
N    5.32104722e-02      -9.99848723e-03     6.12024770e-02      
H    9.10575657e-02      -8.67766191e-01     -5.29414308e-01     
H    9.73963474e-01      4.67031626e-01      6.91862843e-02      
H    -6.78810466e-01     6.42148453e-01      -3.05887073e-01     
C    -3.10695943e-01     -3.65531349e-01     1.44567170e+00      
H    4.17628484e-01      -1.05807372e+00     1.85752418e+00      
H    -3.32654091e-01     5.33859321e-01      2.05333146e+00      
C    -1.68062340e+00     -1.02146551e+00     1.41124524e+00      
O    -2.19301894e+00     -1.43071274e+00     3.84313596e-01      
O    -2.18861786e+00     -1.08151697e+00     2.62280961e+00      
H    -3.11538667e+00     -1.47871117e+00     2.57687308e+00      
O    -1.92474768e+00     1.77874285e+00      -3.89974014e-01     
H    -2.81677187e+00     1.60884167e+00      -3.70202694e-02     
H    -2.00434393e+00     2.53210175e+00      -9.77120575e-01     
O    1.91666530e-01      -2.51863577e+00     -1.10564003e+00     
H    -6.81376003e-01     -2.91768997e+00     -1.05628415e+00     
H    6.34959730e-01      -2.94130379e+00     -1.84588145e+00     
O    -4.36246918e+00     1.12295966e+00      6.87248290e-01      
H    -4.67732690e+00     1.32923710e+00      1.56890099e+00      
H    -4.76673773e+00     2.80152346e-01      4.47443688e-01      
O    -4.63004659e+00     -1.98285364e+00     2.52320409e+00      
H    -4.98115769e+00     -2.08511731e+00     1.62802029e+00      
H    -5.03111176e+00     -2.66330529e+00     3.07137203e+00      
O    -5.04637134e+00     -1.53027731e+00     -1.99835103e-01     
H    -5.68210652e+00     -1.79075628e+00     -8.71545991e-01     
H    -4.17780053e+00     -1.71374386e+00     -5.70669318e-01     
O    2.53118168e+00      1.27009735e+00      4.25261822e-01      
H    2.65928050e+00      2.21566933e+00      5.35126165e-01      
H    3.40931131e+00      9.09895884e-01      2.77524764e-01      
29
83.102383
N    5.66168951e-02      -1.16327840e-02     6.20948196e-02      
H    9.50721503e-02      -8.69811786e-01     -5.27999231e-01     
H    9.77168544e-01      4.65806892e-01      7.06585952e-02      
H    -6.75330378e-01     6.39849273e-01      -3.06134084e-01     
C    -3.09548511e-01     -3.65603457e-01     1.44641372e+00      
H    4.17190514e-01      -1.05900664e+00     1.85972845e+00      
H    -3.30877208e-01     5.34328847e-01      2.05329910e+00      
C    -1.68042773e+00     -1.01968526e+00     1.41076643e+00      
O    -2.19112579e+00     -1.43124632e+00     3.83866657e-01      
O    -2.19122167e+00     -1.07534291e+00     2.62150056e+00      
H    -3.11703515e+00     -1.47475921e+00     2.57528042e+00      
O    -1.92414776e+00     1.77409370e+00      -3.88236365e-01     
H    -2.81633110e+00     1.60450134e+00      -3.54974818e-02     
H    -2.00316222e+00     2.52902557e+00      -9.73520725e-01     
O    1.92131576e-01      -2.51914812e+00     -1.10728547e+00     
H    -6.82241665e-01     -2.91541466e+00     -1.05777749e+00     
H    6.33495817e-01      -2.94216160e+00     -1.84850739e+00     
O    -4.36444038e+00     1.12309640e+00      6.87395718e-01      
H    -4.67806717e+00     1.33007353e+00      1.56933744e+00      
H    -4.76977334e+00     2.80527254e-01      4.48495240e-01      
O    -4.62952718e+00     -1.98617401e+00     2.52251874e+00      
H    -4.98240928e+00     -2.08761511e+00     1.62794599e+00      
H    -5.02744258e+00     -2.66884152e+00     3.07033334e+00      
O    -5.05171273e+00     -1.52902922e+00     -1.98959001e-01     
H    -5.68979825e+00     -1.78746462e+00     -8.69325620e-01     
H    -4.18450509e+00     -1.71325730e+00     -5.72721918e-01     
O    2.53379436e+00      1.27196948e+00      4.25277168e-01      
H    2.65954765e+00      2.21732318e+00      5.42155251e-01      
H    3.41251779e+00      9.15140233e-01      2.70992003e-01      
29
83.102383
N    6.34297409e-02      -1.49013776e-02     6.38795048e-02      
H    1.03101320e-01      -8.73902974e-01     -5.25169078e-01     
H    9.83578685e-01      4.63357424e-01      7.36032170e-02      
H    -6.68370203e-01     6.35250912e-01      -3.06628108e-01     
C    -3.07253647e-01     -3.65747672e-01     1.44789777e+00      
H    4.16314574e-01      -1.06087248e+00     1.86413701e+00      
H    -3.27323442e-01     5.35267899e-01      2.05323437e+00      
C    -1.68003640e+00     -1.01612478e+00     1.40980880e+00      
O    -2.18733948e+00     -1.43231348e+00     3.82972780e-01      
O    -2.19642928e+00     -1.06299480e+00     2.61888247e+00      
H    -3.12033212e+00     -1.46685530e+00     2.57209512e+00      
O    -1.92294790e+00     1.76479539e+00      -3.84761067e-01     
H    -2.81544955e+00     1.59582069e+00      -3.24519067e-02     
H    -2.00079880e+00     2.52287321e+00      -9.66321024e-01     
O    1.93061669e-01      -2.52017282e+00     -1.11057635e+00     
H    -6.83972988e-01     -2.91086403e+00     -1.06076416e+00     
H    6.30567992e-01      -2.94387722e+00     -1.85375929e+00     
O    -4.36838277e+00     1.12336988e+00      6.87690574e-01      
H    -4.67954773e+00     1.33174640e+00      1.57021034e+00      
H    -4.77584455e+00     2.81277069e-01      4.50598346e-01      
O    -4.62848837e+00     -1.99281473e+00     2.52114803e+00      
H    -4.98491245e+00     -2.09261071e+00     1.62779739e+00      
H    -5.02010423e+00     -2.67991396e+00     3.06825597e+00      
O    -5.06239551e+00     -1.52653304e+00     -1.97206796e-01     
H    -5.70518169e+00     -1.78088129e+00     -8.64884878e-01     
H    -4.19791419e+00     -1.71228419e+00     -5.76827120e-01     
O    2.53901973e+00      1.27571372e+00      4.25307861e-01      
H    2.66008194e+00      2.22063087e+00      5.56213423e-01      
H    3.41893075e+00      9.25628930e-01      2.57926481e-01      
