29
59.618474
N    3.14666123e-02      1.27004543e-03      5.71087092e-02      
H    7.56552347e-02      -8.50067825e-01     -5.40883906e-01     
H    9.49690890e-01      4.82995495e-01      6.22711310e-02      
H    -7.10179077e-01     6.49972805e-01      -2.98854669e-01     
C    -3.11986094e-01     -3.77019576e-01     1.44073490e+00      
H    4.27359324e-01      -1.06881076e+00     1.83344369e+00      
H    -3.34799528e-01     5.13135881e-01      2.06207361e+00      
C    -1.67751702e+00     -1.04164450e+00     1.41290938e+00      
O    -2.20338054e+00     -1.42926085e+00     3.84628400e-01      
O    -2.16613691e+00     -1.13263331e+00     2.63033639e+00      
H    -3.10167880e+00     -1.50960787e+00     2.58735341e+00      
O    -1.95915335e+00     1.77696837e+00      -4.06174244e-01     
H    -2.84960706e+00     1.61956069e+00      -4.27898910e-02     
H    -2.03586156e+00     2.52888898e+00      -9.95299389e-01     
O    2.51546330e-01      -2.50773590e+00     -1.10184501e+00     
H    -5.98817623e-01     -2.95706686e+00     -1.07709278e+00     
H    7.36546337e-01      -2.90213020e+00     -1.83259280e+00     
O    -4.39845933e+00     1.15454766e+00      6.83129062e-01      
H    -4.70292184e+00     1.34596845e+00      1.57195778e+00      
H    -4.78451686e+00     3.02550421e-01      4.45105502e-01      
O    -4.63443887e+00     -1.95123171e+00     2.53423941e+00      
H    -4.97970767e+00     -2.05192909e+00     1.63637772e+00      
H    -5.05800129e+00     -2.61678790e+00     3.08379674e+00      
O    -5.02436145e+00     -1.51363222e+00     -1.94346893e-01     
H    -5.64451683e+00     -1.79013967e+00     -8.73955853e-01     
H    -4.14669728e+00     -1.69088410e+00     -5.46637918e-01     
O    2.52487775e+00      1.24211846e+00      4.23915652e-01      
H    2.68131752e+00      2.18521706e+00      5.13237048e-01      
H    3.39284200e+00      8.52164303e-01      2.96745014e-01      
29
59.618474
N    3.26445486e-02      4.95783234e-04      5.70167228e-02      
H    7.44875866e-02      -8.51935424e-01     -5.39785352e-01     
H    9.51752698e-01      4.80535445e-01      6.21595307e-02      
H    -7.06687034e-01     6.50890693e-01      -3.00304005e-01     
C    -3.13097846e-01     -3.74057385e-01     1.44104157e+00      
H    4.25474077e-01      -1.06496035e+00     1.83670846e+00      
H    -3.36484272e-01     5.17729834e-01      2.05992853e+00      
C    -1.67853820e+00     -1.03882505e+00     1.41309186e+00      
O    -2.20315659e+00     -1.42895685e+00     3.85108373e-01      
O    -2.16850239e+00     -1.12757179e+00     2.63009100e+00      
H    -3.10304516e+00     -1.50682364e+00     2.58672415e+00      
O    -1.95130184e+00     1.78322343e+00      -4.04296248e-01     
H    -2.84194923e+00     1.62230634e+00      -4.32509700e-02     
H    -2.02945929e+00     2.53353740e+00      -9.95254499e-01     
O    2.35995072e-01      -2.50982043e+00     -1.10073697e+00     
H    -6.18375141e-01     -2.95006678e+00     -1.07002396e+00     
H    7.12979576e-01      -2.91085134e+00     -1.83263253e+00     
O    -4.38699780e+00     1.14647974e+00      6.83974584e-01      
H    -4.69559776e+00     1.34074008e+00      1.57064802e+00      
H    -4.77627757e+00     2.96482268e-01      4.44375607e-01      
O    -4.63399006e+00     -1.95498674e+00     2.53233728e+00      
H    -4.97850569e+00     -2.05710390e+00     1.63438124e+00      
H    -5.05586538e+00     -2.62149697e+00     3.08198892e+00      
O    -5.02318719e+00     -1.51935361e+00     -1.96814074e-01     
H    -5.64429960e+00     -1.79440841e+00     -8.76128851e-01     
H    -4.14609240e+00     -1.69720724e+00     -5.50080017e-01     
O    2.52318789e+00      1.24677303e+00      4.24233012e-01      
H    2.67547433e+00      2.19076282e+00      5.09922969e-01      
H    3.39295123e+00      8.60041762e-01      3.00105902e-01      
29
59.618474
N    3.32335168e-02      1.08652139e-04      5.69707297e-02      
H    7.39037626e-02      -8.52869223e-01     -5.39236075e-01     
H    9.52783602e-01      4.79305420e-01      6.21037305e-02      
H    -7.04941012e-01     6.51349637e-01      -3.01028673e-01     
C    -3.13653722e-01     -3.72576289e-01     1.44119490e+00      
H    4.24531453e-01      -1.06303514e+00     1.83834085e+00      
H    -3.37326645e-01     5.20026810e-01      2.05885598e+00      
C    -1.67904879e+00     -1.03741533e+00     1.41318310e+00      
O    -2.20304461e+00     -1.42880485e+00     3.85348359e-01      
O    -2.16968513e+00     -1.12504103e+00     2.62996831e+00      
H    -3.10372834e+00     -1.50543152e+00     2.58640951e+00      
O    -1.94737609e+00     1.78635096e+00      -4.03357249e-01     
H    -2.83812031e+00     1.62367917e+00      -4.34815096e-02     
H    -2.02625815e+00     2.53586161e+00      -9.95232053e-01     
O    2.28219443e-01      -2.51086269e+00     -1.10018295e+00     
H    -6.28153900e-01     -2.94656673e+00     -1.06648954e+00     
H    7.01196195e-01      -2.91521191e+00     -1.83265239e+00     
O    -4.38126703e+00     1.14244577e+00      6.84397345e-01      
H    -4.69193571e+00     1.33812589e+00      1.56999314e+00      
H    -4.77215793e+00     2.93448191e-01      4.44010660e-01      
O    -4.63376565e+00     -1.95686426e+00     2.53138621e+00      
H    -4.97790470e+00     -2.05969130e+00     1.63338300e+00      
H    -5.05479742e+00     -2.62385151e+00     3.08108501e+00      
O    -5.02260005e+00     -1.52221430e+00     -1.98047664e-01     
H    -5.64419098e+00     -1.79654277e+00     -8.77215350e-01     
H    -4.14578996e+00     -1.70036881e+00     -5.51801067e-01     
O    2.52234295e+00      1.24910032e+00      4.24391691e-01      
H    2.67255274e+00      2.19353571e+00      5.08265930e-01      
H    3.39300584e+00      8.63980492e-01      3.01786347e-01      
29
59.618474
N    3.38224850e-02      -2.78478957e-04     5.69247365e-02      
H    7.33199386e-02      -8.53803023e-01     -5.38686798e-01     
H    9.53814506e-01      4.78075395e-01      6.20479304e-02      
H    -7.03194990e-01     6.51808581e-01      -3.01753341e-01     
C    -3.14209598e-01     -3.71095194e-01     1.44134824e+00      
H    4.23588829e-01      -1.06110993e+00     1.83997323e+00      
H    -3.38169017e-01     5.22323786e-01      2.05778344e+00      
C    -1.67955937e+00     -1.03600561e+00     1.41327434e+00      
O    -2.20293263e+00     -1.42865285e+00     3.85588345e-01      
O    -2.17086787e+00     -1.12251027e+00     2.62984561e+00      
H    -3.10441152e+00     -1.50403940e+00     2.58609488e+00      
O    -1.94345033e+00     1.78947849e+00      -4.02418251e-01     
H    -2.83429140e+00     1.62505200e+00      -4.37120491e-02     
H    -2.02305701e+00     2.53818582e+00      -9.95209608e-01     
O    2.20443814e-01      -2.51190496e+00     -1.09962893e+00     
H    -6.37932658e-01     -2.94306669e+00     -1.06295513e+00     
H    6.89412815e-01      -2.91957247e+00     -1.83267225e+00     
O    -4.37553627e+00     1.13841181e+00      6.84820106e-01      
H    -4.68827367e+00     1.33551170e+00      1.56933826e+00      
H    -4.76803828e+00     2.90414115e-01      4.43645713e-01      
O    -4.63354125e+00     -1.95874177e+00     2.53043514e+00      
H    -4.97730371e+00     -2.06227871e+00     1.63238476e+00      
H    -5.05372947e+00     -2.62620604e+00     3.08018110e+00      
O    -5.02201292e+00     -1.52507499e+00     -1.99281255e-01     
H    -5.64408237e+00     -1.79867714e+00     -8.78301849e-01     
H    -4.14548752e+00     -1.70353037e+00     -5.53522116e-01     
O    2.52149802e+00      1.25142760e+00      4.24550371e-01      
H    2.66963115e+00      2.19630859e+00      5.06608891e-01      
H    3.39306045e+00      8.67919222e-01      3.03466791e-01      
29
59.618474
N    3.44114532e-02      -6.65610053e-04     5.68787433e-02      
H    7.27361145e-02      -8.54736822e-01     -5.38137521e-01     
H    9.54845410e-01      4.76845370e-01      6.19921302e-02      
H    -7.01448968e-01     6.52267524e-01      -3.02478010e-01     
C    -3.14765475e-01     -3.69614098e-01     1.44150157e+00      
H    4.22646205e-01      -1.05918473e+00     1.84160562e+00      
H    -3.39011389e-01     5.24620763e-01      2.05671089e+00      
C    -1.68006996e+00     -1.03459589e+00     1.41336558e+00      
O    -2.20282065e+00     -1.42850085e+00     3.85828331e-01      
O    -2.17205061e+00     -1.11997952e+00     2.62972292e+00      
H    -3.10509471e+00     -1.50264729e+00     2.58578024e+00      
O    -1.93952458e+00     1.79260603e+00      -4.01479253e-01     
H    -2.83046248e+00     1.62642482e+00      -4.39425886e-02     
H    -2.01985588e+00     2.54051003e+00      -9.95187163e-01     
O    2.12668186e-01      -2.51294722e+00     -1.09907490e+00     
H    -6.47711417e-01     -2.93956665e+00     -1.05942071e+00     
H    6.77629434e-01      -2.92393304e+00     -1.83269212e+00     
O    -4.36980550e+00     1.13437785e+00      6.85242867e-01      
H    -4.68461163e+00     1.33289751e+00      1.56868338e+00      
H    -4.76391864e+00     2.87380038e-01      4.43280766e-01      
O    -4.63331684e+00     -1.96061929e+00     2.52948407e+00      
H    -4.97670272e+00     -2.06486611e+00     1.63138652e+00      
H    -5.05266151e+00     -2.62856058e+00     3.07927719e+00      
O    -5.02142579e+00     -1.52793568e+00     -2.00514845e-01     
H    -5.64397375e+00     -1.80081150e+00     -8.79388348e-01     
H    -4.14518508e+00     -1.70669194e+00     -5.55243166e-01     
O    2.52065308e+00      1.25375489e+00      4.24709051e-01      
H    2.66670955e+00      2.19908147e+00      5.04951852e-01      
H    3.39311507e+00      8.71857952e-01      3.05147235e-01      
29
59.618474
N    3.50004214e-02      -1.05274115e-03     5.68327501e-02      
H    7.21522905e-02      -8.55670621e-01     -5.37588245e-01     
H    9.55876314e-01      4.75615344e-01      6.19363300e-02      
H    -6.99702947e-01     6.52726468e-01      -3.03202678e-01     
C    -3.15321351e-01     -3.68133002e-01     1.44165491e+00      
H    4.21703581e-01      -1.05725952e+00     1.84323801e+00      
H    -3.39853761e-01     5.26917739e-01      2.05563835e+00      
C    -1.68058055e+00     -1.03318616e+00     1.41345682e+00      
O    -2.20270868e+00     -1.42834885e+00     3.86068318e-01      
O    -2.17323335e+00     -1.11744876e+00     2.62960023e+00      
H    -3.10577789e+00     -1.50125517e+00     2.58546561e+00      
O    -1.93559883e+00     1.79573356e+00      -4.00540255e-01     
H    -2.82663356e+00     1.62779765e+00      -4.41731281e-02     
H    -2.01665474e+00     2.54283424e+00      -9.95164718e-01     
O    2.04892557e-01      -2.51398948e+00     -1.09852088e+00     
H    -6.57490176e-01     -2.93606661e+00     -1.05588630e+00     
H    6.65846053e-01      -2.92829361e+00     -1.83271198e+00     
O    -4.36407474e+00     1.13034389e+00      6.85665628e-01      
H    -4.68094959e+00     1.33028333e+00      1.56802850e+00      
H    -4.75979899e+00     2.84345962e-01      4.42915818e-01      
O    -4.63309243e+00     -1.96249680e+00     2.52853300e+00      
H    -4.97610173e+00     -2.06745351e+00     1.63038828e+00      
H    -5.05159355e+00     -2.63091511e+00     3.07837328e+00      
O    -5.02083866e+00     -1.53079638e+00     -2.01748435e-01     
H    -5.64386514e+00     -1.80294587e+00     -8.80474847e-01     
H    -4.14488264e+00     -1.70985351e+00     -5.56964216e-01     
O    2.51980815e+00      1.25608217e+00      4.24867731e-01      
H    2.66378796e+00      2.20185435e+00      5.03294813e-01      
H    3.39316968e+00      8.75796681e-01      3.06827679e-01      
29
59.618474
N    3.52949055e-02      -1.24630670e-03     5.68097536e-02      
H    7.18603785e-02      -8.56137521e-01     -5.37313606e-01     
H    9.56391766e-01      4.75000332e-01      6.19084300e-02      
H    -6.98829936e-01     6.52955940e-01      -3.03565012e-01     
C    -3.15599289e-01     -3.67392454e-01     1.44173158e+00      
H    4.21232269e-01      -1.05629692e+00     1.84405420e+00      
H    -3.40274948e-01     5.28066227e-01      2.05510208e+00      
C    -1.68083584e+00     -1.03248130e+00     1.41350244e+00      
O    -2.20265269e+00     -1.42827285e+00     3.86188311e-01      
O    -2.17382472e+00     -1.11618338e+00     2.62953888e+00      
H    -3.10611948e+00     -1.50055911e+00     2.58530829e+00      
O    -1.93363595e+00     1.79729732e+00      -4.00070756e-01     
H    -2.82471910e+00     1.62848406e+00      -4.42883979e-02     
H    -2.01505417e+00     2.54399634e+00      -9.95153495e-01     
O    2.01004742e-01      -2.51451062e+00     -1.09824387e+00     
H    -6.62379555e-01     -2.93431659e+00     -1.05411909e+00     
H    6.59954363e-01      -2.93047389e+00     -1.83272191e+00     
O    -4.36120936e+00     1.12832690e+00      6.85877009e-01      
H    -4.67911857e+00     1.32897623e+00      1.56770106e+00      
H    -4.75773917e+00     2.82828924e-01      4.42733345e-01      
O    -4.63298023e+00     -1.96343556e+00     2.52805746e+00      
H    -4.97580123e+00     -2.06874721e+00     1.62988916e+00      
H    -5.05105957e+00     -2.63209238e+00     3.07792132e+00      
O    -5.02054509e+00     -1.53222672e+00     -2.02365231e-01     
H    -5.64381083e+00     -1.80401305e+00     -8.81018097e-01     
H    -4.14473142e+00     -1.71143429e+00     -5.57824741e-01     
O    2.51938568e+00      1.25724581e+00      4.24947070e-01      
H    2.66232716e+00      2.20324079e+00      5.02466294e-01      
H    3.39319699e+00      8.77766046e-01      3.07667902e-01      
29
59.618474
N    3.55893896e-02      -1.43987224e-03     5.67867570e-02      
H    7.15684664e-02      -8.56604421e-01     -5.37038968e-01     
H    9.56907218e-01      4.74385319e-01      6.18805299e-02      
H    -6.97956925e-01     6.53185412e-01      -3.03927346e-01     
C    -3.15877227e-01     -3.66651907e-01     1.44180824e+00      
H    4.20760957e-01      -1.05533432e+00     1.84487039e+00      
H    -3.40696134e-01     5.29214716e-01      2.05456580e+00      
C    -1.68109113e+00     -1.03177644e+00     1.41354806e+00      
O    -2.20259670e+00     -1.42819685e+00     3.86308304e-01      
O    -2.17441609e+00     -1.11491800e+00     2.62947753e+00      
H    -3.10646107e+00     -1.49986306e+00     2.58515097e+00      
O    -1.93167307e+00     1.79886109e+00      -3.99601257e-01     
H    -2.82280465e+00     1.62917047e+00      -4.44036677e-02     
H    -2.01345361e+00     2.54515845e+00      -9.95142272e-01     
O    1.97116928e-01      -2.51503175e+00     -1.09796686e+00     
H    -6.67268934e-01     -2.93256657e+00     -1.05235188e+00     
H    6.54062673e-01      -2.93265417e+00     -1.83273185e+00     
O    -4.35834397e+00     1.12630992e+00      6.86088389e-01      
H    -4.67728755e+00     1.32766914e+00      1.56737362e+00      
H    -4.75567935e+00     2.81311885e-01      4.42550871e-01      
O    -4.63286803e+00     -1.96437432e+00     2.52758193e+00      
H    -4.97550074e+00     -2.07004092e+00     1.62939004e+00      
H    -5.05052560e+00     -2.63326965e+00     3.07746937e+00      
O    -5.02025152e+00     -1.53365707e+00     -2.02982026e-01     
H    -5.64375652e+00     -1.80508023e+00     -8.81561346e-01     
H    -4.14458020e+00     -1.71301507e+00     -5.58685265e-01     
O    2.51896321e+00      1.25840946e+00      4.25026410e-01      
H    2.66086636e+00      2.20462723e+00      5.01637774e-01      
H    3.39322430e+00      8.79735411e-01      3.08508124e-01      
29
59.618474
N    3.67673260e-02      -2.21413444e-03     5.66947706e-02      
H    7.04008184e-02      -8.58472019e-01     -5.35940414e-01     
H    9.58969026e-01      4.71925269e-01      6.17689295e-02      
H    -6.94464881e-01     6.54103300e-01      -3.05376682e-01     
C    -3.16988979e-01     -3.63689715e-01     1.44211492e+00      
H    4.18875709e-01      -1.05148390e+00     1.84813517e+00      
H    -3.42380878e-01     5.33808668e-01      2.05242072e+00      
C    -1.68211231e+00     -1.02895700e+00     1.41373054e+00      
O    -2.20237274e+00     -1.42789285e+00     3.86788276e-01      
O    -2.17678157e+00     -1.10985648e+00     2.62923215e+00      
H    -3.10782743e+00     -1.49707882e+00     2.58452171e+00      
O    -1.92382157e+00     1.80511615e+00      -3.97723261e-01     
H    -2.81514681e+00     1.63191613e+00      -4.48647467e-02     
H    -2.00705133e+00     2.54980687e+00      -9.95097382e-01     
O    1.81565670e-01      -2.51711627e+00     -1.09685882e+00     
H    -6.86826452e-01     -2.92556649e+00     -1.04528306e+00     
H    6.30495911e-01      -2.94137531e+00     -1.83277157e+00     
O    -4.34688245e+00     1.11824200e+00      6.86933911e-01      
H    -4.66996347e+00     1.32244076e+00      1.56606386e+00      
H    -4.74744005e+00     2.75243733e-01      4.41820977e-01      
O    -4.63241921e+00     -1.96812934e+00     2.52567979e+00      
H    -4.97429876e+00     -2.07521572e+00     1.62739356e+00      
H    -5.04838968e+00     -2.63797871e+00     3.07566155e+00      
O    -5.01907726e+00     -1.53937845e+00     -2.05449206e-01     
H    -5.64353930e+00     -1.80934897e+00     -8.83734344e-01     
H    -4.14397532e+00     -1.71933821e+00     -5.62127365e-01     
O    2.51727335e+00      1.26306402e+00      4.25343770e-01      
H    2.65502318e+00      2.21017299e+00      4.98323696e-01      
H    3.39333352e+00      8.87612871e-01      3.11869012e-01      
29
59.618474
N    3.70618101e-02      -2.40769998e-03     5.66717740e-02      
H    7.01089063e-02      -8.58938919e-01     -5.35665776e-01     
H    9.59484478e-01      4.71310256e-01      6.17410294e-02      
H    -6.93591870e-01     6.54332772e-01      -3.05739016e-01     
C    -3.17266917e-01     -3.62949168e-01     1.44219158e+00      
H    4.18404397e-01      -1.05052130e+00     1.84895136e+00      
H    -3.42802064e-01     5.34957157e-01      2.05188444e+00      
C    -1.68236760e+00     -1.02825214e+00     1.41377616e+00      
O    -2.20231675e+00     -1.42781685e+00     3.86908269e-01      
O    -2.17737294e+00     -1.10859110e+00     2.62917080e+00      
H    -3.10816902e+00     -1.49638277e+00     2.58436439e+00      
O    -1.92185869e+00     1.80667992e+00      -3.97253762e-01     
H    -2.81323236e+00     1.63260254e+00      -4.49800165e-02     
H    -2.00545077e+00     2.55096898e+00      -9.95086159e-01     
O    1.77677856e-01      -2.51763740e+00     -1.09658181e+00     
H    -6.91715831e-01     -2.92381647e+00     -1.04351585e+00     
H    6.24604221e-01      -2.94355559e+00     -1.83278151e+00     
O    -4.34401706e+00     1.11622502e+00      6.87145291e-01      
H    -4.66813245e+00     1.32113367e+00      1.56573642e+00      
H    -4.74538023e+00     2.73726694e-01      4.41638503e-01      
O    -4.63230701e+00     -1.96906810e+00     2.52520426e+00      
H    -4.97399827e+00     -2.07650943e+00     1.62689444e+00      
H    -5.04785571e+00     -2.63915598e+00     3.07520960e+00      
O    -5.01878369e+00     -1.54080880e+00     -2.06066001e-01     
H    -5.64348499e+00     -1.81041615e+00     -8.84277593e-01     
H    -4.14382410e+00     -1.72091899e+00     -5.62987889e-01     
O    2.51685088e+00      1.26422767e+00      4.25423110e-01      
H    2.65356238e+00      2.21155943e+00      4.97495176e-01      
H    3.39336083e+00      8.89582236e-01      3.12709234e-01      
29
59.618474
N    3.73562942e-02      -2.60126553e-03     5.66487775e-02      
H    6.98169943e-02      -8.59405819e-01     -5.35391137e-01     
H    9.59999930e-01      4.70695244e-01      6.17131294e-02      
H    -6.92718859e-01     6.54562244e-01      -3.06101350e-01     
C    -3.17544855e-01     -3.62208620e-01     1.44226825e+00      
H    4.17933085e-01      -1.04955870e+00     1.84976755e+00      
H    -3.43223251e-01     5.36105645e-01      2.05134817e+00      
C    -1.68262289e+00     -1.02754728e+00     1.41382178e+00      
O    -2.20226076e+00     -1.42774085e+00     3.87028262e-01      
O    -2.17796431e+00     -1.10732572e+00     2.62910945e+00      
H    -3.10851061e+00     -1.49568671e+00     2.58420707e+00      
O    -1.91989581e+00     1.80824368e+00      -3.96784263e-01     
H    -2.81131790e+00     1.63328895e+00      -4.50952863e-02     
H    -2.00385020e+00     2.55213108e+00      -9.95074936e-01     
O    1.73790041e-01      -2.51815854e+00     -1.09630480e+00     
H    -6.96605210e-01     -2.92206645e+00     -1.04174864e+00     
H    6.18712531e-01      -2.94573587e+00     -1.83279144e+00     
O    -4.34115168e+00     1.11420803e+00      6.87356672e-01      
H    -4.66630143e+00     1.31982657e+00      1.56540898e+00      
H    -4.74332041e+00     2.72209656e-01      4.41456030e-01      
O    -4.63219481e+00     -1.97000686e+00     2.52472872e+00      
H    -4.97369777e+00     -2.07780313e+00     1.62639532e+00      
H    -5.04732173e+00     -2.64033325e+00     3.07475764e+00      
O    -5.01849012e+00     -1.54223914e+00     -2.06682797e-01     
H    -5.64343068e+00     -1.81148333e+00     -8.84820843e-01     
H    -4.14367288e+00     -1.72249977e+00     -5.63848414e-01     
O    2.51642841e+00      1.26539131e+00      4.25502449e-01      
H    2.65210158e+00      2.21294587e+00      4.96666657e-01      
H    3.39338814e+00      8.91551601e-01      3.13549457e-01      
29
59.618474
N    3.79452624e-02      -2.98839663e-03     5.66027843e-02      
H    6.92331703e-02      -8.60339618e-01     -5.34841861e-01     
H    9.61030834e-01      4.69465218e-01      6.16573292e-02      
H    -6.90972838e-01     6.55021188e-01      -3.06826018e-01     
C    -3.18100731e-01     -3.60727524e-01     1.44242159e+00      
H    4.16990461e-01      -1.04763349e+00     1.85139994e+00      
H    -3.44065623e-01     5.38402621e-01      2.05027563e+00      
C    -1.68313348e+00     -1.02613755e+00     1.41391302e+00      
O    -2.20214879e+00     -1.42758885e+00     3.87268249e-01      
O    -2.17914705e+00     -1.10479496e+00     2.62898676e+00      
H    -3.10919379e+00     -1.49429459e+00     2.58389244e+00      
O    -1.91597006e+00     1.81137121e+00      -3.95845265e-01     
H    -2.80748898e+00     1.63466178e+00      -4.53258258e-02     
H    -2.00064906e+00     2.55445529e+00      -9.95052491e-01     
O    1.66014412e-01      -2.51920080e+00     -1.09575078e+00     
H    -7.06383969e-01     -2.91856641e+00     -1.03821423e+00     
H    6.06929150e-01      -2.95009644e+00     -1.83281130e+00     
O    -4.33542092e+00     1.11017407e+00      6.87779433e-01      
H    -4.66263939e+00     1.31721239e+00      1.56475410e+00      
H    -4.73920076e+00     2.69175580e-01      4.41091082e-01      
O    -4.63197040e+00     -1.97188437e+00     2.52377765e+00      
H    -4.97309678e+00     -2.08039053e+00     1.62539708e+00      
H    -5.04625377e+00     -2.64268778e+00     3.07385373e+00      
O    -5.01790299e+00     -1.54509984e+00     -2.07916387e-01     
H    -5.64332207e+00     -1.81361770e+00     -8.85907342e-01     
H    -4.14337044e+00     -1.72566134e+00     -5.65569464e-01     
O    2.51558348e+00      1.26771859e+00      4.25661129e-01      
H    2.64917999e+00      2.21571875e+00      4.95009618e-01      
H    3.39344275e+00      8.95490330e-01      3.15229901e-01      
29
59.618474
N    3.85342306e-02      -3.37552772e-03     5.65567911e-02      
H    6.86493462e-02      -8.61273417e-01     -5.34292584e-01     
H    9.62061738e-01      4.68235193e-01      6.16015290e-02      
H    -6.89226816e-01     6.55480131e-01      -3.07550687e-01     
C    -3.18656608e-01     -3.59246428e-01     1.44257492e+00      
H    4.16047837e-01      -1.04570829e+00     1.85303233e+00      
H    -3.44907995e-01     5.40699598e-01      2.04920308e+00      
C    -1.68364407e+00     -1.02472783e+00     1.41400426e+00      
O    -2.20203681e+00     -1.42743685e+00     3.87508235e-01      
O    -2.18032979e+00     -1.10226421e+00     2.62886407e+00      
H    -3.10987698e+00     -1.49290248e+00     2.58357780e+00      
O    -1.91204431e+00     1.81449875e+00      -3.94906267e-01     
H    -2.80366006e+00     1.63603460e+00      -4.55563653e-02     
H    -1.99744793e+00     2.55677950e+00      -9.95030046e-01     
O    1.58238784e-01      -2.52024306e+00     -1.09519675e+00     
H    -7.16162728e-01     -2.91506637e+00     -1.03467981e+00     
H    5.95145769e-01      -2.95445701e+00     -1.83283117e+00     
O    -4.32969015e+00     1.10614011e+00      6.88202194e-01      
H    -4.65897735e+00     1.31459820e+00      1.56409922e+00      
H    -4.73508112e+00     2.66141503e-01      4.40726135e-01      
O    -4.63174599e+00     -1.97376189e+00     2.52282658e+00      
H    -4.97249579e+00     -2.08297793e+00     1.62439884e+00      
H    -5.04518581e+00     -2.64504232e+00     3.07294982e+00      
O    -5.01731586e+00     -1.54796053e+00     -2.09149977e-01     
H    -5.64321345e+00     -1.81575206e+00     -8.86993841e-01     
H    -4.14306800e+00     -1.72882291e+00     -5.67290514e-01     
O    2.51473854e+00      1.27004588e+00      4.25819809e-01      
H    2.64625839e+00      2.21849163e+00      4.93352579e-01      
H    3.39349737e+00      8.99429060e-01      3.16910345e-01      
29
59.618474
N    3.91231988e-02      -3.76265882e-03     5.65107979e-02      
H    6.80655222e-02      -8.62207217e-01     -5.33743307e-01     
H    9.63092642e-01      4.67005168e-01      6.15457289e-02      
H    -6.87480794e-01     6.55939075e-01      -3.08275355e-01     
C    -3.19212484e-01     -3.57765333e-01     1.44272826e+00      
H    4.15105213e-01      -1.04378308e+00     1.85466471e+00      
H    -3.45750367e-01     5.42996574e-01      2.04813054e+00      
C    -1.68415465e+00     -1.02331811e+00     1.41409550e+00      
O    -2.20192483e+00     -1.42728485e+00     3.87748221e-01      
O    -2.18151253e+00     -1.09973345e+00     2.62874137e+00      
H    -3.11056016e+00     -1.49151036e+00     2.58326317e+00      
O    -1.90811855e+00     1.81762628e+00      -3.93967269e-01     
H    -2.79983115e+00     1.63740743e+00      -4.57869048e-02     
H    -1.99424679e+00     2.55910371e+00      -9.95007601e-01     
O    1.50463155e-01      -2.52128533e+00     -1.09464273e+00     
H    -7.25941486e-01     -2.91156633e+00     -1.03114540e+00     
H    5.83362389e-01      -2.95881757e+00     -1.83285103e+00     
O    -4.32395939e+00     1.10210615e+00      6.88624955e-01      
H    -4.65531531e+00     1.31198401e+00      1.56344434e+00      
H    -4.73096147e+00     2.63107427e-01      4.40361188e-01      
O    -4.63152159e+00     -1.97563940e+00     2.52187551e+00      
H    -4.97189480e+00     -2.08556534e+00     1.62340060e+00      
H    -5.04411786e+00     -2.64739685e+00     3.07204591e+00      
O    -5.01672873e+00     -1.55082122e+00     -2.10383568e-01     
H    -5.64310484e+00     -1.81788643e+00     -8.88080340e-01     
H    -4.14276556e+00     -1.73198447e+00     -5.69011563e-01     
O    2.51389361e+00      1.27237316e+00      4.25978489e-01      
H    2.64333680e+00      2.22126451e+00      4.91695540e-01      
H    3.39355198e+00      9.03367790e-01      3.18590789e-01      
29
59.618474
N    3.97121670e-02      -4.14978991e-03     5.64648048e-02      
H    6.74816982e-02      -8.63141016e-01     -5.33194030e-01     
H    9.64123546e-01      4.65775143e-01      6.14899287e-02      
H    -6.85734772e-01     6.56398019e-01      -3.09000023e-01     
C    -3.19768360e-01     -3.56284237e-01     1.44288159e+00      
H    4.14162589e-01      -1.04185787e+00     1.85629710e+00      
H    -3.46592740e-01     5.45293550e-01      2.04705799e+00      
C    -1.68466524e+00     -1.02190839e+00     1.41418674e+00      
O    -2.20181285e+00     -1.42713285e+00     3.87988207e-01      
O    -2.18269527e+00     -1.09720269e+00     2.62861868e+00      
H    -3.11124334e+00     -1.49011824e+00     2.58294853e+00      
O    -1.90419280e+00     1.82075381e+00      -3.93028270e-01     
H    -2.79600223e+00     1.63878026e+00      -4.60174444e-02     
H    -1.99104565e+00     2.56142792e+00      -9.94985155e-01     
O    1.42687526e-01      -2.52232759e+00     -1.09408871e+00     
H    -7.35720245e-01     -2.90806628e+00     -1.02761098e+00     
H    5.71579008e-01      -2.96317814e+00     -1.83287089e+00     
O    -4.31822862e+00     1.09807218e+00      6.89047716e-01      
H    -4.65165326e+00     1.30936982e+00      1.56278946e+00      
H    -4.72684183e+00     2.60073350e-01      4.39996241e-01      
O    -4.63129718e+00     -1.97751692e+00     2.52092444e+00      
H    -4.97129381e+00     -2.08815274e+00     1.62240236e+00      
H    -5.04304990e+00     -2.64975139e+00     3.07114200e+00      
O    -5.01614159e+00     -1.55368191e+00     -2.11617158e-01     
H    -5.64299622e+00     -1.82002079e+00     -8.89166839e-01     
H    -4.14246312e+00     -1.73514604e+00     -5.70732613e-01     
O    2.51304867e+00      1.27470045e+00      4.26137168e-01      
H    2.64041521e+00      2.22403740e+00      4.90038501e-01      
H    3.39360659e+00      9.07306520e-01      3.20271234e-01      
29
59.618474
N    4.08901033e-02      -4.92405211e-03     5.63728184e-02      
H    6.63140501e-02      -8.65008615e-01     -5.32095476e-01     
H    9.66185354e-01      4.63315093e-01      6.13783284e-02      
H    -6.82242729e-01     6.57315907e-01      -3.10449359e-01     
C    -3.20880112e-01     -3.53322046e-01     1.44318826e+00      
H    4.12277342e-01      -1.03800746e+00     1.85956187e+00      
H    -3.48277484e-01     5.49887503e-01      2.04491291e+00      
C    -1.68568642e+00     -1.01908894e+00     1.41436922e+00      
O    -2.20158890e+00     -1.42682885e+00     3.88468180e-01      
O    -2.18506075e+00     -1.09214117e+00     2.62837329e+00      
H    -3.11260970e+00     -1.48733401e+00     2.58231927e+00      
O    -1.89634129e+00     1.82700887e+00      -3.91150274e-01     
H    -2.78834440e+00     1.64152591e+00      -4.64785234e-02     
H    -1.98464338e+00     2.56607634e+00      -9.94940265e-01     
O    1.27136268e-01      -2.52441212e+00     -1.09298067e+00     
H    -7.55277763e-01     -2.90106620e+00     -1.02054216e+00     
H    5.48012247e-01      -2.97189928e+00     -1.83291062e+00     
O    -4.30676709e+00     1.09000426e+00      6.89893238e-01      
H    -4.64432918e+00     1.30414145e+00      1.56147970e+00      
H    -4.71860254e+00     2.54005197e-01      4.39266346e-01      
O    -4.63084837e+00     -1.98127195e+00     2.51902231e+00      
H    -4.97009183e+00     -2.09332755e+00     1.62040588e+00      
H    -5.04091399e+00     -2.65446046e+00     3.06933418e+00      
O    -5.01496733e+00     -1.55940330e+00     -2.14084339e-01     
H    -5.64277899e+00     -1.82428953e+00     -8.91339837e-01     
H    -4.14185824e+00     -1.74146918e+00     -5.74174712e-01     
O    2.51135881e+00      1.27935502e+00      4.26454528e-01      
H    2.63457202e+00      2.22958316e+00      4.86724422e-01      
H    3.39371582e+00      9.15183979e-01      3.23632122e-01      
