29
75.987712
N    3.88015784e-02      4.05278753e-03      6.31867686e-02      
H    7.67152139e-02      -8.49114721e-01     -5.33414222e-01     
H    9.59252476e-01      4.81851484e-01      7.07230578e-02      
H    -6.95168107e-01     6.58438071e-01      -2.97766967e-01     
C    -3.14314574e-01     -3.68986720e-01     1.44569704e+00      
H    4.22553593e-01      -1.05914677e+00     1.84589173e+00      
H    -3.40948461e-01     5.23163891e-01      2.06386153e+00      
C    -1.67935920e+00     -1.03460079e+00     1.41286983e+00      
O    -2.20292640e+00     -1.42142920e+00     3.83009418e-01      
O    -2.17053838e+00     -1.12901444e+00     2.62903293e+00      
H    -3.10488272e+00     -1.50786507e+00     2.58298427e+00      
O    -1.92853853e+00     1.79989080e+00      -4.08619135e-01     
H    -2.81937428e+00     1.62837801e+00      -5.38810731e-02     
H    -2.01130288e+00     2.54292243e+00      -1.00804408e+00     
O    1.83398576e-01      -2.50938705e+00     -1.08925183e+00     
H    -6.89422966e-01     -2.90918504e+00     -1.04210345e+00     
H    6.32750829e-01      -2.93996556e+00     -1.82132560e+00     
O    -4.34840603e+00     1.11658630e+00      6.85753641e-01      
H    -4.66746255e+00     1.31874512e+00      1.56681640e+00      
H    -4.75013275e+00     2.74132510e-01      4.40812601e-01      
O    -4.63667506e+00     -1.95641416e+00     2.52706633e+00      
H    -4.98034184e+00     -2.06596872e+00     1.62972051e+00      
H    -5.05905198e+00     -2.61861989e+00     3.08159628e+00      
O    -5.02788345e+00     -1.54039194e+00     -2.04970353e-01     
H    -5.65535320e+00     -1.81132278e+00     -8.80088416e-01     
H    -4.15442415e+00     -1.72133655e+00     -5.65134904e-01     
O    2.52538147e+00      1.26361977e+00      4.22999443e-01      
H    2.64773930e+00      2.20266247e+00      6.26425569e-01      
H    3.40003684e+00      9.25941912e-01      1.74769638e-01      
29
75.987712
N    3.81457733e-02      2.58283981e-03      6.15752674e-02      
H    7.52825710e-02      -8.51220596e-01     -5.34183089e-01     
H    9.58923887e-01      4.79677436e-01      6.84984758e-02      
H    -6.95428806e-01     6.57239642e-01      -2.99488229e-01     
C    -3.14844206e-01     -3.68032743e-01     1.44476317e+00      
H    4.21869778e-01      -1.05771236e+00     1.84604450e+00      
H    -3.41095972e-01     5.25250842e-01      2.06126946e+00      
C    -1.67991983e+00     -1.03354227e+00     1.41306220e+00      
O    -2.20281598e+00     -1.42308311e+00     3.83894136e-01      
O    -2.17180349e+00     -1.12485764e+00     2.62911340e+00      
H    -3.10544810e+00     -1.50551654e+00     2.58344729e+00      
O    -1.92834073e+00     1.80041526e+00      -4.06129916e-01     
H    -2.81927464e+00     1.62891933e+00      -5.15693566e-02     
H    -2.01104028e+00     2.54406249e+00      -1.00481302e+00     
O    1.84884257e-01      -2.51105879e+00     -1.09129208e+00     
H    -6.86329148e-01     -2.91415542e+00     -1.04378195e+00     
H    6.35132945e-01      -2.93922785e+00     -1.82418213e+00     
O    -4.34945782e+00     1.11800872e+00      6.85943018e-01      
H    -4.66900329e+00     1.32032258e+00      1.56679198e+00      
H    -4.75048948e+00     2.75168835e-01      4.41155932e-01      
O    -4.63566720e+00     -1.95887358e+00     2.52695746e+00      
H    -4.97898132e+00     -2.06763362e+00     1.62938833e+00      
H    -5.05665340e+00     -2.62287096e+00     3.08033858e+00      
O    -5.02582868e+00     -1.53942340e+00     -2.04781669e-01     
H    -5.65242688e+00     -1.81029574e+00     -8.80728273e-01     
H    -4.15188755e+00     -1.72004658e+00     -5.63952757e-01     
O    2.52356567e+00      1.26289901e+00      4.23545855e-01      
H    2.65029066e+00      2.20384688e+00      5.94814360e-01      
H    3.39834736e+00      9.15374969e-01      2.08624370e-01      
29
75.987712
N    3.78178707e-02      1.84786595e-03      6.07695168e-02      
H    7.45662496e-02      -8.52273533e-01     -5.34567523e-01     
H    9.58759593e-01      4.78590413e-01      6.73861848e-02      
H    -6.95559156e-01     6.56640428e-01      -3.00348860e-01     
C    -3.15109023e-01     -3.67555754e-01     1.44429624e+00      
H    4.21527871e-01      -1.05699515e+00     1.84612088e+00      
H    -3.41169728e-01     5.26294317e-01      2.05997343e+00      
C    -1.68020015e+00     -1.03301301e+00     1.41315838e+00      
O    -2.20276077e+00     -1.42391007e+00     3.84336495e-01      
O    -2.17243605e+00     -1.12277924e+00     2.62915364e+00      
H    -3.10573079e+00     -1.50434227e+00     2.58367880e+00      
O    -1.92824183e+00     1.80067748e+00      -4.04885306e-01     
H    -2.81922482e+00     1.62918999e+00      -5.04134984e-02     
H    -2.01090898e+00     2.54463252e+00      -1.00319749e+00     
O    1.85627097e-01      -2.51189466e+00     -1.09231221e+00     
H    -6.84782239e-01     -2.91664060e+00     -1.04462121e+00     
H    6.36324002e-01      -2.93885900e+00     -1.82561039e+00     
O    -4.34998372e+00     1.11871992e+00      6.86037707e-01      
H    -4.66977366e+00     1.32111131e+00      1.56677978e+00      
H    -4.75066785e+00     2.75686997e-01      4.41327597e-01      
O    -4.63516327e+00     -1.96010329e+00     2.52690303e+00      
H    -4.97830106e+00     -2.06846607e+00     1.62922224e+00      
H    -5.05545410e+00     -2.62499650e+00     3.07970972e+00      
O    -5.02480130e+00     -1.53893913e+00     -2.04687327e-01     
H    -5.65096371e+00     -1.80978221e+00     -8.81048202e-01     
H    -4.15061926e+00     -1.71940159e+00     -5.63361683e-01     
O    2.52265777e+00      1.26253864e+00      4.23819061e-01      
H    2.65156635e+00      2.20443909e+00      5.79008756e-01      
H    3.39750261e+00      9.10091498e-01      2.25551737e-01      
29
75.987712
N    3.74899681e-02      1.11289209e-03      5.99637662e-02      
H    7.38499281e-02      -8.53326470e-01     -5.34951956e-01     
H    9.58595299e-01      4.77503389e-01      6.62738938e-02      
H    -6.95689505e-01     6.56041213e-01      -3.01209491e-01     
C    -3.15373839e-01     -3.67078766e-01     1.44382931e+00      
H    4.21185963e-01      -1.05627794e+00     1.84619726e+00      
H    -3.41243484e-01     5.27337792e-01      2.05867739e+00      
C    -1.68048046e+00     -1.03248376e+00     1.41325456e+00      
O    -2.20270556e+00     -1.42473702e+00     3.84778854e-01      
O    -2.17306860e+00     -1.12070084e+00     2.62919388e+00      
H    -3.10601348e+00     -1.50316801e+00     2.58391031e+00      
O    -1.92814293e+00     1.80093971e+00      -4.03640697e-01     
H    -2.81917500e+00     1.62946065e+00      -4.92576401e-02     
H    -2.01077768e+00     2.54520254e+00      -1.00158196e+00     
O    1.86369938e-01      -2.51273053e+00     -1.09333233e+00     
H    -6.83235330e-01     -2.91912579e+00     -1.04546046e+00     
H    6.37515060e-01      -2.93849015e+00     -1.82703865e+00     
O    -4.35050962e+00     1.11943113e+00      6.86132395e-01      
H    -4.67054403e+00     1.32190004e+00      1.56676757e+00      
H    -4.75084622e+00     2.76205160e-01      4.41499263e-01      
O    -4.63465934e+00     -1.96133300e+00     2.52684860e+00      
H    -4.97762080e+00     -2.06929852e+00     1.62905615e+00      
H    -5.05425481e+00     -2.62712204e+00     3.07908087e+00      
O    -5.02377392e+00     -1.53845485e+00     -2.04592985e-01     
H    -5.64950055e+00     -1.80926869e+00     -8.81368130e-01     
H    -4.14935096e+00     -1.71875660e+00     -5.62770609e-01     
O    2.52174987e+00      1.26217826e+00      4.24092267e-01      
H    2.65284203e+00      2.20503129e+00      5.63203152e-01      
H    3.39665787e+00      9.04808027e-01      2.42479103e-01      
29
75.987712
N    3.71620655e-02      3.77918236e-04      5.91580156e-02      
H    7.31336067e-02      -8.54379408e-01     -5.35336390e-01     
H    9.58431005e-01      4.76416365e-01      6.51616027e-02      
H    -6.95819855e-01     6.55441999e-01      -3.02070122e-01     
C    -3.15638655e-01     -3.66601777e-01     1.44336238e+00      
H    4.20844056e-01      -1.05556073e+00     1.84627364e+00      
H    -3.41317239e-01     5.28381267e-01      2.05738136e+00      
C    -1.68076078e+00     -1.03195450e+00     1.41335075e+00      
O    -2.20265035e+00     -1.42556398e+00     3.85221213e-01      
O    -2.17370116e+00     -1.11862244e+00     2.62923412e+00      
H    -3.10629617e+00     -1.50199374e+00     2.58414181e+00      
O    -1.92804402e+00     1.80120194e+00      -4.02396087e-01     
H    -2.81912518e+00     1.62973132e+00      -4.81017819e-02     
H    -2.01064637e+00     2.54577257e+00      -9.99966423e-01     
O    1.87112778e-01      -2.51356640e+00     -1.09435246e+00     
H    -6.81688420e-01     -2.92161097e+00     -1.04629971e+00     
H    6.38706118e-01      -2.93812130e+00     -1.82846692e+00     
O    -4.35103552e+00     1.12014234e+00      6.86227084e-01      
H    -4.67131440e+00     1.32268876e+00      1.56675536e+00      
H    -4.75102459e+00     2.76723322e-01      4.41670928e-01      
O    -4.63415541e+00     -1.96256270e+00     2.52679416e+00      
H    -4.97694053e+00     -2.07013097e+00     1.62889007e+00      
H    -5.05305552e+00     -2.62924757e+00     3.07845202e+00      
O    -5.02274654e+00     -1.53797058e+00     -2.04498643e-01     
H    -5.64803739e+00     -1.80875517e+00     -8.81688059e-01     
H    -4.14808266e+00     -1.71811161e+00     -5.62179536e-01     
O    2.52084198e+00      1.26181788e+00      4.24365472e-01      
H    2.65411772e+00      2.20562350e+00      5.47397548e-01      
H    3.39581313e+00      8.99524555e-01      2.59406469e-01      
29
75.987712
N    3.68341630e-02      -3.57055623e-04     5.83522650e-02      
H    7.24172853e-02      -8.55432345e-01     -5.35720824e-01     
H    9.58266710e-01      4.75329341e-01      6.40493117e-02      
H    -6.95950204e-01     6.54842785e-01      -3.02930752e-01     
C    -3.15903471e-01     -3.66124788e-01     1.44289544e+00      
H    4.20502148e-01      -1.05484353e+00     1.84635002e+00      
H    -3.41390995e-01     5.29424742e-01      2.05608533e+00      
C    -1.68104109e+00     -1.03142524e+00     1.41344693e+00      
O    -2.20259514e+00     -1.42639094e+00     3.85663572e-01      
O    -2.17433372e+00     -1.11654404e+00     2.62927436e+00      
H    -3.10657887e+00     -1.50081947e+00     2.58437332e+00      
O    -1.92794512e+00     1.80146417e+00      -4.01151478e-01     
H    -2.81907537e+00     1.63000198e+00      -4.69459237e-02     
H    -2.01051507e+00     2.54634260e+00      -9.98350891e-01     
O    1.87855618e-01      -2.51440227e+00     -1.09537259e+00     
H    -6.80141511e-01     -2.92409616e+00     -1.04713896e+00     
H    6.39897176e-01      -2.93775244e+00     -1.82989518e+00     
O    -4.35156141e+00     1.12085355e+00      6.86321773e-01      
H    -4.67208477e+00     1.32347749e+00      1.56674315e+00      
H    -4.75120296e+00     2.77241484e-01      4.41842593e-01      
O    -4.63365148e+00     -1.96379241e+00     2.52673973e+00      
H    -4.97626027e+00     -2.07096342e+00     1.62872398e+00      
H    -5.05185623e+00     -2.63137311e+00     3.07782317e+00      
O    -5.02171915e+00     -1.53748631e+00     -2.04404300e-01     
H    -5.64657423e+00     -1.80824165e+00     -8.82007988e-01     
H    -4.14681436e+00     -1.71746662e+00     -5.61588462e-01     
O    2.51993408e+00      1.26145750e+00      4.24638678e-01      
H    2.65539340e+00      2.20621570e+00      5.31591943e-01      
H    3.39496839e+00      8.94241084e-01      2.76333835e-01      
29
75.987712
N    3.66702117e-02      -7.24542552e-04     5.79493897e-02      
H    7.20591245e-02      -8.55958814e-01     -5.35913041e-01     
H    9.58184563e-01      4.74785830e-01      6.34931662e-02      
H    -6.96015379e-01     6.54543177e-01      -3.03361068e-01     
C    -3.16035879e-01     -3.65886294e-01     1.44266198e+00      
H    4.20331194e-01      -1.05448492e+00     1.84638821e+00      
H    -3.41427873e-01     5.29946479e-01      2.05543731e+00      
C    -1.68118125e+00     -1.03116061e+00     1.41349502e+00      
O    -2.20256753e+00     -1.42680441e+00     3.85884752e-01      
O    -2.17464999e+00     -1.11550484e+00     2.62929448e+00      
H    -3.10672021e+00     -1.50023234e+00     2.58448908e+00      
O    -1.92789567e+00     1.80159528e+00      -4.00529173e-01     
H    -2.81905046e+00     1.63013731e+00      -4.63679946e-02     
H    -2.01044942e+00     2.54662762e+00      -9.97543125e-01     
O    1.88227039e-01      -2.51482021e+00     -1.09588265e+00     
H    -6.79368057e-01     -2.92533875e+00     -1.04755859e+00     
H    6.40492705e-01      -2.93756802e+00     -1.83060931e+00     
O    -4.35182436e+00     1.12120915e+00      6.86369117e-01      
H    -4.67246995e+00     1.32387186e+00      1.56673705e+00      
H    -4.75129215e+00     2.77500565e-01      4.41928426e-01      
O    -4.63339952e+00     -1.96440727e+00     2.52671251e+00      
H    -4.97592014e+00     -2.07137964e+00     1.62864093e+00      
H    -5.05125658e+00     -2.63243588e+00     3.07750874e+00      
O    -5.02120546e+00     -1.53724417e+00     -2.04357129e-01     
H    -5.64584265e+00     -1.80798488e+00     -8.82167952e-01     
H    -4.14618021e+00     -1.71714412e+00     -5.61292925e-01     
O    2.51948013e+00      1.26127731e+00      4.24775281e-01      
H    2.65603124e+00      2.20651180e+00      5.23689141e-01      
H    3.39454602e+00      8.91599348e-01      2.84797519e-01      
29
75.987712
N    3.65062604e-02      -1.09202948e-03     5.75465144e-02      
H    7.17009638e-02      -8.56485283e-01     -5.36105257e-01     
H    9.58102416e-01      4.74242318e-01      6.29370207e-02      
H    -6.96080554e-01     6.54243570e-01      -3.03791383e-01     
C    -3.16168287e-01     -3.65647800e-01     1.44242851e+00      
H    4.20160241e-01      -1.05412632e+00     1.84642640e+00      
H    -3.41464750e-01     5.30468217e-01      2.05478929e+00      
C    -1.68132141e+00     -1.03089598e+00     1.41354312e+00      
O    -2.20253993e+00     -1.42721789e+00     3.86105931e-01      
O    -2.17496627e+00     -1.11446564e+00     2.62931460e+00      
H    -3.10686156e+00     -1.49964521e+00     2.58460483e+00      
O    -1.92784622e+00     1.80172639e+00      -3.99906868e-01     
H    -2.81902555e+00     1.63027264e+00      -4.57900654e-02     
H    -2.01038377e+00     2.54691263e+00      -9.96735359e-01     
O    1.88598459e-01      -2.51523814e+00     -1.09639271e+00     
H    -6.78594602e-01     -2.92658134e+00     -1.04797822e+00     
H    6.41088234e-01      -2.93738359e+00     -1.83132345e+00     
O    -4.35208731e+00     1.12156475e+00      6.86416461e-01      
H    -4.67285514e+00     1.32426622e+00      1.56673095e+00      
H    -4.75138133e+00     2.77759647e-01      4.42014259e-01      
O    -4.63314755e+00     -1.96502212e+00     2.52668529e+00      
H    -4.97558001e+00     -2.07179587e+00     1.62855789e+00      
H    -5.05065693e+00     -2.63349864e+00     3.07719431e+00      
O    -5.02069177e+00     -1.53700203e+00     -2.04309958e-01     
H    -5.64511107e+00     -1.80772812e+00     -8.82327916e-01     
H    -4.14554606e+00     -1.71682163e+00     -5.60997389e-01     
O    2.51902618e+00      1.26109712e+00      4.24911884e-01      
H    2.65666909e+00      2.20680791e+00      5.15786339e-01      
H    3.39412365e+00      8.88957612e-01      2.93261202e-01      
29
75.987712
N    3.58504552e-02      -2.56197720e-03     5.59350132e-02      
H    7.02683210e-02      -8.58591157e-01     -5.36874125e-01     
H    9.57773828e-01      4.72068270e-01      6.07124387e-02      
H    -6.96341252e-01     6.53045142e-01      -3.05512645e-01     
C    -3.16697919e-01     -3.64693822e-01     1.44149465e+00      
H    4.19476425e-01      -1.05269190e+00     1.84657916e+00      
H    -3.41612262e-01     5.32555167e-01      2.05219723e+00      
C    -1.68188203e+00     -1.02983746e+00     1.41373548e+00      
O    -2.20242951e+00     -1.42887181e+00     3.86990649e-01      
O    -2.17623139e+00     -1.11030884e+00     2.62939508e+00      
H    -3.10742694e+00     -1.49729667e+00     2.58506785e+00      
O    -1.92764842e+00     1.80225085e+00      -3.97417650e-01     
H    -2.81892591e+00     1.63081396e+00      -4.34783490e-02     
H    -2.01012117e+00     2.54805269e+00      -9.93504295e-01     
O    1.90084139e-01      -2.51690988e+00     -1.09843297e+00     
H    -6.75500784e-01     -2.93155172e+00     -1.04965672e+00     
H    6.43470350e-01      -2.93664589e+00     -1.83417997e+00     
O    -4.35313911e+00     1.12298717e+00      6.86605839e-01      
H    -4.67439588e+00     1.32584368e+00      1.56670653e+00      
H    -4.75173807e+00     2.78795971e-01      4.42357589e-01      
O    -4.63213969e+00     -1.96748154e+00     2.52657643e+00      
H    -4.97421949e+00     -2.07346077e+00     1.62822571e+00      
H    -5.04825835e+00     -2.63774972e+00     3.07593661e+00      
O    -5.01863701e+00     -1.53603349e+00     -2.04121274e-01     
H    -5.64218475e+00     -1.80670108e+00     -8.82967774e-01     
H    -4.14300946e+00     -1.71553165e+00     -5.59815241e-01     
O    2.51721038e+00      1.26037636e+00      4.25458296e-01      
H    2.65922045e+00      2.20799231e+00      4.84175131e-01      
H    3.39243417e+00      8.78390670e-01      3.27115934e-01      
29
75.987712
N    3.56865039e-02      -2.92946413e-03     5.55321379e-02      
H    6.99101603e-02      -8.59117626e-01     -5.37066341e-01     
H    9.57691681e-01      4.71524758e-01      6.01562932e-02      
H    -6.96406427e-01     6.52745535e-01      -3.05942960e-01     
C    -3.16830327e-01     -3.64455328e-01     1.44126118e+00      
H    4.19305472e-01      -1.05233330e+00     1.84661735e+00      
H    -3.41649139e-01     5.33076905e-01      2.05154921e+00      
C    -1.68202219e+00     -1.02957283e+00     1.41378358e+00      
O    -2.20240191e+00     -1.42928529e+00     3.87211828e-01      
O    -2.17654767e+00     -1.10926964e+00     2.62941520e+00      
H    -3.10756829e+00     -1.49670954e+00     2.58518360e+00      
O    -1.92759897e+00     1.80238196e+00      -3.96795345e-01     
H    -2.81890100e+00     1.63094929e+00      -4.29004198e-02     
H    -2.01005552e+00     2.54833770e+00      -9.92696529e-01     
O    1.90455559e-01      -2.51732781e+00     -1.09894303e+00     
H    -6.74727329e-01     -2.93279431e+00     -1.05007635e+00     
H    6.44065879e-01      -2.93646146e+00     -1.83489411e+00     
O    -4.35340206e+00     1.12334277e+00      6.86653183e-01      
H    -4.67478107e+00     1.32623804e+00      1.56670043e+00      
H    -4.75182725e+00     2.79055053e-01      4.42443422e-01      
O    -4.63188772e+00     -1.96809639e+00     2.52654921e+00      
H    -4.97387936e+00     -2.07387700e+00     1.62814267e+00      
H    -5.04765870e+00     -2.63881248e+00     3.07562218e+00      
O    -5.01812332e+00     -1.53579135e+00     -2.04074103e-01     
H    -5.64145317e+00     -1.80644432e+00     -8.83127738e-01     
H    -4.14237531e+00     -1.71520916e+00     -5.59519705e-01     
O    2.51675643e+00      1.26019617e+00      4.25594899e-01      
H    2.65985830e+00      2.20828842e+00      4.76272329e-01      
H    3.39201180e+00      8.75748934e-01      3.35579617e-01      
29
75.987712
N    3.55225526e-02      -3.29695106e-03     5.51292626e-02      
H    6.95519995e-02      -8.59644095e-01     -5.37258558e-01     
H    9.57609534e-01      4.70981247e-01      5.96001477e-02      
H    -6.96471602e-01     6.52445927e-01      -3.06373276e-01     
C    -3.16962735e-01     -3.64216834e-01     1.44102772e+00      
H    4.19134518e-01      -1.05197469e+00     1.84665554e+00      
H    -3.41686017e-01     5.33598642e-01      2.05090119e+00      
C    -1.68216235e+00     -1.02930820e+00     1.41383167e+00      
O    -2.20237430e+00     -1.42969876e+00     3.87433008e-01      
O    -2.17686394e+00     -1.10823044e+00     2.62943532e+00      
H    -3.10770963e+00     -1.49612241e+00     2.58529936e+00      
O    -1.92754952e+00     1.80251307e+00      -3.96173040e-01     
H    -2.81887609e+00     1.63108462e+00      -4.23224907e-02     
H    -2.00998987e+00     2.54862272e+00      -9.91888763e-01     
O    1.90826980e-01      -2.51774575e+00     -1.09945309e+00     
H    -6.73953875e-01     -2.93403690e+00     -1.05049598e+00     
H    6.44661408e-01      -2.93627704e+00     -1.83560824e+00     
O    -4.35366501e+00     1.12369837e+00      6.86700527e-01      
H    -4.67516625e+00     1.32663241e+00      1.56669433e+00      
H    -4.75191644e+00     2.79314134e-01      4.42529255e-01      
O    -4.63163576e+00     -1.96871125e+00     2.52652199e+00      
H    -4.97353923e+00     -2.07429322e+00     1.62805962e+00      
H    -5.04705905e+00     -2.63987525e+00     3.07530775e+00      
O    -5.01760963e+00     -1.53554921e+00     -2.04026932e-01     
H    -5.64072159e+00     -1.80618755e+00     -8.83287702e-01     
H    -4.14174116e+00     -1.71488666e+00     -5.59224168e-01     
O    2.51630248e+00      1.26001598e+00      4.25731502e-01      
H    2.66049614e+00      2.20858452e+00      4.68369527e-01      
H    3.39158943e+00      8.73107198e-01      3.44043301e-01      
29
75.987712
N    3.51946501e-02      -4.03192492e-03     5.43235120e-02      
H    6.88356781e-02      -8.60697032e-01     -5.37642992e-01     
H    9.57445239e-01      4.69894223e-01      5.84878567e-02      
H    -6.96601951e-01     6.51846713e-01      -3.07233906e-01     
C    -3.17227551e-01     -3.63739845e-01     1.44056078e+00      
H    4.18792610e-01      -1.05125749e+00     1.84673192e+00      
H    -3.41759773e-01     5.34642117e-01      2.04960516e+00      
C    -1.68244266e+00     -1.02877894e+00     1.41392785e+00      
O    -2.20231909e+00     -1.43052572e+00     3.87875367e-01      
O    -2.17749650e+00     -1.10615204e+00     2.62947556e+00      
H    -3.10799233e+00     -1.49494814e+00     2.58553087e+00      
O    -1.92745062e+00     1.80277530e+00      -3.94928431e-01     
H    -2.81882628e+00     1.63135528e+00      -4.11666325e-02     
H    -2.00985857e+00     2.54919275e+00      -9.90273231e-01     
O    1.91569820e-01      -2.51858162e+00     -1.10047322e+00     
H    -6.72406966e-01     -2.93652209e+00     -1.05133523e+00     
H    6.45852466e-01      -2.93590818e+00     -1.83703650e+00     
O    -4.35419090e+00     1.12440958e+00      6.86795216e-01      
H    -4.67593662e+00     1.32742114e+00      1.56668212e+00      
H    -4.75209481e+00     2.79832296e-01      4.42700920e-01      
O    -4.63113183e+00     -1.96994096e+00     2.52646756e+00      
H    -4.97285897e+00     -2.07512567e+00     1.62789353e+00      
H    -5.04585976e+00     -2.64200079e+00     3.07467890e+00      
O    -5.01658224e+00     -1.53506494e+00     -2.03932589e-01     
H    -5.63925843e+00     -1.80567403e+00     -8.83607631e-01     
H    -4.14047286e+00     -1.71424167e+00     -5.58633094e-01     
O    2.51539458e+00      1.25965560e+00      4.26004708e-01      
H    2.66177182e+00      2.20917672e+00      4.52563922e-01      
H    3.39074469e+00      8.67823727e-01      3.60970667e-01      
29
75.987712
N    3.48667475e-02      -4.76689877e-03     5.35177614e-02      
H    6.81193567e-02      -8.61749970e-01     -5.38027426e-01     
H    9.57280945e-01      4.68807199e-01      5.73755656e-02      
H    -6.96732301e-01     6.51247499e-01      -3.08094537e-01     
C    -3.17492367e-01     -3.63262856e-01     1.44009385e+00      
H    4.18450703e-01      -1.05054028e+00     1.84680830e+00      
H    -3.41833528e-01     5.35685592e-01      2.04830913e+00      
C    -1.68272298e+00     -1.02824968e+00     1.41402404e+00      
O    -2.20226388e+00     -1.43135268e+00     3.88317726e-01      
O    -2.17812906e+00     -1.10407364e+00     2.62951580e+00      
H    -3.10827502e+00     -1.49377387e+00     2.58576237e+00      
O    -1.92735171e+00     1.80303753e+00      -3.93683821e-01     
H    -2.81877646e+00     1.63162595e+00      -4.00107743e-02     
H    -2.00972726e+00     2.54976278e+00      -9.88657699e-01     
O    1.92312660e-01      -2.51941749e+00     -1.10149335e+00     
H    -6.70860056e-01     -2.93900727e+00     -1.05217448e+00     
H    6.47043524e-01      -2.93553933e+00     -1.83846477e+00     
O    -4.35471680e+00     1.12512079e+00      6.86889905e-01      
H    -4.67670699e+00     1.32820986e+00      1.56666991e+00      
H    -4.75227318e+00     2.80350458e-01      4.42872585e-01      
O    -4.63062790e+00     -1.97117066e+00     2.52641312e+00      
H    -4.97217870e+00     -2.07595812e+00     1.62772745e+00      
H    -5.04466047e+00     -2.64412632e+00     3.07405005e+00      
O    -5.01555486e+00     -1.53458067e+00     -2.03838247e-01     
H    -5.63779527e+00     -1.80516051e+00     -8.83927560e-01     
H    -4.13920456e+00     -1.71359668e+00     -5.58042021e-01     
O    2.51448669e+00      1.25929522e+00      4.26277913e-01      
H    2.66304751e+00      2.20976893e+00      4.36758318e-01      
H    3.38989995e+00      8.62540255e-01      3.77898033e-01      
29
75.987712
N    3.45388449e-02      -5.50187263e-03     5.27120108e-02      
H    6.74030352e-02      -8.62802907e-01     -5.38411859e-01     
H    9.57116651e-01      4.67720175e-01      5.62632746e-02      
H    -6.96862650e-01     6.50648284e-01      -3.08955168e-01     
C    -3.17757183e-01     -3.62785868e-01     1.43962692e+00      
H    4.18108795e-01      -1.04982307e+00     1.84688468e+00      
H    -3.41907284e-01     5.36729067e-01      2.04701309e+00      
C    -1.68300329e+00     -1.02772043e+00     1.41412022e+00      
O    -2.20220867e+00     -1.43217963e+00     3.88760085e-01      
O    -2.17876161e+00     -1.10199524e+00     2.62955604e+00      
H    -3.10855771e+00     -1.49259961e+00     2.58599388e+00      
O    -1.92725281e+00     1.80329976e+00      -3.92439212e-01     
H    -2.81872664e+00     1.63189661e+00      -3.88549160e-02     
H    -2.00959596e+00     2.55033280e+00      -9.87042167e-01     
O    1.93055501e-01      -2.52025336e+00     -1.10251347e+00     
H    -6.69313147e-01     -2.94149246e+00     -1.05301373e+00     
H    6.48234582e-01      -2.93517048e+00     -1.83989303e+00     
O    -4.35524270e+00     1.12583200e+00      6.86984593e-01      
H    -4.67747736e+00     1.32899859e+00      1.56665770e+00      
H    -4.75245155e+00     2.80868621e-01      4.43044251e-01      
O    -4.63012397e+00     -1.97240037e+00     2.52635869e+00      
H    -4.97149844e+00     -2.07679057e+00     1.62756136e+00      
H    -5.04346118e+00     -2.64625186e+00     3.07342120e+00      
O    -5.01452748e+00     -1.53409639e+00     -2.03743905e-01     
H    -5.63633211e+00     -1.80464699e+00     -8.84247488e-01     
H    -4.13793626e+00     -1.71295169e+00     -5.57450947e-01     
O    2.51357879e+00      1.25893484e+00      4.26551119e-01      
H    2.66432319e+00      2.21036113e+00      4.20952714e-01      
H    3.38905521e+00      8.57256784e-01      3.94825399e-01      
29
75.987712
N    3.42109423e-02      -6.23684649e-03     5.19062602e-02      
H    6.66867138e-02      -8.63855844e-01     -5.38796293e-01     
H    9.56952357e-01      4.66633152e-01      5.51509836e-02      
H    -6.96993000e-01     6.50049070e-01      -3.09815799e-01     
C    -3.18022000e-01     -3.62308879e-01     1.43915999e+00      
H    4.17766888e-01      -1.04910586e+00     1.84696106e+00      
H    -3.41981040e-01     5.37772542e-01      2.04571706e+00      
C    -1.68328361e+00     -1.02719117e+00     1.41421640e+00      
O    -2.20215346e+00     -1.43300659e+00     3.89202444e-01      
O    -2.17939417e+00     -1.09991684e+00     2.62959628e+00      
H    -3.10884040e+00     -1.49142534e+00     2.58622539e+00      
O    -1.92715391e+00     1.80356198e+00      -3.91194602e-01     
H    -2.81867682e+00     1.63216727e+00      -3.76990578e-02     
H    -2.00946466e+00     2.55090283e+00      -9.85426635e-01     
O    1.93798341e-01      -2.52108923e+00     -1.10353360e+00     
H    -6.67766238e-01     -2.94397764e+00     -1.05385299e+00     
H    6.49425639e-01      -2.93480163e+00     -1.84132129e+00     
O    -4.35576860e+00     1.12654320e+00      6.87079282e-01      
H    -4.67824773e+00     1.32978732e+00      1.56664550e+00      
H    -4.75262992e+00     2.81386783e-01      4.43215916e-01      
O    -4.62962004e+00     -1.97363008e+00     2.52630426e+00      
H    -4.97081818e+00     -2.07762302e+00     1.62739527e+00      
H    -5.04226188e+00     -2.64837740e+00     3.07279234e+00      
O    -5.01350010e+00     -1.53361212e+00     -2.03649563e-01     
H    -5.63486894e+00     -1.80413346e+00     -8.84567417e-01     
H    -4.13666797e+00     -1.71230670e+00     -5.56859873e-01     
O    2.51267089e+00      1.25857447e+00      4.26824325e-01      
H    2.66559888e+00      2.21095334e+00      4.05147110e-01      
H    3.38821046e+00      8.51973313e-01      4.11752766e-01      
29
75.987712
N    3.35551372e-02      -7.70679421e-03     5.02947590e-02      
H    6.52540709e-02      -8.65961719e-01     -5.39565160e-01     
H    9.56623768e-01      4.64459104e-01      5.29264016e-02      
H    -6.97253699e-01     6.48850641e-01      -3.11537061e-01     
C    -3.18551632e-01     -3.61354902e-01     1.43822612e+00      
H    4.17083073e-01      -1.04767145e+00     1.84711383e+00      
H    -3.42128551e-01     5.39859493e-01      2.04312499e+00      
C    -1.68384424e+00     -1.02613265e+00     1.41440877e+00      
O    -2.20204304e+00     -1.43466050e+00     3.90087162e-01      
O    -2.18065928e+00     -1.09576004e+00     2.62967675e+00      
H    -3.10940578e+00     -1.48907681e+00     2.58668841e+00      
O    -1.92695611e+00     1.80408644e+00      -3.88705383e-01     
H    -2.81857718e+00     1.63270859e+00      -3.53873413e-02     
H    -2.00920206e+00     2.55204289e+00      -9.82195571e-01     
O    1.95284022e-01      -2.52276097e+00     -1.10557385e+00     
H    -6.64672420e-01     -2.94894802e+00     -1.05553149e+00     
H    6.51807755e-01      -2.93406392e+00     -1.84417782e+00     
O    -4.35682039e+00     1.12796562e+00      6.87268659e-01      
H    -4.67978847e+00     1.33136478e+00      1.56662108e+00      
H    -4.75298665e+00     2.82423108e-01      4.43559247e-01      
O    -4.62861218e+00     -1.97608950e+00     2.52619539e+00      
H    -4.96945766e+00     -2.07928792e+00     1.62706309e+00      
H    -5.03986330e+00     -2.65262847e+00     3.07153464e+00      
O    -5.01144533e+00     -1.53264358e+00     -2.03460879e-01     
H    -5.63194262e+00     -1.80310642e+00     -8.85207274e-01     
H    -4.13413137e+00     -1.71101673e+00     -5.55677726e-01     
O    2.51085509e+00      1.25785371e+00      4.27370737e-01      
H    2.66815024e+00      2.21213775e+00      3.73535901e-01      
H    3.38652098e+00      8.41406370e-01      4.45607498e-01      
