29
62.233174
N    3.20470115e-02      -1.61304500e-03     6.50729424e-02      
H    7.33636032e-02      -8.55829348e-01     -5.29739619e-01     
H    9.55380350e-01      4.70412398e-01      7.81645694e-02      
H    -6.91738751e-01     6.59604189e-01      -3.02881747e-01     
C    -3.35913296e-01     -3.64295316e-01     1.44638336e+00      
H    3.98755392e-01      -1.04857118e+00     1.86094930e+00      
H    -3.71905737e-01     5.33757268e-01      2.05564918e+00      
C    -1.69831943e+00     -1.03557663e+00     1.40634631e+00      
O    -2.20926961e+00     -1.43721251e+00     3.75925969e-01      
O    -2.19889089e+00     -1.11766713e+00     2.61967249e+00      
H    -3.13008605e+00     -1.50408764e+00     2.57679096e+00      
O    -1.89923083e+00     1.83290410e+00      -3.93765255e-01     
H    -2.79357234e+00     1.65018265e+00      -5.34771897e-02     
H    -1.98345946e+00     2.56757319e+00      -1.00353588e+00     
O    2.36925304e-01      -2.50430096e+00     -1.10764737e+00     
H    -6.17616063e-01     -2.94479624e+00     -1.08240091e+00     
H    7.15184665e-01      -2.89764507e+00     -1.84307802e+00     
O    -4.31569925e+00     1.10823401e+00      6.79586378e-01      
H    -4.64952745e+00     1.33080778e+00      1.55060101e+00      
H    -4.72628205e+00     2.68203335e-01      4.40388524e-01      
O    -4.65851756e+00     -1.96762697e+00     2.54674468e+00      
H    -5.01613715e+00     -2.07726944e+00     1.65487984e+00      
H    -5.06785558e+00     -2.63243859e+00     3.10766070e+00      
O    -5.04977882e+00     -1.54997036e+00     -1.79256769e-01     
H    -5.68519958e+00     -1.81097668e+00     -8.50969807e-01     
H    -4.18142276e+00     -1.75471525e+00     -5.40137753e-01     
O    2.52001398e+00      1.26298601e+00      4.05736699e-01      
H    2.66100676e+00      2.21028733e+00      4.69364743e-01      
H    3.39533445e+00      8.82019131e-01      3.05543802e-01      
29
62.233174
N    3.30798481e-02      -1.66653458e-03     6.29898977e-02      
H    7.27688630e-02      -8.56256566e-01     -5.31427137e-01     
H    9.56019793e-01      4.71098122e-01      7.40796095e-02      
H    -6.92856789e-01     6.58114230e-01      -3.03324313e-01     
C    -3.31043248e-01     -3.64514190e-01     1.44527791e+00      
H    4.04021127e-01      -1.04978066e+00     1.85733767e+00      
H    -3.64313929e-01     5.33195874e-01      2.05511020e+00      
C    -1.69414000e+00     -1.03427416e+00     1.40816956e+00      
O    -2.20757339e+00     -1.43492059e+00     3.78581549e-01      
O    -2.19306787e+00     -1.11634715e+00     2.62209307e+00      
H    -3.12435060e+00     -1.50268346e+00     2.57880231e+00      
O    -1.90635995e+00     1.82517523e+00      -3.94989506e-01     
H    -2.79992319e+00     1.64527281e+00      -5.12664441e-02     
H    -1.99015771e+00     2.56255056e+00      -1.00143187e+00     
O    2.25029303e-01      -2.50724422e+00     -1.10508873e+00     
H    -6.32473971e-01     -2.94086381e+00     -1.07400505e+00     
H    6.96958322e-01      -2.90748748e+00     -1.84049645e+00     
O    -4.32492774e+00     1.11174450e+00      6.81317571e-01      
H    -4.65555197e+00     1.32936958e+00      1.55463044e+00      
H    -4.73260146e+00     2.70721954e-01      4.40837874e-01      
O    -4.65204908e+00     -1.96728318e+00     2.54171623e+00      
H    -5.00582780e+00     -2.07610916e+00     1.64825783e+00      
H    -5.06325609e+00     -2.63323498e+00     3.09988689e+00      
O    -5.04225021e+00     -1.54660721e+00     -1.85496481e-01     
H    -5.67481166e+00     -1.81003616e+00     -8.58889317e-01     
H    -4.17213651e+00     -1.74508060e+00     -5.45204894e-01     
O    2.51954006e+00      1.26242369e+00      4.10598797e-01      
H    2.66024126e+00      2.20956553e+00      4.77018741e-01      
H    3.39482057e+00      8.82432883e-01      3.06704993e-01      
29
62.233174
N    3.35962664e-02      -1.69327938e-03     6.19483754e-02      
H    7.24714929e-02      -8.56470175e-01     -5.32270896e-01     
H    9.56339514e-01      4.71440984e-01      7.20371295e-02      
H    -6.93415808e-01     6.57369251e-01      -3.03545597e-01     
C    -3.28608224e-01     -3.64623627e-01     1.44472519e+00      
H    4.06653995e-01      -1.05038540e+00     1.85553185e+00      
H    -3.60518025e-01     5.32915177e-01      2.05484071e+00      
C    -1.69205029e+00     -1.03362292e+00     1.40908118e+00      
O    -2.20672527e+00     -1.43377464e+00     3.79909339e-01      
O    -2.19015637e+00     -1.11568717e+00     2.62330337e+00      
H    -3.12148288e+00     -1.50198137e+00     2.57980798e+00      
O    -1.90992451e+00     1.82131080e+00      -3.95601632e-01     
H    -2.80309861e+00     1.64281789e+00      -5.01610713e-02     
H    -1.99350684e+00     2.56003924e+00      -1.00037986e+00     
O    2.19081302e-01      -2.50871585e+00     -1.10380942e+00     
H    -6.39902924e-01     -2.93889760e+00     -1.06980712e+00     
H    6.87845150e-01      -2.91240869e+00     -1.83920566e+00     
O    -4.32954199e+00     1.11349974e+00      6.82183168e-01      
H    -4.65856422e+00     1.32865047e+00      1.55664516e+00      
H    -4.73576117e+00     2.71981263e-01      4.41062549e-01      
O    -4.64881483e+00     -1.96711129e+00     2.53920200e+00      
H    -5.00067312e+00     -2.07552902e+00     1.64494683e+00      
H    -5.06095635e+00     -2.63363318e+00     3.09599999e+00      
O    -5.03848591e+00     -1.54492564e+00     -1.88616337e-01     
H    -5.66961771e+00     -1.80956590e+00     -8.62849071e-01     
H    -4.16749339e+00     -1.74026327e+00     -5.47738464e-01     
O    2.51930309e+00      1.26214253e+00      4.13029846e-01      
H    2.65985851e+00      2.20920462e+00      4.80845740e-01      
H    3.39456362e+00      8.82639759e-01      3.07285589e-01      
29
62.233174
N    3.41126847e-02      -1.72002417e-03     6.09068531e-02      
H    7.21741228e-02      -8.56683784e-01     -5.33114655e-01     
H    9.56659236e-01      4.71783846e-01      6.99946495e-02      
H    -6.93974827e-01     6.56624272e-01      -3.03766880e-01     
C    -3.26173200e-01     -3.64733064e-01     1.44417247e+00      
H    4.09286862e-01      -1.05099015e+00     1.85372604e+00      
H    -3.56722121e-01     5.32634480e-01      2.05457122e+00      
C    -1.68996057e+00     -1.03297168e+00     1.40999281e+00      
O    -2.20587716e+00     -1.43262868e+00     3.81237129e-01      
O    -2.18724486e+00     -1.11502718e+00     2.62451366e+00      
H    -3.11861515e+00     -1.50127929e+00     2.58081365e+00      
O    -1.91348907e+00     1.81744636e+00      -3.96213757e-01     
H    -2.80627403e+00     1.64036297e+00      -4.90556985e-02     
H    -1.99685596e+00     2.55752793e+00      -9.99327853e-01     
O    2.13133301e-01      -2.51018749e+00     -1.10253010e+00     
H    -6.47331878e-01     -2.93693139e+00     -1.06560919e+00     
H    6.78731978e-01      -2.91732990e+00     -1.83791487e+00     
O    -4.33415623e+00     1.11525499e+00      6.83048764e-01      
H    -4.66157648e+00     1.32793137e+00      1.55865987e+00      
H    -4.73892087e+00     2.73240572e-01      4.41287224e-01      
O    -4.64558059e+00     -1.96693940e+00     2.53668777e+00      
H    -4.99551845e+00     -2.07494888e+00     1.64163582e+00      
H    -5.05865661e+00     -2.63403138e+00     3.09211308e+00      
O    -5.03472160e+00     -1.54324406e+00     -1.91736193e-01     
H    -5.66442375e+00     -1.80909564e+00     -8.66808826e-01     
H    -4.16285026e+00     -1.73544595e+00     -5.50272034e-01     
O    2.51906613e+00      1.26186137e+00      4.15460895e-01      
H    2.65947576e+00      2.20884372e+00      4.84672739e-01      
H    3.39430668e+00      8.82846636e-01      3.07866185e-01      
29
62.233174
N    3.46291029e-02      -1.74676896e-03     5.98653308e-02      
H    7.18767527e-02      -8.56897393e-01     -5.33958414e-01     
H    9.56978957e-01      4.72126708e-01      6.79521696e-02      
H    -6.94533846e-01     6.55879293e-01      -3.03988164e-01     
C    -3.23738176e-01     -3.64842501e-01     1.44361975e+00      
H    4.11919730e-01      -1.05159489e+00     1.85192022e+00      
H    -3.52926218e-01     5.32353783e-01      2.05430173e+00      
C    -1.68787086e+00     -1.03232044e+00     1.41090443e+00      
O    -2.20502905e+00     -1.43148272e+00     3.82564919e-01      
O    -2.18433335e+00     -1.11436720e+00     2.62572396e+00      
H    -3.11574743e+00     -1.50057720e+00     2.58181932e+00      
O    -1.91705364e+00     1.81358193e+00      -3.96825883e-01     
H    -2.80944946e+00     1.63790806e+00      -4.79503256e-02     
H    -2.00020509e+00     2.55501661e+00      -9.98275846e-01     
O    2.07185301e-01      -2.51165912e+00     -1.10125079e+00     
H    -6.54760832e-01     -2.93496517e+00     -1.06141126e+00     
H    6.69618807e-01      -2.92225111e+00     -1.83662408e+00     
O    -4.33877048e+00     1.11701023e+00      6.83914361e-01      
H    -4.66458874e+00     1.32721226e+00      1.56067459e+00      
H    -4.74208058e+00     2.74499881e-01      4.41511899e-01      
O    -4.64234635e+00     -1.96676751e+00     2.53417354e+00      
H    -4.99036377e+00     -2.07436874e+00     1.63832482e+00      
H    -5.05635687e+00     -2.63442958e+00     3.08822618e+00      
O    -5.03095730e+00     -1.54156249e+00     -1.94856048e-01     
H    -5.65922979e+00     -1.80862538e+00     -8.70768581e-01     
H    -4.15820714e+00     -1.73062862e+00     -5.52805604e-01     
O    2.51882917e+00      1.26158022e+00      4.17891944e-01      
H    2.65909301e+00      2.20848282e+00      4.88499738e-01      
H    3.39404974e+00      8.83053512e-01      3.08446781e-01      
29
62.233174
N    3.51455212e-02      -1.77351375e-03     5.88238084e-02      
H    7.15793826e-02      -8.57111002e-01     -5.34802173e-01     
H    9.57298679e-01      4.72469570e-01      6.59096896e-02      
H    -6.95092865e-01     6.55134314e-01      -3.04209447e-01     
C    -3.21303151e-01     -3.64951937e-01     1.44306702e+00      
H    4.14552598e-01      -1.05219963e+00     1.85011441e+00      
H    -3.49130314e-01     5.32073086e-01      2.05403224e+00      
C    -1.68578115e+00     -1.03166920e+00     1.41181605e+00      
O    -2.20418094e+00     -1.43033676e+00     3.83892710e-01      
O    -2.18142184e+00     -1.11370721e+00     2.62693425e+00      
H    -3.11287970e+00     -1.49987511e+00     2.58282500e+00      
O    -1.92061820e+00     1.80971749e+00      -3.97438008e-01     
H    -2.81262488e+00     1.63545314e+00      -4.68449528e-02     
H    -2.00355422e+00     2.55250529e+00      -9.97223840e-01     
O    2.01237300e-01      -2.51313075e+00     -1.09997147e+00     
H    -6.62189786e-01     -2.93299896e+00     -1.05721333e+00     
H    6.60505635e-01      -2.92717232e+00     -1.83533329e+00     
O    -4.34338472e+00     1.11876547e+00      6.84779957e-01      
H    -4.66760100e+00     1.32649316e+00      1.56268931e+00      
H    -4.74524029e+00     2.75759191e-01      4.41736574e-01      
O    -4.63911211e+00     -1.96659561e+00     2.53165932e+00      
H    -4.98520910e+00     -2.07378860e+00     1.63501381e+00      
H    -5.05405712e+00     -2.63482778e+00     3.08433927e+00      
O    -5.02719300e+00     -1.53988091e+00     -1.97975904e-01     
H    -5.65403583e+00     -1.80815512e+00     -8.74728336e-01     
H    -4.15356401e+00     -1.72581129e+00     -5.55339175e-01     
O    2.51859221e+00      1.26129906e+00      4.20322992e-01      
H    2.65871027e+00      2.20812192e+00      4.92326737e-01      
H    3.39379280e+00      8.83260388e-01      3.09027376e-01      
29
62.233174
N    3.54037304e-02      -1.78688615e-03     5.83030473e-02      
H    7.14306975e-02      -8.57217806e-01     -5.35224052e-01     
H    9.57458540e-01      4.72641001e-01      6.48884496e-02      
H    -6.95372374e-01     6.54761825e-01      -3.04320089e-01     
C    -3.20085639e-01     -3.65006656e-01     1.44279066e+00      
H    4.15869032e-01      -1.05250200e+00     1.84921150e+00      
H    -3.47232362e-01     5.31932737e-01      2.05389750e+00      
C    -1.68473629e+00     -1.03134358e+00     1.41227186e+00      
O    -2.20375689e+00     -1.42976379e+00     3.84556605e-01      
O    -2.17996609e+00     -1.11337722e+00     2.62753940e+00      
H    -3.11144584e+00     -1.49952407e+00     2.58332783e+00      
O    -1.92240048e+00     1.80778527e+00      -3.97744071e-01     
H    -2.81421259e+00     1.63422568e+00      -4.62922664e-02     
H    -2.00522878e+00     2.55124964e+00      -9.96697837e-01     
O    1.98263300e-01      -2.51386656e+00     -1.09933181e+00     
H    -6.65904262e-01     -2.93201585e+00     -1.05511436e+00     
H    6.55949049e-01      -2.92963293e+00     -1.83468789e+00     
O    -4.34569184e+00     1.11964309e+00      6.85212755e-01      
H    -4.66910712e+00     1.32613361e+00      1.56369667e+00      
H    -4.74682014e+00     2.76388845e-01      4.41848911e-01      
O    -4.63749498e+00     -1.96650967e+00     2.53040220e+00      
H    -4.98263176e+00     -2.07349853e+00     1.63335831e+00      
H    -5.05290725e+00     -2.63502688e+00     3.08239582e+00      
O    -5.02531084e+00     -1.53904012e+00     -1.99535832e-01     
H    -5.65143885e+00     -1.80791999e+00     -8.76708213e-01     
H    -4.15124245e+00     -1.72340263e+00     -5.56605960e-01     
O    2.51847372e+00      1.26115848e+00      4.21538517e-01      
H    2.65851889e+00      2.20794146e+00      4.94240236e-01      
H    3.39366432e+00      8.83363827e-01      3.09317674e-01      
29
62.233174
N    3.56619395e-02      -1.80025855e-03     5.77822861e-02      
H    7.12820125e-02      -8.57324611e-01     -5.35645932e-01     
H    9.57618400e-01      4.72812432e-01      6.38672097e-02      
H    -6.95651884e-01     6.54389335e-01      -3.04430731e-01     
C    -3.18868127e-01     -3.65061374e-01     1.44251430e+00      
H    4.17185465e-01      -1.05280437e+00     1.84830859e+00      
H    -3.45334410e-01     5.31792389e-01      2.05376275e+00      
C    -1.68369143e+00     -1.03101796e+00     1.41272768e+00      
O    -2.20333283e+00     -1.42919081e+00     3.85220500e-01      
O    -2.17851034e+00     -1.11304723e+00     2.62814455e+00      
H    -3.11001198e+00     -1.49917303e+00     2.58383067e+00      
O    -1.92418276e+00     1.80585306e+00      -3.98050134e-01     
H    -2.81580031e+00     1.63299822e+00      -4.57395800e-02     
H    -2.00690334e+00     2.54999398e+00      -9.96171833e-01     
O    1.95289300e-01      -2.51460238e+00     -1.09869216e+00     
H    -6.69618739e-01     -2.93103274e+00     -1.05301540e+00     
H    6.51392464e-01      -2.93209353e+00     -1.83404250e+00     
O    -4.34799897e+00     1.12052072e+00      6.85645554e-01      
H    -4.67061325e+00     1.32577405e+00      1.56470402e+00      
H    -4.74839999e+00     2.77018500e-01      4.41961249e-01      
O    -4.63587786e+00     -1.96642372e+00     2.52914509e+00      
H    -4.98005442e+00     -2.07320846e+00     1.63170281e+00      
H    -5.05175738e+00     -2.63522598e+00     3.08045237e+00      
O    -5.02342869e+00     -1.53819934e+00     -2.01095760e-01     
H    -5.64884187e+00     -1.80768486e+00     -8.78688090e-01     
H    -4.14892089e+00     -1.72099397e+00     -5.57872745e-01     
O    2.51835524e+00      1.26101790e+00      4.22754041e-01      
H    2.65832752e+00      2.20776101e+00      4.96153736e-01      
H    3.39353585e+00      8.83467265e-01      3.09607972e-01      
29
62.233174
N    3.66947761e-02      -1.85374813e-03     5.56992415e-02      
H    7.06872723e-02      -8.57751829e-01     -5.37333450e-01     
H    9.58257844e-01      4.73498156e-01      5.97822497e-02      
H    -6.96769922e-01     6.52899377e-01      -3.04873297e-01     
C    -3.13998079e-01     -3.65280248e-01     1.44140886e+00      
H    4.22451201e-01      -1.05401385e+00     1.84469697e+00      
H    -3.37742602e-01     5.31230995e-01      2.05322377e+00      
C    -1.67951201e+00     -1.02971548e+00     1.41455092e+00      
O    -2.20163661e+00     -1.42689889e+00     3.87876080e-01      
O    -2.17268732e+00     -1.11172725e+00     2.63056513e+00      
H    -3.10427652e+00     -1.49776885e+00     2.58584201e+00      
O    -1.93131188e+00     1.79812418e+00      -3.99274384e-01     
H    -2.82215115e+00     1.62808838e+00      -4.35288344e-02     
H    -2.01360160e+00     2.54497134e+00      -9.94067821e-01     
O    1.83393298e-01      -2.51754564e+00     -1.09613352e+00     
H    -6.84476647e-01     -2.92710032e+00     -1.04461954e+00     
H    6.33166120e-01      -2.94193595e+00     -1.83146092e+00     
O    -4.35722745e+00     1.12403120e+00      6.87376746e-01      
H    -4.67663777e+00     1.32433585e+00      1.56873346e+00      
H    -4.75471941e+00     2.79537118e-01      4.42410599e-01      
O    -4.62940938e+00     -1.96607994e+00     2.52411663e+00      
H    -4.96974508e+00     -2.07204818e+00     1.62508079e+00      
H    -5.04715790e+00     -2.63602238e+00     3.07267855e+00      
O    -5.01590009e+00     -1.53483618e+00     -2.07335472e-01     
H    -5.63845395e+00     -1.80674434e+00     -8.86607600e-01     
H    -4.13963463e+00     -1.71135931e+00     -5.62939885e-01     
O    2.51788132e+00      1.26045558e+00      4.27616139e-01      
H    2.65756202e+00      2.20703921e+00      5.03807734e-01      
H    3.39302197e+00      8.83881017e-01      3.10769164e-01      
29
62.233174
N    3.69529852e-02      -1.86712053e-03     5.51784803e-02      
H    7.05385873e-02      -8.57858634e-01     -5.37755330e-01     
H    9.58417704e-01      4.73669587e-01      5.87610098e-02      
H    -6.97049432e-01     6.52526887e-01      -3.04983939e-01     
C    -3.12780567e-01     -3.65334966e-01     1.44113250e+00      
H    4.23767634e-01      -1.05431622e+00     1.84379406e+00      
H    -3.35844650e-01     5.31090647e-01      2.05308902e+00      
C    -1.67846715e+00     -1.02938986e+00     1.41500674e+00      
O    -2.20121255e+00     -1.42632591e+00     3.88539975e-01      
O    -2.17123157e+00     -1.11139726e+00     2.63117028e+00      
H    -3.10284266e+00     -1.49741781e+00     2.58634485e+00      
O    -1.93309416e+00     1.79619197e+00      -3.99580447e-01     
H    -2.82373887e+00     1.62686092e+00      -4.29761480e-02     
H    -2.01527616e+00     2.54371568e+00      -9.93541817e-01     
O    1.80419298e-01      -2.51828146e+00     -1.09549387e+00     
H    -6.88191124e-01     -2.92611721e+00     -1.04252058e+00     
H    6.28609535e-01      -2.94439655e+00     -1.83081553e+00     
O    -4.35953458e+00     1.12490883e+00      6.87809545e-01      
H    -4.67814390e+00     1.32397629e+00      1.56974081e+00      
H    -4.75629926e+00     2.80166773e-01      4.42522937e-01      
O    -4.62779226e+00     -1.96599399e+00     2.52285952e+00      
H    -4.96716774e+00     -2.07175811e+00     1.62342529e+00      
H    -5.04600803e+00     -2.63622148e+00     3.07073510e+00      
O    -5.01401794e+00     -1.53399540e+00     -2.08895400e-01     
H    -5.63585697e+00     -1.80650921e+00     -8.88587477e-01     
H    -4.13731307e+00     -1.70895065e+00     -5.64206670e-01     
O    2.51776284e+00      1.26031500e+00      4.28831663e-01      
H    2.65737065e+00      2.20685876e+00      5.05721234e-01      
H    3.39289350e+00      8.83984455e-01      3.11059462e-01      
29
62.233174
N    3.72111944e-02      -1.88049293e-03     5.46577192e-02      
H    7.03899022e-02      -8.57965438e-01     -5.38177209e-01     
H    9.58577565e-01      4.73841018e-01      5.77397698e-02      
H    -6.97328941e-01     6.52154398e-01      -3.05094581e-01     
C    -3.11563055e-01     -3.65389685e-01     1.44085614e+00      
H    4.25084068e-01      -1.05461859e+00     1.84289115e+00      
H    -3.33946698e-01     5.30950298e-01      2.05295428e+00      
C    -1.67742229e+00     -1.02906424e+00     1.41546255e+00      
O    -2.20078850e+00     -1.42575294e+00     3.89203870e-01      
O    -2.16977582e+00     -1.11106727e+00     2.63177543e+00      
H    -3.10140880e+00     -1.49706677e+00     2.58684768e+00      
O    -1.93487644e+00     1.79425975e+00      -3.99886510e-01     
H    -2.82532658e+00     1.62563346e+00      -4.24234616e-02     
H    -2.01695072e+00     2.54246003e+00      -9.93015814e-01     
O    1.77445298e-01      -2.51901727e+00     -1.09485421e+00     
H    -6.91905600e-01     -2.92513410e+00     -1.04042161e+00     
H    6.24052949e-01      -2.94685716e+00     -1.83017013e+00     
O    -4.36184170e+00     1.12578645e+00      6.88242343e-01      
H    -4.67965002e+00     1.32361674e+00      1.57074817e+00      
H    -4.75787911e+00     2.80796427e-01      4.42635274e-01      
O    -4.62617513e+00     -1.96590805e+00     2.52160240e+00      
H    -4.96459040e+00     -2.07146804e+00     1.62176979e+00      
H    -5.04485816e+00     -2.63642058e+00     3.06879165e+00      
O    -5.01213578e+00     -1.53315461e+00     -2.10455328e-01     
H    -5.63325999e+00     -1.80627408e+00     -8.90567354e-01     
H    -4.13499151e+00     -1.70654199e+00     -5.65473455e-01     
O    2.51764435e+00      1.26017442e+00      4.30047188e-01      
H    2.65717927e+00      2.20667830e+00      5.07634733e-01      
H    3.39276502e+00      8.84087894e-01      3.11349760e-01      
29
62.233174
N    3.77276127e-02      -1.90723772e-03     5.36161968e-02      
H    7.00925321e-02      -8.58179047e-01     -5.39020968e-01     
H    9.58897287e-01      4.74183880e-01      5.56972898e-02      
H    -6.97887960e-01     6.51409419e-01      -3.05315864e-01     
C    -3.09128030e-01     -3.65499121e-01     1.44030341e+00      
H    4.27716936e-01      -1.05522333e+00     1.84108534e+00      
H    -3.30150794e-01     5.30669601e-01      2.05268479e+00      
C    -1.67533258e+00     -1.02841300e+00     1.41637417e+00      
O    -2.19994039e+00     -1.42460698e+00     3.90531661e-01      
O    -2.16686431e+00     -1.11040728e+00     2.63298572e+00      
H    -3.09854107e+00     -1.49636468e+00     2.58785336e+00      
O    -1.93844100e+00     1.79039531e+00      -4.00498635e-01     
H    -2.82850200e+00     1.62317854e+00      -4.13180888e-02     
H    -2.02029985e+00     2.53994871e+00      -9.91963808e-01     
O    1.71497297e-01      -2.52048890e+00     -1.09357489e+00     
H    -6.99334554e-01     -2.92316789e+00     -1.03622368e+00     
H    6.14939777e-01      -2.95177837e+00     -1.82887934e+00     
O    -4.36645594e+00     1.12754169e+00      6.89107939e-01      
H    -4.68266228e+00     1.32289764e+00      1.57276289e+00      
H    -4.76103882e+00     2.82055737e-01      4.42859949e-01      
O    -4.62294089e+00     -1.96573615e+00     2.51908818e+00      
H    -4.95943573e+00     -2.07088790e+00     1.61845878e+00      
H    -5.04255841e+00     -2.63681878e+00     3.06490474e+00      
O    -5.00837148e+00     -1.53147303e+00     -2.13575184e-01     
H    -5.62806603e+00     -1.80580382e+00     -8.94527109e-01     
H    -4.13034838e+00     -1.70172466e+00     -5.68007026e-01     
O    2.51740739e+00      1.25989326e+00      4.32478236e-01      
H    2.65679653e+00      2.20631740e+00      5.11461732e-01      
H    3.39250808e+00      8.84294770e-01      3.11930355e-01      
29
62.233174
N    3.82440309e-02      -1.93398251e-03     5.25746745e-02      
H    6.97951620e-02      -8.58392656e-01     -5.39864727e-01     
H    9.59217008e-01      4.74526742e-01      5.36548099e-02      
H    -6.98446979e-01     6.50664440e-01      -3.05537148e-01     
C    -3.06693006e-01     -3.65608558e-01     1.43975069e+00      
H    4.30349804e-01      -1.05582807e+00     1.83927952e+00      
H    -3.26354891e-01     5.30388904e-01      2.05241530e+00      
C    -1.67324287e+00     -1.02776176e+00     1.41728579e+00      
O    -2.19909228e+00     -1.42346102e+00     3.91859451e-01      
O    -2.16395280e+00     -1.10974730e+00     2.63419602e+00      
H    -3.09567335e+00     -1.49566259e+00     2.58885903e+00      
O    -1.94200557e+00     1.78653088e+00      -4.01110761e-01     
H    -2.83167743e+00     1.62072363e+00      -4.02127159e-02     
H    -2.02364898e+00     2.53743739e+00      -9.90911801e-01     
O    1.65549297e-01      -2.52196053e+00     -1.09229558e+00     
H    -7.06763508e-01     -2.92120167e+00     -1.03202575e+00     
H    6.05826606e-01      -2.95669958e+00     -1.82758855e+00     
O    -4.37107019e+00     1.12929693e+00      6.89973536e-01      
H    -4.68567454e+00     1.32217853e+00      1.57477761e+00      
H    -4.76419853e+00     2.83315046e-01      4.43084624e-01      
O    -4.61970665e+00     -1.96556426e+00     2.51657395e+00      
H    -4.95428105e+00     -2.07030776e+00     1.61514778e+00      
H    -5.04025867e+00     -2.63721698e+00     3.06101784e+00      
O    -5.00460718e+00     -1.52979146e+00     -2.16695039e-01     
H    -5.62287207e+00     -1.80533356e+00     -8.98486864e-01     
H    -4.12570526e+00     -1.69690733e+00     -5.70540596e-01     
O    2.51717043e+00      1.25961211e+00      4.34909285e-01      
H    2.65641378e+00      2.20595650e+00      5.15288731e-01      
H    3.39225114e+00      8.84501646e-01      3.12510951e-01      
29
62.233174
N    3.87604492e-02      -1.96072730e-03     5.15331522e-02      
H    6.94977919e-02      -8.58606265e-01     -5.40708486e-01     
H    9.59536730e-01      4.74869604e-01      5.16123299e-02      
H    -6.99005998e-01     6.49919461e-01      -3.05758431e-01     
C    -3.04257982e-01     -3.65717995e-01     1.43919797e+00      
H    4.32982671e-01      -1.05643282e+00     1.83747371e+00      
H    -3.22558987e-01     5.30108207e-01      2.05214581e+00      
C    -1.67115315e+00     -1.02711052e+00     1.41819742e+00      
O    -2.19824417e+00     -1.42231506e+00     3.93187241e-01      
O    -2.16104129e+00     -1.10908731e+00     2.63540631e+00      
H    -3.09280562e+00     -1.49496051e+00     2.58986470e+00      
O    -1.94557013e+00     1.78266644e+00      -4.01722886e-01     
H    -2.83485285e+00     1.61826871e+00      -3.91073431e-02     
H    -2.02699810e+00     2.53492608e+00      -9.89859795e-01     
O    1.59601296e-01      -2.52343217e+00     -1.09101626e+00     
H    -7.14192462e-01     -2.91923546e+00     -1.02782782e+00     
H    5.96713434e-01      -2.96162079e+00     -1.82629776e+00     
O    -4.37568443e+00     1.13105218e+00      6.90839132e-01      
H    -4.68868680e+00     1.32145943e+00      1.57679232e+00      
H    -4.76735823e+00     2.84574355e-01      4.43309299e-01      
O    -4.61647241e+00     -1.96539237e+00     2.51405972e+00      
H    -4.94912638e+00     -2.06972762e+00     1.61183677e+00      
H    -5.03795893e+00     -2.63761518e+00     3.05713093e+00      
O    -5.00084287e+00     -1.52810988e+00     -2.19814895e-01     
H    -5.61767811e+00     -1.80486330e+00     -9.02446619e-01     
H    -4.12106213e+00     -1.69209001e+00     -5.73074166e-01     
O    2.51693347e+00      1.25933095e+00      4.37340334e-01      
H    2.65603103e+00      2.20559560e+00      5.19115730e-01      
H    3.39199420e+00      8.84708523e-01      3.13091547e-01      
29
62.233174
N    3.92768675e-02      -1.98747210e-03     5.04916299e-02      
H    6.92004218e-02      -8.58819874e-01     -5.41552245e-01     
H    9.59856451e-01      4.75212466e-01      4.95698499e-02      
H    -6.99565017e-01     6.49174482e-01      -3.05979715e-01     
C    -3.01822958e-01     -3.65827432e-01     1.43864525e+00      
H    4.35615539e-01      -1.05703756e+00     1.83566789e+00      
H    -3.18763083e-01     5.29827510e-01      2.05187632e+00      
C    -1.66906344e+00     -1.02645928e+00     1.41910904e+00      
O    -2.19739605e+00     -1.42116911e+00     3.94515031e-01      
O    -2.15812979e+00     -1.10842733e+00     2.63661661e+00      
H    -3.08993790e+00     -1.49425842e+00     2.59087037e+00      
O    -1.94913469e+00     1.77880201e+00      -4.02335012e-01     
H    -2.83802827e+00     1.61581379e+00      -3.80019703e-02     
H    -2.03034723e+00     2.53241476e+00      -9.88807788e-01     
O    1.53653295e-01      -2.52490380e+00     -1.08973695e+00     
H    -7.21621415e-01     -2.91726925e+00     -1.02362989e+00     
H    5.87600262e-01      -2.96654200e+00     -1.82500697e+00     
O    -4.38029868e+00     1.13280742e+00      6.91704729e-01      
H    -4.69169905e+00     1.32074032e+00      1.57880704e+00      
H    -4.77051794e+00     2.85833664e-01      4.43533974e-01      
O    -4.61323816e+00     -1.96522048e+00     2.51154549e+00      
H    -4.94397170e+00     -2.06914748e+00     1.60852577e+00      
H    -5.03565919e+00     -2.63801338e+00     3.05324403e+00      
O    -4.99707857e+00     -1.52642831e+00     -2.22934751e-01     
H    -5.61248416e+00     -1.80439304e+00     -9.06406373e-01     
H    -4.11641901e+00     -1.68727268e+00     -5.75607736e-01     
O    2.51669650e+00      1.25904979e+00      4.39771383e-01      
H    2.65564828e+00      2.20523469e+00      5.22942729e-01      
H    3.39173725e+00      8.84915399e-01      3.13672143e-01      
29
62.233174
N    4.03097041e-02      -2.04096168e-03     4.84085852e-02      
H    6.86056816e-02      -8.59247092e-01     -5.43239763e-01     
H    9.60495894e-01      4.75898190e-01      4.54848900e-02      
H    -7.00683055e-01     6.47684523e-01      -3.06422281e-01     
C    -2.96952910e-01     -3.66046306e-01     1.43753980e+00      
H    4.40881274e-01      -1.05824704e+00     1.83205626e+00      
H    -3.11171275e-01     5.29266116e-01      2.05133734e+00      
C    -1.66488401e+00     -1.02515681e+00     1.42093229e+00      
O    -2.19569983e+00     -1.41887719e+00     3.97170611e-01      
O    -2.15230677e+00     -1.10710735e+00     2.63903719e+00      
H    -3.08420245e+00     -1.49285424e+00     2.59288172e+00      
O    -1.95626381e+00     1.77107314e+00      -4.03559263e-01     
H    -2.84437912e+00     1.61090395e+00      -3.57912247e-02     
H    -2.03704548e+00     2.52739213e+00      -9.86703775e-01     
O    1.41757294e-01      -2.52784706e+00     -1.08717831e+00     
H    -7.36479323e-01     -2.91333682e+00     -1.01523403e+00     
H    5.69373919e-01      -2.97638441e+00     -1.82242540e+00     
O    -4.38952717e+00     1.13631791e+00      6.93435922e-01      
H    -4.69772357e+00     1.31930212e+00      1.58283647e+00      
H    -4.77683735e+00     2.88352283e-01      4.43983324e-01      
O    -4.60676968e+00     -1.96487669e+00     2.50651704e+00      
H    -4.93366235e+00     -2.06798720e+00     1.60190376e+00      
H    -5.03105970e+00     -2.63880977e+00     3.04547022e+00      
O    -4.98954996e+00     -1.52306516e+00     -2.29174463e-01     
H    -5.60209624e+00     -1.80345252e+00     -9.14325883e-01     
H    -4.10713276e+00     -1.67763803e+00     -5.80674877e-01     
O    2.51622258e+00      1.25848747e+00      4.44633481e-01      
H    2.65488278e+00      2.20451289e+00      5.30596727e-01      
H    3.39122337e+00      8.85329151e-01      3.14833334e-01      
