29
179.115441
N    2.76119451e-02      -4.25156994e-04     5.11416163e-02      
H    5.59929249e-02      -8.51014047e-01     -5.47816217e-01     
H    9.50990139e-01      4.68931065e-01      5.44434006e-02      
H    -7.00540566e-01     6.62611459e-01      -3.04374476e-01     
C    -3.17810790e-01     -3.75420028e-01     1.43749190e+00      
H    4.19702174e-01      -1.07113946e+00     1.82742641e+00      
H    -3.31761770e-01     5.16092054e-01      2.05699710e+00      
C    -1.68650276e+00     -1.03636878e+00     1.41900987e+00      
O    -2.21197132e+00     -1.43984833e+00     3.97081564e-01      
O    -2.17534808e+00     -1.11017543e+00     2.63819426e+00      
H    -3.10662502e+00     -1.49585227e+00     2.59869365e+00      
O    -1.94047049e+00     1.83258513e+00      -4.11353735e-01     
H    -2.82885725e+00     1.65926611e+00      -5.25754863e-02     
H    -2.03037880e+00     2.57017459e+00      -1.01659715e+00     
O    1.85997956e-01      -2.54466332e+00     -1.11289080e+00     
H    -6.65939364e-01     -2.98764643e+00     -1.07104227e+00     
H    6.80124476e-01      -2.99029061e+00     -1.80837895e+00     
O    -4.36278117e+00     1.11241629e+00      6.94289813e-01      
H    -4.73113222e+00     1.34039788e+00      1.55130424e+00      
H    -4.76662597e+00     2.73468798e-01      4.40844289e-01      
O    -4.64122438e+00     -1.97034604e+00     2.53840913e+00      
H    -4.97880248e+00     -2.07281857e+00     1.63807804e+00      
H    -5.06037782e+00     -2.64365227e+00     3.08157196e+00      
O    -5.01994407e+00     -1.53102900e+00     -2.16438131e-01     
H    -5.63450503e+00     -1.80700656e+00     -9.01334776e-01     
H    -4.13960177e+00     -1.70879868e+00     -5.61461246e-01     
O    2.57184944e+00      1.28888973e+00      4.28011266e-01      
H    2.71269469e+00      2.23075595e+00      5.58302220e-01      
H    3.45384317e+00      9.12055608e-01      3.66512903e-01      
29
179.115441
N    2.97535483e-02      -7.75618581e-04     5.25414032e-02      
H    5.97408543e-02      -8.52645091e-01     -5.44984585e-01     
H    9.52727135e-01      4.69987123e-01      5.62887329e-02      
H    -6.99458151e-01     6.60369683e-01      -3.04443860e-01     
C    -3.17466368e-01     -3.72857723e-01     1.43860932e+00      
H    4.19731214e-01      -1.06670687e+00     1.83219551e+00      
H    -3.34205954e-01     5.19946963e-01      2.05612114e+00      
C    -1.68527750e+00     -1.03486826e+00     1.41766723e+00      
O    -2.20959967e+00     -1.43689746e+00     3.94448245e-01      
O    -2.17541077e+00     -1.11072838e+00     2.63598440e+00      
H    -3.10675482e+00     -1.49650694e+00     2.59522932e+00      
O    -1.93728970e+00     1.82493600e+00      -4.08180866e-01     
H    -2.82638687e+00     1.65208541e+00      -5.05901665e-02     
H    -2.02534722e+00     2.56450161e+00      -1.01122782e+00     
O    1.86833792e-01      -2.53751599e+00     -1.10902131e+00     
H    -6.68716446e-01     -2.97300145e+00     -1.06548607e+00     
H    6.70663180e-01      -2.97697164e+00     -1.81447214e+00     
O    -4.36023918e+00     1.11488121e+00      6.92345147e-01      
H    -4.71675554e+00     1.33656215e+00      1.55515787e+00      
H    -4.76285940e+00     2.74671051e-01      4.41179698e-01      
O    -4.63907919e+00     -1.96932249e+00     2.53546456e+00      
H    -4.97782680e+00     -2.07277100e+00     1.63565648e+00      
H    -5.05764778e+00     -2.64164524e+00     3.08032033e+00      
O    -5.01987415e+00     -1.53240119e+00     -2.13382502e-01     
H    -5.63679075e+00     -1.80705857e+00     -8.96663044e-01     
H    -4.14077077e+00     -1.71064317e+00     -5.61197513e-01     
O    2.55841665e+00      1.28185148e+00      4.27304722e-01      
H    2.69900721e+00      2.22491699e+00      5.43721849e-01      
H    3.43870210e+00      9.04960241e-01      3.52431819e-01      
29
179.115441
N    3.08243499e-02      -9.50849374e-04     5.32412966e-02      
H    6.16148190e-02      -8.53460612e-01     -5.43568770e-01     
H    9.53595633e-01      4.70515151e-01      5.72113990e-02      
H    -6.98916943e-01     6.59248795e-01      -3.04478552e-01     
C    -3.17294158e-01     -3.71576571e-01     1.43916803e+00      
H    4.19745733e-01      -1.06449058e+00     1.83458005e+00      
H    -3.35428046e-01     5.21874418e-01      2.05568316e+00      
C    -1.68466487e+00     -1.03411800e+00     1.41699591e+00      
O    -2.20841384e+00     -1.43542203e+00     3.93131586e-01      
O    -2.17544211e+00     -1.11100486e+00     2.63487948e+00      
H    -3.10681973e+00     -1.49683427e+00     2.59349716e+00      
O    -1.93569930e+00     1.82111144e+00      -4.06594432e-01     
H    -2.82515168e+00     1.64849506e+00      -4.95975066e-02     
H    -2.02283143e+00     2.56166512e+00      -1.00854316e+00     
O    1.87251710e-01      -2.53394233e+00     -1.10708656e+00     
H    -6.70104987e-01     -2.96567897e+00     -1.06270797e+00     
H    6.65932532e-01      -2.97031216e+00     -1.81751873e+00     
O    -4.35896818e+00     1.11611367e+00      6.91372814e-01      
H    -4.70956720e+00     1.33464428e+00      1.55708468e+00      
H    -4.76097612e+00     2.75272177e-01      4.41347402e-01      
O    -4.63800659e+00     -1.96881071e+00     2.53399228e+00      
H    -4.97733896e+00     -2.07274722e+00     1.63444570e+00      
H    -5.05628275e+00     -2.64064173e+00     3.07969452e+00      
O    -5.01983919e+00     -1.53308729e+00     -2.11854688e-01     
H    -5.63793361e+00     -1.80708457e+00     -8.94327177e-01     
H    -4.14135527e+00     -1.71156542e+00     -5.61065647e-01     
O    2.55170025e+00      1.27833236e+00      4.26951450e-01      
H    2.69216347e+00      2.22199751e+00      5.36431663e-01      
H    3.43113157e+00      9.01412558e-01      3.45391277e-01      
29
179.115441
N    3.18951515e-02      -1.12608017e-03     5.39411900e-02      
H    6.34887836e-02      -8.54276134e-01     -5.42152954e-01     
H    9.54464131e-01      4.71043180e-01      5.81340652e-02      
H    -6.98375735e-01     6.58127907e-01      -3.04513245e-01     
C    -3.17121947e-01     -3.70295419e-01     1.43972674e+00      
H    4.19760253e-01      -1.06227428e+00     1.83696460e+00      
H    -3.36650138e-01     5.23801873e-01      2.05524518e+00      
C    -1.68405224e+00     -1.03336775e+00     1.41632459e+00      
O    -2.20722802e+00     -1.43394659e+00     3.91814927e-01      
O    -2.17547346e+00     -1.11128133e+00     2.63377455e+00      
H    -3.10688463e+00     -1.49716160e+00     2.59176499e+00      
O    -1.93410890e+00     1.81728687e+00      -4.05007997e-01     
H    -2.82391649e+00     1.64490471e+00      -4.86048467e-02     
H    -2.02031564e+00     2.55882862e+00      -1.00585849e+00     
O    1.87669627e-01      -2.53036866e+00     -1.10515182e+00     
H    -6.71493528e-01     -2.95835648e+00     -1.05992987e+00     
H    6.61201884e-01      -2.96365267e+00     -1.82056533e+00     
O    -4.35769719e+00     1.11734613e+00      6.90400481e-01      
H    -4.70237887e+00     1.33272641e+00      1.55901149e+00      
H    -4.75909283e+00     2.75873304e-01      4.41515106e-01      
O    -4.63693400e+00     -1.96829893e+00     2.53251999e+00      
H    -4.97685111e+00     -2.07272344e+00     1.63323492e+00      
H    -5.05491773e+00     -2.63963822e+00     3.07906871e+00      
O    -5.01980423e+00     -1.53377338e+00     -2.10326873e-01     
H    -5.63907647e+00     -1.80711058e+00     -8.91991311e-01     
H    -4.14193977e+00     -1.71248766e+00     -5.60933780e-01     
O    2.54498386e+00      1.27481324e+00      4.26598178e-01      
H    2.68531973e+00      2.21907803e+00      5.29141478e-01      
H    3.42356104e+00      8.97864874e-01      3.38350735e-01      
29
179.115441
N    3.29659530e-02      -1.30131096e-03     5.46410835e-02      
H    6.53627483e-02      -8.55091655e-01     -5.40737138e-01     
H    9.55332629e-01      4.71571208e-01      5.90567313e-02      
H    -6.97834527e-01     6.57007020e-01      -3.04547937e-01     
C    -3.16949736e-01     -3.69014267e-01     1.44028545e+00      
H    4.19774773e-01      -1.06005799e+00     1.83934914e+00      
H    -3.37872230e-01     5.25729328e-01      2.05480720e+00      
C    -1.68343961e+00     -1.03261749e+00     1.41565326e+00      
O    -2.20604219e+00     -1.43247116e+00     3.90498268e-01      
O    -2.17550480e+00     -1.11155781e+00     2.63266962e+00      
H    -3.10694954e+00     -1.49748894e+00     2.59003283e+00      
O    -1.93251851e+00     1.81346231e+00      -4.03421563e-01     
H    -2.82268130e+00     1.64131436e+00      -4.76121869e-02     
H    -2.01779985e+00     2.55599213e+00      -1.00317382e+00     
O    1.88087545e-01      -2.52679500e+00     -1.10321707e+00     
H    -6.72882069e-01     -2.95103399e+00     -1.05715177e+00     
H    6.56471236e-01      -2.95699319e+00     -1.82361192e+00     
O    -4.35642619e+00     1.11857858e+00      6.89428149e-01      
H    -4.69519053e+00     1.33080855e+00      1.56093830e+00      
H    -4.75720955e+00     2.76474430e-01      4.41682811e-01      
O    -4.63586140e+00     -1.96778716e+00     2.53104771e+00      
H    -4.97636327e+00     -2.07269966e+00     1.63202414e+00      
H    -5.05355271e+00     -2.63863471e+00     3.07844290e+00      
O    -5.01976927e+00     -1.53445948e+00     -2.08799059e-01     
H    -5.64021933e+00     -1.80713658e+00     -8.89655444e-01     
H    -4.14252426e+00     -1.71340991e+00     -5.60801914e-01     
O    2.53826746e+00      1.27129411e+00      4.26244906e-01      
H    2.67847599e+00      2.21615855e+00      5.21851292e-01      
H    3.41599051e+00      8.94317191e-01      3.31310193e-01      
29
179.115441
N    3.40367546e-02      -1.47654175e-03     5.53409769e-02      
H    6.72367130e-02      -8.55907177e-01     -5.39321322e-01     
H    9.56201126e-01      4.72099237e-01      5.99793974e-02      
H    -6.97293319e-01     6.55886132e-01      -3.04582629e-01     
C    -3.16777525e-01     -3.67733115e-01     1.44084416e+00      
H    4.19789293e-01      -1.05784170e+00     1.84173369e+00      
H    -3.39094322e-01     5.27656782e-01      2.05436922e+00      
C    -1.68282698e+00     -1.03186723e+00     1.41498194e+00      
O    -2.20485637e+00     -1.43099572e+00     3.89181608e-01      
O    -2.17553614e+00     -1.11183429e+00     2.63156469e+00      
H    -3.10701444e+00     -1.49781627e+00     2.58830067e+00      
O    -1.93092811e+00     1.80963775e+00      -4.01835128e-01     
H    -2.82144611e+00     1.63772400e+00      -4.66195270e-02     
H    -2.01528405e+00     2.55315564e+00      -1.00048916e+00     
O    1.88505463e-01      -2.52322134e+00     -1.10128233e+00     
H    -6.74270611e-01     -2.94371150e+00     -1.05437367e+00     
H    6.51740588e-01      -2.95033371e+00     -1.82665852e+00     
O    -4.35515520e+00     1.11981104e+00      6.88455816e-01      
H    -4.68800219e+00     1.32889068e+00      1.56286512e+00      
H    -4.75532627e+00     2.77075556e-01      4.41850515e-01      
O    -4.63478881e+00     -1.96727538e+00     2.52957543e+00      
H    -4.97587543e+00     -2.07267588e+00     1.63081336e+00      
H    -5.05218769e+00     -2.63763120e+00     3.07781708e+00      
O    -5.01973431e+00     -1.53514557e+00     -2.07271245e-01     
H    -5.64136219e+00     -1.80716259e+00     -8.87319578e-01     
H    -4.14310876e+00     -1.71433215e+00     -5.60670048e-01     
O    2.53155107e+00      1.26777499e+00      4.25891634e-01      
H    2.67163225e+00      2.21323907e+00      5.14561106e-01      
H    3.40841997e+00      8.90769508e-01      3.24269652e-01      
29
179.115441
N    3.45721554e-02      -1.56415715e-03     5.56909236e-02      
H    6.81736954e-02      -8.56314938e-01     -5.38613415e-01     
H    9.56635375e-01      4.72363251e-01      6.04407305e-02      
H    -6.97022715e-01     6.55325688e-01      -3.04599976e-01     
C    -3.16691419e-01     -3.67092539e-01     1.44112352e+00      
H    4.19796553e-01      -1.05673355e+00     1.84292596e+00      
H    -3.39705368e-01     5.28620510e-01      2.05415023e+00      
C    -1.68252067e+00     -1.03149211e+00     1.41464628e+00      
O    -2.20426346e+00     -1.43025800e+00     3.88523279e-01      
O    -2.17555182e+00     -1.11197252e+00     2.63101223e+00      
H    -3.10704689e+00     -1.49797994e+00     2.58743459e+00      
O    -1.93013291e+00     1.80772547e+00      -4.01041911e-01     
H    -2.82082852e+00     1.63592883e+00      -4.61231970e-02     
H    -2.01402616e+00     2.55173740e+00      -9.99146826e-01     
O    1.88714422e-01      -2.52143451e+00     -1.10031496e+00     
H    -6.74964881e-01     -2.94005026e+00     -1.05298462e+00     
H    6.49375264e-01      -2.94700397e+00     -1.82818182e+00     
O    -4.35451970e+00     1.12042727e+00      6.87969649e-01      
H    -4.68440802e+00     1.32793175e+00      1.56382852e+00      
H    -4.75438463e+00     2.77376119e-01      4.41934367e-01      
O    -4.63425251e+00     -1.96701949e+00     2.52883929e+00      
H    -4.97563151e+00     -2.07266399e+00     1.63020797e+00      
H    -5.05150517e+00     -2.63712945e+00     3.07750418e+00      
O    -5.01971683e+00     -1.53548862e+00     -2.06507338e-01     
H    -5.64193362e+00     -1.80717559e+00     -8.86151645e-01     
H    -4.14340101e+00     -1.71479327e+00     -5.60604115e-01     
O    2.52819287e+00      1.26601543e+00      4.25714998e-01      
H    2.66821038e+00      2.21177933e+00      5.10916013e-01      
H    3.40463471e+00      8.88995666e-01      3.20749381e-01      
29
179.115441
N    3.51075562e-02      -1.65177255e-03     5.60408704e-02      
H    6.91106777e-02      -8.56722698e-01     -5.37905507e-01     
H    9.57069624e-01      4.72627265e-01      6.09020636e-02      
H    -6.96752111e-01     6.54765244e-01      -3.04617322e-01     
C    -3.16605314e-01     -3.66451963e-01     1.44140287e+00      
H    4.19803813e-01      -1.05562540e+00     1.84411823e+00      
H    -3.40316414e-01     5.29584237e-01      2.05393124e+00      
C    -1.68221435e+00     -1.03111698e+00     1.41431062e+00      
O    -2.20367054e+00     -1.42952029e+00     3.87864949e-01      
O    -2.17556749e+00     -1.11211076e+00     2.63045977e+00      
H    -3.10707935e+00     -1.49814361e+00     2.58656850e+00      
O    -1.92933772e+00     1.80581318e+00      -4.00248694e-01     
H    -2.82021092e+00     1.63413365e+00      -4.56268671e-02     
H    -2.01276826e+00     2.55031915e+00      -9.97804493e-01     
O    1.88923381e-01      -2.51964767e+00     -1.09934758e+00     
H    -6.75659152e-01     -2.93638902e+00     -1.05159557e+00     
H    6.47009940e-01      -2.94367422e+00     -1.82970511e+00     
O    -4.35388420e+00     1.12104350e+00      6.87483483e-01      
H    -4.68081385e+00     1.32697282e+00      1.56479193e+00      
H    -4.75344298e+00     2.77676683e-01      4.42018220e-01      
O    -4.63371621e+00     -1.96676361e+00     2.52810314e+00      
H    -4.97538759e+00     -2.07265210e+00     1.62960258e+00      
H    -5.05082266e+00     -2.63662769e+00     3.07719127e+00      
O    -5.01969935e+00     -1.53583167e+00     -2.05743430e-01     
H    -5.64250505e+00     -1.80718859e+00     -8.84983711e-01     
H    -4.14369326e+00     -1.71525440e+00     -5.60538181e-01     
O    2.52483467e+00      1.26425586e+00      4.25538362e-01      
H    2.66478851e+00      2.21031959e+00      5.07270921e-01      
H    3.40084944e+00      8.87221824e-01      3.17229110e-01      
29
179.115441
N    3.72491594e-02      -2.00223413e-03     5.74406572e-02      
H    7.28586071e-02      -8.58353742e-01     -5.35073875e-01     
H    9.58806620e-01      4.73683323e-01      6.27473958e-02      
H    -6.95669695e-01     6.52523468e-01      -3.04686706e-01     
C    -3.16260892e-01     -3.63889659e-01     1.44252029e+00      
H    4.19832853e-01      -1.05119282e+00     1.84888733e+00      
H    -3.42760598e-01     5.33439147e-01      2.05305528e+00      
C    -1.68098909e+00     -1.02961646e+00     1.41296798e+00      
O    -2.20129890e+00     -1.42656941e+00     3.85231631e-01      
O    -2.17563017e+00     -1.11266372e+00     2.62824991e+00      
H    -3.10720915e+00     -1.49879827e+00     2.58310418e+00      
O    -1.92615692e+00     1.79816406e+00      -3.97075824e-01     
H    -2.81774054e+00     1.62695295e+00      -4.36415473e-02     
H    -2.00773668e+00     2.54464617e+00      -9.92435161e-01     
O    1.89759217e-01      -2.51250035e+00     -1.09547810e+00     
H    -6.78436234e-01     -2.92174404e+00     -1.04603937e+00     
H    6.37548644e-01      -2.93035526e+00     -1.83579831e+00     
O    -4.35134222e+00     1.12350842e+00      6.85538817e-01      
H    -4.66643717e+00     1.32313708e+00      1.56864555e+00      
H    -4.74967642e+00     2.78878935e-01      4.42353628e-01      
O    -4.63157103e+00     -1.96574005e+00     2.52515858e+00      
H    -4.97441191e+00     -2.07260454e+00     1.62718102e+00      
H    -5.04809262e+00     -2.63462067e+00     3.07593965e+00      
O    -5.01962943e+00     -1.53720385e+00     -2.02687802e-01     
H    -5.64479077e+00     -1.80724061e+00     -8.80311979e-01     
H    -4.14486226e+00     -1.71709888e+00     -5.60274449e-01     
O    2.51140189e+00      1.25721762e+00      4.24831818e-01      
H    2.65110103e+00      2.20448063e+00      4.92690549e-01      
H    3.38570838e+00      8.80126458e-01      3.03148026e-01      
29
179.115441
N    3.77845602e-02      -2.08984953e-03     5.77906040e-02      
H    7.37955894e-02      -8.58761502e-01     -5.34365967e-01     
H    9.59240869e-01      4.73947337e-01      6.32087289e-02      
H    -6.95399091e-01     6.51963024e-01      -3.04704052e-01     
C    -3.16174787e-01     -3.63249083e-01     1.44279964e+00      
H    4.19840113e-01      -1.05008467e+00     1.85007960e+00      
H    -3.43371644e-01     5.34402874e-01      2.05283629e+00      
C    -1.68068277e+00     -1.02924133e+00     1.41263232e+00      
O    -2.20070598e+00     -1.42583170e+00     3.84573301e-01      
O    -2.17564584e+00     -1.11280196e+00     2.62769745e+00      
H    -3.10724161e+00     -1.49896194e+00     2.58223809e+00      
O    -1.92536173e+00     1.79625177e+00      -3.96282607e-01     
H    -2.81712294e+00     1.62515777e+00      -4.31452174e-02     
H    -2.00647878e+00     2.54322792e+00      -9.91092828e-01     
O    1.89968176e-01      -2.51071351e+00     -1.09451072e+00     
H    -6.79130505e-01     -2.91808280e+00     -1.04465032e+00     
H    6.35183320e-01      -2.92702551e+00     -1.83732160e+00     
O    -4.35070672e+00     1.12412465e+00      6.85052651e-01      
H    -4.66284300e+00     1.32217815e+00      1.56960896e+00      
H    -4.74873477e+00     2.79179499e-01      4.42437481e-01      
O    -4.63103473e+00     -1.96548417e+00     2.52442243e+00      
H    -4.97416799e+00     -2.07259265e+00     1.62657563e+00      
H    -5.04741011e+00     -2.63411891e+00     3.07562674e+00      
O    -5.01961195e+00     -1.53754690e+00     -2.01923894e-01     
H    -5.64536220e+00     -1.80725361e+00     -8.79144045e-01     
H    -4.14515451e+00     -1.71756001e+00     -5.60208515e-01     
O    2.50804369e+00      1.25545805e+00      4.24655182e-01      
H    2.64767916e+00      2.20302089e+00      4.89045457e-01      
H    3.38192311e+00      8.78352616e-01      2.99627755e-01      
29
179.115441
N    3.83199610e-02      -2.17746493e-03     5.81405507e-02      
H    7.47325718e-02      -8.59169263e-01     -5.33658060e-01     
H    9.59675118e-01      4.74211351e-01      6.36700620e-02      
H    -6.95128487e-01     6.51402580e-01      -3.04721399e-01     
C    -3.16088681e-01     -3.62608507e-01     1.44307900e+00      
H    4.19847373e-01      -1.04897652e+00     1.85127187e+00      
H    -3.43982690e-01     5.35366602e-01      2.05261730e+00      
C    -1.68037646e+00     -1.02886621e+00     1.41229666e+00      
O    -2.20011307e+00     -1.42509398e+00     3.83914972e-01      
O    -2.17566152e+00     -1.11294019e+00     2.62714499e+00      
H    -3.10727406e+00     -1.49912561e+00     2.58137201e+00      
O    -1.92456653e+00     1.79433949e+00      -3.95489390e-01     
H    -2.81650535e+00     1.62336260e+00      -4.26488874e-02     
H    -2.00522089e+00     2.54180968e+00      -9.89750495e-01     
O    1.90177135e-01      -2.50892668e+00     -1.09354335e+00     
H    -6.79824775e-01     -2.91442156e+00     -1.04326127e+00     
H    6.32817996e-01      -2.92369577e+00     -1.83884490e+00     
O    -4.35007122e+00     1.12474088e+00      6.84566484e-01      
H    -4.65924883e+00     1.32121922e+00      1.57057236e+00      
H    -4.74779313e+00     2.79480062e-01      4.42521333e-01      
O    -4.63049843e+00     -1.96522828e+00     2.52368629e+00      
H    -4.97392407e+00     -2.07258076e+00     1.62597024e+00      
H    -5.04672759e+00     -2.63361716e+00     3.07531384e+00      
O    -5.01959447e+00     -1.53788995e+00     -2.01159987e-01     
H    -5.64593363e+00     -1.80726661e+00     -8.77976112e-01     
H    -4.14544676e+00     -1.71802113e+00     -5.60142582e-01     
O    2.50468549e+00      1.25369849e+00      4.24478546e-01      
H    2.64425729e+00      2.20156115e+00      4.85400364e-01      
H    3.37813785e+00      8.76578774e-01      2.96107484e-01      
29
179.115441
N    3.93907626e-02      -2.35269572e-03     5.88404441e-02      
H    7.66065365e-02      -8.59984785e-01     -5.32242244e-01     
H    9.60543615e-01      4.74739380e-01      6.45927281e-02      
H    -6.94587279e-01     6.50281692e-01      -3.04756091e-01     
C    -3.15916470e-01     -3.61327355e-01     1.44363771e+00      
H    4.19861893e-01      -1.04676023e+00     1.85365642e+00      
H    -3.45204782e-01     5.37294056e-01      2.05217932e+00      
C    -1.67976383e+00     -1.02811595e+00     1.41162534e+00      
O    -2.19892725e+00     -1.42361854e+00     3.82598312e-01      
O    -2.17569286e+00     -1.11321667e+00     2.62604006e+00      
H    -3.10733896e+00     -1.49945294e+00     2.57963985e+00      
O    -1.92297613e+00     1.79051493e+00      -3.93902955e-01     
H    -2.81527016e+00     1.61977224e+00      -4.16562275e-02     
H    -2.00270509e+00     2.53897319e+00      -9.87065830e-01     
O    1.90595053e-01      -2.50535302e+00     -1.09160861e+00     
H    -6.81213317e-01     -2.90709907e+00     -1.04048317e+00     
H    6.28087348e-01      -2.91703629e+00     -1.84189150e+00     
O    -4.34880023e+00     1.12597334e+00      6.83594151e-01      
H    -4.65206049e+00     1.31930135e+00      1.57249918e+00      
H    -4.74590985e+00     2.80081188e-01      4.42689037e-01      
O    -4.62942584e+00     -1.96471650e+00     2.52221401e+00      
H    -4.97343623e+00     -2.07255698e+00     1.62475946e+00      
H    -5.04536257e+00     -2.63261365e+00     3.07468802e+00      
O    -5.01955951e+00     -1.53857604e+00     -1.99632173e-01     
H    -5.64707649e+00     -1.80729262e+00     -8.75640246e-01     
H    -4.14603126e+00     -1.71894337e+00     -5.60010716e-01     
O    2.49796910e+00      1.25017937e+00      4.24125274e-01      
H    2.63741355e+00      2.19864167e+00      4.78110178e-01      
H    3.37056731e+00      8.73031091e-01      2.89066943e-01      
29
179.115441
N    4.04615641e-02      -2.52792651e-03     5.95403376e-02      
H    7.84805012e-02      -8.60800306e-01     -5.30826428e-01     
H    9.61412113e-01      4.75267408e-01      6.55153942e-02      
H    -6.94046071e-01     6.49160805e-01      -3.04790783e-01     
C    -3.15744259e-01     -3.60046203e-01     1.44419642e+00      
H    4.19876413e-01      -1.04454394e+00     1.85604096e+00      
H    -3.46426874e-01     5.39221511e-01      2.05174134e+00      
C    -1.67915120e+00     -1.02736569e+00     1.41095401e+00      
O    -2.19774142e+00     -1.42214311e+00     3.81281653e-01      
O    -2.17572420e+00     -1.11349315e+00     2.62493513e+00      
H    -3.10740387e+00     -1.49978028e+00     2.57790769e+00      
O    -1.92138574e+00     1.78669037e+00      -3.92316521e-01     
H    -2.81403497e+00     1.61618189e+00      -4.06635677e-02     
H    -2.00018930e+00     2.53613670e+00      -9.84381164e-01     
O    1.91012971e-01      -2.50177936e+00     -1.08967386e+00     
H    -6.82601858e-01     -2.89977658e+00     -1.03770507e+00     
H    6.23356700e-01      -2.91037681e+00     -1.84493809e+00     
O    -4.34752923e+00     1.12720579e+00      6.82621819e-01      
H    -4.64487215e+00     1.31738349e+00      1.57442599e+00      
H    -4.74402657e+00     2.80682314e-01      4.42856742e-01      
O    -4.62835324e+00     -1.96420473e+00     2.52074173e+00      
H    -4.97294839e+00     -2.07253320e+00     1.62354868e+00      
H    -5.04399755e+00     -2.63161014e+00     3.07406221e+00      
O    -5.01952455e+00     -1.53926214e+00     -1.98104359e-01     
H    -5.64821935e+00     -1.80731862e+00     -8.73304379e-01     
H    -4.14661575e+00     -1.71986562e+00     -5.59878850e-01     
O    2.49125270e+00      1.24666024e+00      4.23772002e-01      
H    2.63056981e+00      2.19572219e+00      4.70819992e-01      
H    3.36299678e+00      8.69483408e-01      2.82026401e-01      
29
179.115441
N    4.15323657e-02      -2.70315731e-03     6.02402310e-02      
H    8.03544658e-02      -8.61615828e-01     -5.29410612e-01     
H    9.62280611e-01      4.75795437e-01      6.64380604e-02      
H    -6.93504863e-01     6.48039917e-01      -3.04825476e-01     
C    -3.15572048e-01     -3.58765051e-01     1.44475513e+00      
H    4.19890933e-01      -1.04232764e+00     1.85842551e+00      
H    -3.47648966e-01     5.41148966e-01      2.05130336e+00      
C    -1.67853857e+00     -1.02661544e+00     1.41028269e+00      
O    -2.19655560e+00     -1.42066767e+00     3.79964994e-01      
O    -2.17575555e+00     -1.11376962e+00     2.62383020e+00      
H    -3.10746877e+00     -1.50010761e+00     2.57617552e+00      
O    -1.91979534e+00     1.78286580e+00      -3.90730086e-01     
H    -2.81279978e+00     1.61259154e+00      -3.96709078e-02     
H    -1.99767351e+00     2.53330020e+00      -9.81696498e-01     
O    1.91430888e-01      -2.49820569e+00     -1.08773912e+00     
H    -6.83990399e-01     -2.89245409e+00     -1.03492697e+00     
H    6.18626052e-01      -2.90371732e+00     -1.84798469e+00     
O    -4.34625824e+00     1.12843825e+00      6.81649486e-01      
H    -4.63768382e+00     1.31546562e+00      1.57635280e+00      
H    -4.74214328e+00     2.81283441e-01      4.43024446e-01      
O    -4.62728065e+00     -1.96369295e+00     2.51926944e+00      
H    -4.97246054e+00     -2.07250942e+00     1.62233790e+00      
H    -5.04263253e+00     -2.63060663e+00     3.07343640e+00      
O    -5.01948959e+00     -1.53994823e+00     -1.96576544e-01     
H    -5.64936221e+00     -1.80734463e+00     -8.70968513e-01     
H    -4.14720025e+00     -1.72078786e+00     -5.59746983e-01     
O    2.48453631e+00      1.24314112e+00      4.23418730e-01      
H    2.62372607e+00      2.19280271e+00      4.63529807e-01      
H    3.35542625e+00      8.65935724e-01      2.74985859e-01      
29
179.115441
N    4.26031673e-02      -2.87838810e-03     6.09401244e-02      
H    8.22284305e-02      -8.62431349e-01     -5.27994797e-01     
H    9.63149109e-01      4.76323465e-01      6.73607265e-02      
H    -6.92963655e-01     6.46919029e-01      -3.04860168e-01     
C    -3.15399838e-01     -3.57483899e-01     1.44531384e+00      
H    4.19905452e-01      -1.04011135e+00     1.86081005e+00      
H    -3.48871058e-01     5.43076421e-01      2.05086538e+00      
C    -1.67792594e+00     -1.02586518e+00     1.40961137e+00      
O    -2.19536977e+00     -1.41919224e+00     3.78648335e-01      
O    -2.17578689e+00     -1.11404610e+00     2.62272528e+00      
H    -3.10753368e+00     -1.50043494e+00     2.57444336e+00      
O    -1.91820494e+00     1.77904124e+00      -3.89143652e-01     
H    -2.81156459e+00     1.60900119e+00      -3.86782479e-02     
H    -1.99515772e+00     2.53046371e+00      -9.79011832e-01     
O    1.91848806e-01      -2.49463203e+00     -1.08580437e+00     
H    -6.85378940e-01     -2.88513161e+00     -1.03214887e+00     
H    6.13895404e-01      -2.89705784e+00     -1.85103128e+00     
O    -4.34498724e+00     1.12967071e+00      6.80677153e-01      
H    -4.63049548e+00     1.31354775e+00      1.57827961e+00      
H    -4.74026000e+00     2.81884567e-01      4.43192150e-01      
O    -4.62620805e+00     -1.96318117e+00     2.51779716e+00      
H    -4.97197270e+00     -2.07248564e+00     1.62112712e+00      
H    -5.04126750e+00     -2.62960312e+00     3.07281059e+00      
O    -5.01945463e+00     -1.54063433e+00     -1.95048730e-01     
H    -5.65050507e+00     -1.80737063e+00     -8.68632646e-01     
H    -4.14778475e+00     -1.72171011e+00     -5.59615117e-01     
O    2.47781991e+00      1.23962200e+00      4.23065458e-01      
H    2.61688233e+00      2.18988323e+00      4.56239621e-01      
H    3.34785572e+00      8.62388041e-01      2.67945317e-01      
29
179.115441
N    4.47447705e-02      -3.22884969e-03     6.23399113e-02      
H    8.59763599e-02      -8.64062393e-01     -5.25163165e-01     
H    9.64886105e-01      4.77379523e-01      6.92060588e-02      
H    -6.91881240e-01     6.44677253e-01      -3.04929552e-01     
C    -3.15055416e-01     -3.54921594e-01     1.44643126e+00      
H    4.19934492e-01      -1.03567876e+00     1.86557915e+00      
H    -3.51315242e-01     5.46931330e-01      2.04998942e+00      
C    -1.67670068e+00     -1.02436466e+00     1.40826873e+00      
O    -2.19299812e+00     -1.41624137e+00     3.76015016e-01      
O    -2.17584958e+00     -1.11459905e+00     2.62051542e+00      
H    -3.10766348e+00     -1.50108961e+00     2.57097903e+00      
O    -1.91502415e+00     1.77139211e+00      -3.85970783e-01     
H    -2.80909421e+00     1.60182049e+00      -3.66929281e-02     
H    -1.99012614e+00     2.52479073e+00      -9.73642501e-01     
O    1.92684642e-01      -2.48748470e+00     -1.08193488e+00     
H    -6.88156022e-01     -2.87048663e+00     -1.02659267e+00     
H    6.04434108e-01      -2.88373887e+00     -1.85712447e+00     
O    -4.34244525e+00     1.13213563e+00      6.78732487e-01      
H    -4.61611880e+00     1.30971202e+00      1.58213324e+00      
H    -4.73649343e+00     2.83086820e-01      4.43527559e-01      
O    -4.62406286e+00     -1.96215762e+00     2.51485259e+00      
H    -4.97099702e+00     -2.07243807e+00     1.61870556e+00      
H    -5.03853746e+00     -2.62759609e+00     3.07155896e+00      
O    -5.01938471e+00     -1.54200652e+00     -1.91993101e-01     
H    -5.65279079e+00     -1.80742264e+00     -8.63960914e-01     
H    -4.14895375e+00     -1.72355460e+00     -5.59351384e-01     
O    2.46438712e+00      1.23258375e+00      4.22358914e-01      
H    2.60319485e+00      2.18404427e+00      4.41659250e-01      
H    3.33271465e+00      8.55292674e-01      2.53864233e-01      
