29
249.255352
N    4.22019677e-02      -1.64396575e-02     4.81309011e-02      
H    7.88299088e-02      -8.77601173e-01     -5.39021860e-01     
H    9.65019789e-01      4.56289606e-01      5.56278849e-02      
H    -6.84235894e-01     6.40050133e-01      -3.20906684e-01     
C    -3.18050815e-01     -3.65892662e-01     1.43508072e+00      
H    4.16735469e-01      -1.04899589e+00     1.85082600e+00      
H    -3.45132807e-01     5.37894693e-01      2.03651879e+00      
C    -1.68348198e+00     -1.03111828e+00     1.41443296e+00      
O    -2.21142908e+00     -1.43117621e+00     3.92079050e-01      
O    -2.17077152e+00     -1.11147076e+00     2.63396963e+00      
H    -3.10164698e+00     -1.49708983e+00     2.59093173e+00      
O    -1.91030565e+00     1.80793290e+00      -4.08565996e-01     
H    -2.80262335e+00     1.64245835e+00      -5.46077677e-02     
H    -1.98445995e+00     2.56928772e+00      -9.86385791e-01     
O    1.88264435e-01      -2.49915620e+00     -1.09159342e+00     
H    -6.75866627e-01     -2.91793341e+00     -1.05032202e+00     
H    6.56328603e-01      -2.92446260e+00     -1.81512355e+00     
O    -4.37613373e+00     1.11387807e+00      6.92649360e-01      
H    -4.70828753e+00     1.33303912e+00      1.56495545e+00      
H    -4.71649424e+00     2.30211783e-01      4.88889737e-01      
O    -4.63568237e+00     -1.96791997e+00     2.51761230e+00      
H    -4.97377696e+00     -2.09800742e+00     1.62138040e+00      
H    -5.08349250e+00     -2.59718781e+00     3.09228281e+00      
O    -5.01048059e+00     -1.54024500e+00     -1.94981527e-01     
H    -5.67783663e+00     -1.67361752e+00     -8.88510460e-01     
H    -4.15995018e+00     -1.73661760e+00     -6.02389683e-01     
O    2.52108110e+00      1.25975267e+00      4.27552844e-01      
H    2.64009846e+00      2.21126081e+00      4.80695555e-01      
H    3.40271162e+00      9.02040035e-01      2.97823769e-01      
29
249.255352
N    4.06960653e-02      -1.27864939e-02     5.02833668e-02      
H    7.68685922e-02      -8.72585435e-01     -5.38388818e-01     
H    9.63249372e-01      4.60506028e-01      5.71770961e-02      
H    -6.87229646e-01     6.43448688e-01      -3.16843016e-01     
C    -3.17646387e-01     -3.65712199e-01     1.43680093e+00      
H    4.17506185e-01      -1.05009920e+00     1.84974519e+00      
H    -3.44234232e-01     5.36298943e-01      2.04076241e+00      
C    -1.68301192e+00     -1.03093039e+00     1.41423455e+00      
O    -2.20919299e+00     -1.43039337e+00     3.90696360e-01      
O    -2.17197835e+00     -1.11169988e+00     2.63281593e+00      
H    -3.10302129e+00     -1.49743511e+00     2.58940788e+00      
O    -1.91466607e+00     1.80644683e+00      -4.06090062e-01     
H    -2.80671145e+00     1.63947959e+00      -5.21143775e-02     
H    -1.99090808e+00     2.56383645e+00      -9.88569300e-01     
O    1.88533651e-01      -2.50338565e+00     -1.09304827e+00     
H    -6.76161893e-01     -2.92071669e+00     -1.04994588e+00     
H    6.52816276e-01      -2.92760064e+00     -1.81953059e+00     
O    -4.37025360e+00     1.11597754e+00      6.91114807e-01      
H    -4.69962203e+00     1.33104308e+00      1.56539627e+00      
H    -4.72526061e+00     2.42228289e-01      4.77213784e-01      
O    -4.63492268e+00     -1.96750294e+00     2.51986694e+00      
H    -4.97405765e+00     -2.09166264e+00     1.62313325e+00      
H    -5.07498378e+00     -2.60679690e+00     3.08835347e+00      
O    -5.01277654e+00     -1.53931319e+00     -1.97290049e-01     
H    -5.66928945e+00     -1.70701679e+00     -8.87044806e-01     
H    -4.15603207e+00     -1.73150736e+00     -5.91893841e-01     
O    2.52034040e+00      1.25999869e+00      4.26960905e-01      
H    2.64456004e+00      2.21029563e+00      4.85516850e-01      
H    3.40035344e+00      8.97448561e-01      3.00914969e-01      
29
249.255352
N    3.99431140e-02      -1.09599122e-02     5.13595996e-02      
H    7.58879339e-02      -8.70077566e-01     -5.38072297e-01     
H    9.62364164e-01      4.62614239e-01      5.79517017e-02      
H    -6.88726522e-01     6.45147966e-01      -3.14811183e-01     
C    -3.17444173e-01     -3.65621968e-01     1.43766104e+00      
H    4.17891543e-01      -1.05065085e+00     1.84920479e+00      
H    -3.43784944e-01     5.35501068e-01      2.04288422e+00      
C    -1.68277688e+00     -1.03083645e+00     1.41413534e+00      
O    -2.20807494e+00     -1.43000195e+00     3.90005015e-01      
O    -2.17258176e+00     -1.11181444e+00     2.63223908e+00      
H    -3.10370845e+00     -1.49760775e+00     2.58864596e+00      
O    -1.91684627e+00     1.80570380e+00      -4.04852095e-01     
H    -2.80875549e+00     1.63799021e+00      -5.08676825e-02     
H    -1.99413215e+00     2.56111082e+00      -9.89661054e-01     
O    1.88668259e-01      -2.50550038e+00     -1.09377570e+00     
H    -6.76309527e-01     -2.92210833e+00     -1.04975782e+00     
H    6.51060112e-01      -2.92916965e+00     -1.82173411e+00     
O    -4.36731353e+00     1.11702728e+00      6.90347531e-01      
H    -4.69528927e+00     1.33004506e+00      1.56561669e+00      
H    -4.72964379e+00     2.48236543e-01      4.71375807e-01      
O    -4.63454284e+00     -1.96729442e+00     2.52099426e+00      
H    -4.97419800e+00     -2.08849026e+00     1.62400967e+00      
H    -5.07072942e+00     -2.61160145e+00     3.08638880e+00      
O    -5.01392452e+00     -1.53884729e+00     -1.98444310e-01     
H    -5.66501586e+00     -1.72371643e+00     -8.86311980e-01     
H    -4.15407302e+00     -1.72895224e+00     -5.86645920e-01     
O    2.51997004e+00      1.26012170e+00      4.26664936e-01      
H    2.64679083e+00      2.20981305e+00      4.87927497e-01      
H    3.39917435e+00      8.95152825e-01      3.02460569e-01      
29
249.255352
N    3.91901628e-02      -9.13333040e-03     5.24358324e-02      
H    7.49072756e-02      -8.67569697e-01     -5.37755776e-01     
H    9.61478955e-01      4.64722450e-01      5.87263073e-02      
H    -6.90223399e-01     6.46847244e-01      -3.12779349e-01     
C    -3.17241959e-01     -3.65531736e-01     1.43852115e+00      
H    4.18276901e-01      -1.05120250e+00     1.84866439e+00      
H    -3.43335656e-01     5.34703192e-01      2.04500602e+00      
C    -1.68254185e+00     -1.03074250e+00     1.41403613e+00      
O    -2.20695690e+00     -1.42961053e+00     3.89313670e-01      
O    -2.17318517e+00     -1.11192900e+00     2.63166224e+00      
H    -3.10439561e+00     -1.49778039e+00     2.58788403e+00      
O    -1.91902648e+00     1.80496076e+00      -4.03614127e-01     
H    -2.81079954e+00     1.63650083e+00      -4.96209874e-02     
H    -1.99735621e+00     2.55838519e+00      -9.90752809e-01     
O    1.88802867e-01      -2.50761511e+00     -1.09450313e+00     
H    -6.76457160e-01     -2.92349997e+00     -1.04956975e+00     
H    6.49303948e-01      -2.93073867e+00     -1.82393763e+00     
O    -4.36437347e+00     1.11807701e+00      6.89580255e-01      
H    -4.69095652e+00     1.32904703e+00      1.56583710e+00      
H    -4.73402697e+00     2.54244796e-01      4.65537830e-01      
O    -4.63416300e+00     -1.96708590e+00     2.52212158e+00      
H    -4.97433835e+00     -2.08531787e+00     1.62488610e+00      
H    -5.06647507e+00     -2.61640599e+00     3.08442414e+00      
O    -5.01507249e+00     -1.53838138e+00     -1.99598571e-01     
H    -5.66074227e+00     -1.74041606e+00     -8.85579153e-01     
H    -4.15211397e+00     -1.72639712e+00     -5.81397999e-01     
O    2.51959969e+00      1.26024470e+00      4.26368967e-01      
H    2.64902161e+00      2.20933046e+00      4.90338145e-01      
H    3.39799527e+00      8.92857088e-01      3.04006169e-01      
29
249.255352
N    3.84372115e-02      -7.30674864e-03     5.35120653e-02      
H    7.39266173e-02      -8.65061827e-01     -5.37439255e-01     
H    9.60593747e-01      4.66830661e-01      5.95009129e-02      
H    -6.91720275e-01     6.48546522e-01      -3.10747515e-01     
C    -3.17039745e-01     -3.65441505e-01     1.43938126e+00      
H    4.18662259e-01      -1.05175415e+00     1.84812399e+00      
H    -3.42886369e-01     5.33905317e-01      2.04712783e+00      
C    -1.68230682e+00     -1.03064856e+00     1.41393692e+00      
O    -2.20583885e+00     -1.42921911e+00     3.88622325e-01      
O    -2.17378859e+00     -1.11204356e+00     2.63108539e+00      
H    -3.10508277e+00     -1.49795303e+00     2.58712211e+00      
O    -1.92120669e+00     1.80421773e+00      -4.02376160e-01     
H    -2.81284359e+00     1.63501145e+00      -4.83742924e-02     
H    -2.00058028e+00     2.55565956e+00      -9.91844563e-01     
O    1.88937475e-01      -2.50972983e+00     -1.09523056e+00     
H    -6.76604793e-01     -2.92489161e+00     -1.04938168e+00     
H    6.47547784e-01      -2.93230769e+00     -1.82614115e+00     
O    -4.36143340e+00     1.11912675e+00      6.88812979e-01      
H    -4.68662377e+00     1.32804901e+00      1.56605751e+00      
H    -4.73841015e+00     2.60253049e-01      4.59699854e-01      
O    -4.63378315e+00     -1.96687738e+00     2.52324890e+00      
H    -4.97447870e+00     -2.08214548e+00     1.62576252e+00      
H    -5.06222071e+00     -2.62121054e+00     3.08245947e+00      
O    -5.01622047e+00     -1.53791548e+00     -2.00752832e-01     
H    -5.65646868e+00     -1.75711570e+00     -8.84846326e-01     
H    -4.15015492e+00     -1.72384200e+00     -5.76150078e-01     
O    2.51922934e+00      1.26036771e+00      4.26072998e-01      
H    2.65125240e+00      2.20884787e+00      4.92748792e-01      
H    3.39681618e+00      8.90561351e-01      3.05551769e-01      
29
249.255352
N    3.76842603e-02      -5.48016687e-03     5.45882981e-02      
H    7.29459590e-02      -8.62553958e-01     -5.37122733e-01     
H    9.59708539e-01      4.68938872e-01      6.02755185e-02      
H    -6.93217151e-01     6.50245800e-01      -3.08715681e-01     
C    -3.16837531e-01     -3.65351274e-01     1.44024136e+00      
H    4.19047617e-01      -1.05230581e+00     1.84758358e+00      
H    -3.42437081e-01     5.33107442e-01      2.04924964e+00      
C    -1.68207179e+00     -1.03055461e+00     1.41383772e+00      
O    -2.20472081e+00     -1.42882769e+00     3.87930980e-01      
O    -2.17439200e+00     -1.11215812e+00     2.63050854e+00      
H    -3.10576993e+00     -1.49812566e+00     2.58636019e+00      
O    -1.92338690e+00     1.80347469e+00      -4.01138193e-01     
H    -2.81488764e+00     1.63352206e+00      -4.71275973e-02     
H    -2.00380434e+00     2.55293392e+00      -9.92936318e-01     
O    1.89072083e-01      -2.51184456e+00     -1.09595798e+00     
H    -6.76752426e-01     -2.92628325e+00     -1.04919361e+00     
H    6.45791620e-01      -2.93387671e+00     -1.82834467e+00     
O    -4.35849334e+00     1.12017649e+00      6.88045702e-01      
H    -4.68229102e+00     1.32705099e+00      1.56627792e+00      
H    -4.74279334e+00     2.66261302e-01      4.53861877e-01      
O    -4.63340331e+00     -1.96666887e+00     2.52437622e+00      
H    -4.97461905e+00     -2.07897309e+00     1.62663895e+00      
H    -5.05796635e+00     -2.62601509e+00     3.08049480e+00      
O    -5.01736844e+00     -1.53744957e+00     -2.01907094e-01     
H    -5.65219509e+00     -1.77381533e+00     -8.84113499e-01     
H    -4.14819586e+00     -1.72128688e+00     -5.70902157e-01     
O    2.51885899e+00      1.26049072e+00      4.25777028e-01      
H    2.65348319e+00      2.20836528e+00      4.95159440e-01      
H    3.39563709e+00      8.88265614e-01      3.07097368e-01      
29
249.255352
N    3.73077847e-02      -4.56687599e-03     5.51264145e-02      
H    7.24556298e-02      -8.61300024e-01     -5.36964473e-01     
H    9.59265935e-01      4.69992977e-01      6.06628213e-02      
H    -6.93965589e-01     6.51095439e-01      -3.07699765e-01     
C    -3.16736424e-01     -3.65306158e-01     1.44067142e+00      
H    4.19240296e-01      -1.05258163e+00     1.84731338e+00      
H    -3.42212437e-01     5.32708505e-01      2.05031055e+00      
C    -1.68195427e+00     -1.03050764e+00     1.41378811e+00      
O    -2.20416179e+00     -1.42863198e+00     3.87585307e-01      
O    -2.17469371e+00     -1.11221540e+00     2.63022011e+00      
H    -3.10611351e+00     -1.49821198e+00     2.58597923e+00      
O    -1.92447701e+00     1.80310317e+00      -4.00519210e-01     
H    -2.81590966e+00     1.63277737e+00      -4.65042498e-02     
H    -2.00541637e+00     2.55157111e+00      -9.93482195e-01     
O    1.89139387e-01      -2.51290192e+00     -1.09632170e+00     
H    -6.76826243e-01     -2.92697907e+00     -1.04909957e+00     
H    6.44913538e-01      -2.93466121e+00     -1.82944643e+00     
O    -4.35702331e+00     1.12070135e+00      6.87662064e-01      
H    -4.68012464e+00     1.32655198e+00      1.56638812e+00      
H    -4.74498493e+00     2.69265429e-01      4.50942889e-01      
O    -4.63321339e+00     -1.96656461e+00     2.52493988e+00      
H    -4.97468923e+00     -2.07738690e+00     1.62707716e+00      
H    -5.05583918e+00     -2.62841736e+00     3.07951246e+00      
O    -5.01794243e+00     -1.53721662e+00     -2.02484224e-01     
H    -5.65005830e+00     -1.78216515e+00     -8.83747085e-01     
H    -4.14721634e+00     -1.72000932e+00     -5.68278196e-01     
O    2.51867381e+00      1.26055223e+00      4.25629044e-01      
H    2.65459859e+00      2.20812399e+00      4.96364764e-01      
H    3.39504754e+00      8.87117746e-01      3.07870168e-01      
29
249.255352
N    3.69313090e-02      -3.65358511e-03     5.56645310e-02      
H    7.19653007e-02      -8.60046089e-01     -5.36806212e-01     
H    9.58823330e-01      4.71047083e-01      6.10501241e-02      
H    -6.94714027e-01     6.51945078e-01      -3.06683848e-01     
C    -3.16635317e-01     -3.65261042e-01     1.44110147e+00      
H    4.19432975e-01      -1.05285746e+00     1.84704318e+00      
H    -3.41987794e-01     5.32309567e-01      2.05137145e+00      
C    -1.68183675e+00     -1.03046067e+00     1.41373851e+00      
O    -2.20360276e+00     -1.42843627e+00     3.87239635e-01      
O    -2.17499542e+00     -1.11227268e+00     2.62993169e+00      
H    -3.10645709e+00     -1.49829830e+00     2.58559826e+00      
O    -1.92556711e+00     1.80273166e+00      -3.99900226e-01     
H    -2.81693168e+00     1.63203268e+00      -4.58809023e-02     
H    -2.00702841e+00     2.55020829e+00      -9.94028072e-01     
O    1.89206691e-01      -2.51395928e+00     -1.09668541e+00     
H    -6.76900060e-01     -2.92767489e+00     -1.04900554e+00     
H    6.44035456e-01      -2.93544572e+00     -1.83054819e+00     
O    -4.35555327e+00     1.12122622e+00      6.87278426e-01      
H    -4.67795826e+00     1.32605297e+00      1.56649833e+00      
H    -4.74717652e+00     2.72269556e-01      4.48023901e-01      
O    -4.63302346e+00     -1.96646035e+00     2.52550354e+00      
H    -4.97475940e+00     -2.07580071e+00     1.62751537e+00      
H    -5.05371200e+00     -2.63081963e+00     3.07853013e+00      
O    -5.01851642e+00     -1.53698367e+00     -2.03061355e-01     
H    -5.64792150e+00     -1.79051497e+00     -8.83380672e-01     
H    -4.14623681e+00     -1.71873176e+00     -5.65654236e-01     
O    2.51848863e+00      1.26061373e+00      4.25481059e-01      
H    2.65571398e+00      2.20788270e+00      4.97570087e-01      
H    3.39445800e+00      8.85969878e-01      3.08642968e-01      
29
249.255352
N    3.54254066e-02      -4.21574344e-07     5.78169966e-02      
H    7.00039841e-02      -8.55030351e-01     -5.36173170e-01     
H    9.57052914e-01      4.75263505e-01      6.25993353e-02      
H    -6.97707779e-01     6.55343634e-01      -3.02620180e-01     
C    -3.16230889e-01     -3.65080580e-01     1.44282169e+00      
H    4.20203691e-01      -1.05396076e+00     1.84596238e+00      
H    -3.41089218e-01     5.30713817e-01      2.05561507e+00      
C    -1.68136669e+00     -1.03027277e+00     1.41354009e+00      
O    -2.20136668e+00     -1.42765343e+00     3.85856945e-01      
O    -2.17620224e+00     -1.11250180e+00     2.62877799e+00      
H    -3.10783141e+00     -1.49864358e+00     2.58407442e+00      
O    -1.92992753e+00     1.80124558e+00      -3.97424292e-01     
H    -2.82101978e+00     1.62905392e+00      -4.33875121e-02     
H    -2.01347653e+00     2.54475703e+00      -9.96211582e-01     
O    1.89475907e-01      -2.51818874e+00     -1.09814027e+00     
H    -6.77195326e-01     -2.93045817e+00     -1.04862940e+00     
H    6.40523128e-01      -2.93858376e+00     -1.83495523e+00     
O    -4.34967315e+00     1.12332570e+00      6.85743874e-01      
H    -4.66929276e+00     1.32405693e+00      1.56693915e+00      
H    -4.75594288e+00     2.84286062e-01      4.36347947e-01      
O    -4.63226378e+00     -1.96604331e+00     2.52775818e+00      
H    -4.97504010e+00     -2.06945593e+00     1.62926823e+00      
H    -5.04520328e+00     -2.64042873e+00     3.07460079e+00      
O    -5.02081236e+00     -1.53605185e+00     -2.05369877e-01     
H    -5.63937432e+00     -1.82391423e+00     -8.81915018e-01     
H    -4.14231871e+00     -1.71362152e+00     -5.55158394e-01     
O    2.51774793e+00      1.26085975e+00      4.24889121e-01      
H    2.66017556e+00      2.20691752e+00      5.02391383e-01      
H    3.39209982e+00      8.81378404e-01      3.11734168e-01      
29
249.255352
N    3.50489309e-02      9.12869308e-04      5.83551131e-02      
H    6.95136550e-02      -8.53776416e-01     -5.36014909e-01     
H    9.56610309e-01      4.76317611e-01      6.29866381e-02      
H    -6.98456217e-01     6.56193273e-01      -3.01604263e-01     
C    -3.16129782e-01     -3.65035464e-01     1.44325174e+00      
H    4.20396370e-01      -1.05423659e+00     1.84569218e+00      
H    -3.40864575e-01     5.30314879e-01      2.05667597e+00      
C    -1.68124917e+00     -1.03022580e+00     1.41349049e+00      
O    -2.20080765e+00     -1.42745772e+00     3.85511273e-01      
O    -2.17650395e+00     -1.11255908e+00     2.62848957e+00      
H    -3.10817499e+00     -1.49872990e+00     2.58369345e+00      
O    -1.93101763e+00     1.80087407e+00      -3.96805308e-01     
H    -2.82204180e+00     1.62830923e+00      -4.27641646e-02     
H    -2.01508857e+00     2.54339421e+00      -9.96757459e-01     
O    1.89543211e-01      -2.51924610e+00     -1.09850398e+00     
H    -6.77269143e-01     -2.93115399e+00     -1.04853537e+00     
H    6.39645046e-01      -2.93936827e+00     -1.83605699e+00     
O    -4.34820311e+00     1.12385057e+00      6.85360236e-01      
H    -4.66712638e+00     1.32355792e+00      1.56704936e+00      
H    -4.75813447e+00     2.87290189e-01      4.33428959e-01      
O    -4.63207385e+00     -1.96593905e+00     2.52832184e+00      
H    -4.97511027e+00     -2.06786974e+00     1.62970644e+00      
H    -5.04307610e+00     -2.64283100e+00     3.07361846e+00      
O    -5.02138635e+00     -1.53581890e+00     -2.05947008e-01     
H    -5.63723752e+00     -1.83226405e+00     -8.81548605e-01     
H    -4.14133918e+00     -1.71234396e+00     -5.52534434e-01     
O    2.51756275e+00      1.26092125e+00      4.24741136e-01      
H    2.66129095e+00      2.20667623e+00      5.03596706e-01      
H    3.39151028e+00      8.80230536e-01      3.12506968e-01      
29
249.255352
N    3.46724553e-02      1.82616019e-03      5.88932295e-02      
H    6.90233258e-02      -8.52522482e-01     -5.35856649e-01     
H    9.56167705e-01      4.77371716e-01      6.33739409e-02      
H    -6.99204655e-01     6.57042912e-01      -3.00588347e-01     
C    -3.16028675e-01     -3.64990348e-01     1.44368180e+00      
H    4.20589049e-01      -1.05451241e+00     1.84542198e+00      
H    -3.40639931e-01     5.29915942e-01      2.05773688e+00      
C    -1.68113165e+00     -1.03017883e+00     1.41344088e+00      
O    -2.20024863e+00     -1.42726201e+00     3.85165600e-01      
O    -2.17680566e+00     -1.11261636e+00     2.62820114e+00      
H    -3.10851857e+00     -1.49881622e+00     2.58331249e+00      
O    -1.93210774e+00     1.80050255e+00      -3.96186325e-01     
H    -2.82306382e+00     1.62756454e+00      -4.21408171e-02     
H    -2.01670060e+00     2.54203140e+00      -9.97303336e-01     
O    1.89610515e-01      -2.52030346e+00     -1.09886770e+00     
H    -6.77342960e-01     -2.93184981e+00     -1.04844133e+00     
H    6.38766964e-01      -2.94015277e+00     -1.83715875e+00     
O    -4.34673308e+00     1.12437543e+00      6.84976598e-01      
H    -4.66496000e+00     1.32305891e+00      1.56715956e+00      
H    -4.76032606e+00     2.90294316e-01      4.30509971e-01      
O    -4.63188393e+00     -1.96583479e+00     2.52888550e+00      
H    -4.97518045e+00     -2.06628355e+00     1.63014465e+00      
H    -5.04094893e+00     -2.64523327e+00     3.07263612e+00      
O    -5.02196034e+00     -1.53558595e+00     -2.06524138e-01     
H    -5.63510073e+00     -1.84061387e+00     -8.81182191e-01     
H    -4.14035966e+00     -1.71106640e+00     -5.49910473e-01     
O    2.51737757e+00      1.26098276e+00      4.24593152e-01      
H    2.66240635e+00      2.20643494e+00      5.04802030e-01      
H    3.39092073e+00      8.79082668e-01      3.13279768e-01      
29
249.255352
N    3.39195041e-02      3.65274196e-03      5.99694623e-02      
H    6.80426675e-02      -8.50014613e-01     -5.35540127e-01     
H    9.55282497e-01      4.79479927e-01      6.41485465e-02      
H    -7.00701531e-01     6.58742190e-01      -2.98556513e-01     
C    -3.15826461e-01     -3.64900117e-01     1.44454190e+00      
H    4.20974407e-01      -1.05506407e+00     1.84488157e+00      
H    -3.40190643e-01     5.29118067e-01      2.05985869e+00      
C    -1.68089662e+00     -1.03008488e+00     1.41334168e+00      
O    -2.19913059e+00     -1.42687059e+00     3.84474255e-01      
O    -2.17740907e+00     -1.11273092e+00     2.62762429e+00      
H    -3.10920573e+00     -1.49898885e+00     2.58255057e+00      
O    -1.93428795e+00     1.79975951e+00      -3.94948358e-01     
H    -2.82510787e+00     1.62607515e+00      -4.08941220e-02     
H    -2.01992466e+00     2.53930576e+00      -9.98395091e-01     
O    1.89745123e-01      -2.52241819e+00     -1.09959512e+00     
H    -6.77490593e-01     -2.93324145e+00     -1.04825326e+00     
H    6.37010800e-01      -2.94172179e+00     -1.83936227e+00     
O    -4.34379302e+00     1.12542517e+00      6.84209321e-01      
H    -4.66062725e+00     1.32206089e+00      1.56737997e+00      
H    -4.76470925e+00     2.96302569e-01      4.24671994e-01      
O    -4.63150409e+00     -1.96562628e+00     2.53001282e+00      
H    -4.97532080e+00     -2.06311116e+00     1.63102108e+00      
H    -5.03669457e+00     -2.65003782e+00     3.07067145e+00      
O    -5.02310831e+00     -1.53512004e+00     -2.07678400e-01     
H    -5.63082714e+00     -1.85731350e+00     -8.80449364e-01     
H    -4.13840060e+00     -1.70851128e+00     -5.44662552e-01     
O    2.51700722e+00      1.26110577e+00      4.24297182e-01      
H    2.66463714e+00      2.20595235e+00      5.07212678e-01      
H    3.38974164e+00      8.76786931e-01      3.14825367e-01      
29
249.255352
N    3.31665528e-02      5.47932372e-03      6.10456952e-02      
H    6.70620092e-02      -8.47506743e-01     -5.35223606e-01     
H    9.54397289e-01      4.81588138e-01      6.49231521e-02      
H    -7.02198407e-01     6.60441468e-01      -2.96524679e-01     
C    -3.15624247e-01     -3.64809886e-01     1.44540201e+00      
H    4.21359765e-01      -1.05561572e+00     1.84434117e+00      
H    -3.39741356e-01     5.28320192e-01      2.06198050e+00      
C    -1.68066159e+00     -1.02999094e+00     1.41324247e+00      
O    -2.19801254e+00     -1.42647917e+00     3.83782910e-01      
O    -2.17801249e+00     -1.11284548e+00     2.62704744e+00      
H    -3.10989289e+00     -1.49916149e+00     2.58178865e+00      
O    -1.93646816e+00     1.79901648e+00      -3.93710391e-01     
H    -2.82715192e+00     1.62458577e+00      -3.96474270e-02     
H    -2.02314873e+00     2.53658013e+00      -9.99486845e-01     
O    1.89879731e-01      -2.52453291e+00     -1.10032255e+00     
H    -6.77638226e-01     -2.93463309e+00     -1.04806519e+00     
H    6.35254636e-01      -2.94329081e+00     -1.84156579e+00     
O    -4.34085295e+00     1.12647491e+00      6.83442045e-01      
H    -4.65629450e+00     1.32106287e+00      1.56760038e+00      
H    -4.76909243e+00     3.02310822e-01      4.18834018e-01      
O    -4.63112424e+00     -1.96541776e+00     2.53114014e+00      
H    -4.97546115e+00     -2.05993877e+00     1.63189750e+00      
H    -5.03244021e+00     -2.65484237e+00     3.06870678e+00      
O    -5.02425629e+00     -1.53465414e+00     -2.08832661e-01     
H    -5.62655355e+00     -1.87401314e+00     -8.79716537e-01     
H    -4.13644155e+00     -1.70595616e+00     -5.39414631e-01     
O    2.51663687e+00      1.26122878e+00      4.24001213e-01      
H    2.66686793e+00      2.20546976e+00      5.09623325e-01      
H    3.38856255e+00      8.74491194e-01      3.16370967e-01      
29
249.255352
N    3.24136016e-02      7.30590549e-03      6.21219280e-02      
H    6.60813509e-02      -8.44998874e-01     -5.34907085e-01     
H    9.53512080e-01      4.83696349e-01      6.56977577e-02      
H    -7.03695284e-01     6.62140746e-01      -2.94492845e-01     
C    -3.15422033e-01     -3.64719654e-01     1.44626212e+00      
H    4.21745123e-01      -1.05616737e+00     1.84380077e+00      
H    -3.39292068e-01     5.27522316e-01      2.06410230e+00      
C    -1.68042656e+00     -1.02989699e+00     1.41314326e+00      
O    -2.19689450e+00     -1.42608775e+00     3.83091565e-01      
O    -2.17861590e+00     -1.11296004e+00     2.62647060e+00      
H    -3.11058005e+00     -1.49933413e+00     2.58102672e+00      
O    -1.93864837e+00     1.79827344e+00      -3.92472423e-01     
H    -2.82919597e+00     1.62309639e+00      -3.84007319e-02     
H    -2.02637279e+00     2.53385450e+00      -1.00057860e+00     
O    1.90014339e-01      -2.52664764e+00     -1.10104998e+00     
H    -6.77785859e-01     -2.93602473e+00     -1.04787712e+00     
H    6.33498472e-01      -2.94485983e+00     -1.84376931e+00     
O    -4.33791289e+00     1.12752464e+00      6.82674769e-01      
H    -4.65196175e+00     1.32006484e+00      1.56782079e+00      
H    -4.77347561e+00     3.08319075e-01      4.12996041e-01      
O    -4.63074440e+00     -1.96520924e+00     2.53226746e+00      
H    -4.97560150e+00     -2.05676638e+00     1.63277393e+00      
H    -5.02818586e+00     -2.65964691e+00     3.06674212e+00      
O    -5.02540426e+00     -1.53418823e+00     -2.09986922e-01     
H    -5.62227996e+00     -1.89071277e+00     -8.78983710e-01     
H    -4.13448250e+00     -1.70340104e+00     -5.34166710e-01     
O    2.51626652e+00      1.26135178e+00      4.23705244e-01      
H    2.66909871e+00      2.20498717e+00      5.12033973e-01      
H    3.38738347e+00      8.72195457e-01      3.17916567e-01      
29
249.255352
N    3.16606503e-02      9.13248725e-03      6.31981608e-02      
H    6.51006926e-02      -8.42491005e-01     -5.34590564e-01     
H    9.52626872e-01      4.85804560e-01      6.64723633e-02      
H    -7.05192160e-01     6.63840024e-01      -2.92461012e-01     
C    -3.15219819e-01     -3.64629423e-01     1.44712223e+00      
H    4.22130481e-01      -1.05671902e+00     1.84326037e+00      
H    -3.38842780e-01     5.26724441e-01      2.06622411e+00      
C    -1.68019152e+00     -1.02980305e+00     1.41304405e+00      
O    -2.19577645e+00     -1.42569633e+00     3.82400220e-01      
O    -2.17921931e+00     -1.11307460e+00     2.62589375e+00      
H    -3.11126721e+00     -1.49950677e+00     2.58026480e+00      
O    -1.94082857e+00     1.79753041e+00      -3.91234456e-01     
H    -2.83124001e+00     1.62160701e+00      -3.71540369e-02     
H    -2.02959686e+00     2.53112887e+00      -1.00167035e+00     
O    1.90148947e-01      -2.52876237e+00     -1.10177741e+00     
H    -6.77933493e-01     -2.93741637e+00     -1.04768906e+00     
H    6.31742308e-01      -2.94642884e+00     -1.84597283e+00     
O    -4.33497282e+00     1.12857438e+00      6.81907493e-01      
H    -4.64762899e+00     1.31906682e+00      1.56804121e+00      
H    -4.77785879e+00     3.14327329e-01      4.07158064e-01      
O    -4.63036456e+00     -1.96500072e+00     2.53339478e+00      
H    -4.97574185e+00     -2.05359400e+00     1.63365035e+00      
H    -5.02393150e+00     -2.66445146e+00     3.06477745e+00      
O    -5.02655224e+00     -1.53372233e+00     -2.11141183e-01     
H    -5.61800637e+00     -1.90741241e+00     -8.78250884e-01     
H    -4.13252345e+00     -1.70084592e+00     -5.28918789e-01     
O    2.51589616e+00      1.26147479e+00      4.23409275e-01      
H    2.67132950e+00      2.20450459e+00      5.14444620e-01      
H    3.38620438e+00      8.69899721e-01      3.19462167e-01      
29
249.255352
N    3.01547479e-02      1.27856508e-02      6.53506265e-02      
H    6.31393760e-02      -8.37475267e-01     -5.33957522e-01     
H    9.50856455e-01      4.90020982e-01      6.80215745e-02      
H    -7.08185912e-01     6.67238579e-01      -2.88397344e-01     
C    -3.14815391e-01     -3.64448960e-01     1.44884244e+00      
H    4.22901197e-01      -1.05782233e+00     1.84217956e+00      
H    -3.37944205e-01     5.25128691e-01      2.07046773e+00      
C    -1.67972146e+00     -1.02961516e+00     1.41284564e+00      
O    -2.19354036e+00     -1.42491349e+00     3.81017530e-01      
O    -2.18042614e+00     -1.11330372e+00     2.62474005e+00      
H    -3.11264152e+00     -1.49985205e+00     2.57874095e+00      
O    -1.94518899e+00     1.79604434e+00      -3.88758522e-01     
H    -2.83532811e+00     1.61862825e+00      -3.46606467e-02     
H    -2.03604499e+00     2.52567760e+00      -1.00385386e+00     
O    1.90418163e-01      -2.53299182e+00     -1.10323226e+00     
H    -6.78228759e-01     -2.94019965e+00     -1.04731292e+00     
H    6.28229981e-01      -2.94956688e+00     -1.85037987e+00     
O    -4.32909269e+00     1.13067385e+00      6.80372940e-01      
H    -4.63896349e+00     1.31707078e+00      1.56848203e+00      
H    -4.78662516e+00     3.26343835e-01      3.95482111e-01      
O    -4.62960487e+00     -1.96458369e+00     2.53564942e+00      
H    -4.97602254e+00     -2.04724922e+00     1.63540320e+00      
H    -5.01542278e+00     -2.67406055e+00     3.06084811e+00      
O    -5.02884819e+00     -1.53279052e+00     -2.13449705e-01     
H    -5.60945919e+00     -1.94081168e+00     -8.76785230e-01     
H    -4.12860534e+00     -1.69573568e+00     -5.18422947e-01     
O    2.51515546e+00      1.26172081e+00      4.22817336e-01      
H    2.67579108e+00      2.20353941e+00      5.19265915e-01      
H    3.38384620e+00      8.65308247e-01      3.22553367e-01      
