29
206.164371
N    3.91278550e-02      -3.24070977e-03     5.82376689e-02      
H    6.87238394e-02      -8.59441968e-01     -5.35472124e-01     
H    9.62593453e-01      4.68900556e-01      6.11145575e-02      
H    -6.90704401e-01     6.54243723e-01      -3.03546005e-01     
C    -3.12628959e-01     -3.64464002e-01     1.44474931e+00      
H    4.22864444e-01      -1.05363765e+00     1.84901284e+00      
H    -3.35051154e-01     5.32841540e-01      2.05550036e+00      
C    -1.67902188e+00     -1.02725641e+00     1.41452400e+00      
O    -2.19698205e+00     -1.41966418e+00     3.84010671e-01      
O    -2.17605512e+00     -1.11513083e+00     2.62834721e+00      
H    -3.10683031e+00     -1.50111680e+00     2.58308882e+00      
O    -1.93055696e+00     1.80812456e+00      -4.07862139e-01     
H    -2.82216654e+00     1.64121122e+00      -5.31990543e-02     
H    -1.99543340e+00     2.59906559e+00      -9.49594781e-01     
O    1.98647675e-01      -2.53149981e+00     -1.09692029e+00     
H    -6.66483831e-01     -2.93971227e+00     -9.74838515e-01     
H    5.41489668e-01      -2.87677758e+00     -1.94388480e+00     
O    -4.35825467e+00     1.12219212e+00      6.87914006e-01      
H    -4.66666245e+00     1.30536503e+00      1.57724628e+00      
H    -4.74737113e+00     2.74717849e-01      4.39028372e-01      
O    -4.64173203e+00     -1.97161198e+00     2.53498881e+00      
H    -4.98774078e+00     -2.08034030e+00     1.63869814e+00      
H    -5.06385269e+00     -2.63280333e+00     3.09053174e+00      
O    -5.01748483e+00     -1.53605682e+00     -2.07511791e-01     
H    -5.64549081e+00     -1.78954403e+00     -8.89178858e-01     
H    -4.14500059e+00     -1.71843918e+00     -5.69147688e-01     
O    2.51695306e+00      1.26182590e+00      4.26874527e-01      
H    2.65821936e+00      2.20895319e+00      4.93249272e-01      
H    3.38998694e+00      8.84079200e-01      2.97081510e-01      
29
206.164371
N    3.83904807e-02      -2.88728316e-03     5.78634426e-02      
H    6.92890401e-02      -8.58966031e-01     -5.35726516e-01     
H    9.61429620e-01      4.69964241e-01      6.12921005e-02      
H    -6.92081026e-01     6.54093881e-01      -3.03822507e-01     
C    -3.13579995e-01     -3.64640704e-01     1.44405238e+00      
H    4.22102916e-01      -1.05358051e+00     1.84838532e+00      
H    -3.36672992e-01     5.32509078e-01      2.05499859e+00      
C    -1.67966684e+00     -1.02803399e+00     1.41430283e+00      
O    -2.19835772e+00     -1.42175934e+00     3.84645076e-01      
O    -2.17594105e+00     -1.11444493e+00     2.62859912e+00      
H    -3.10690879e+00     -1.50045534e+00     2.58352570e+00      
O    -1.92985455e+00     1.80659058e+00      -4.05562169e-01     
H    -2.82136884e+00     1.63854424e+00      -5.10578425e-02     
H    -1.99913817e+00     2.58616986e+00      -9.60976042e-01     
O    1.96321081e-01      -2.52764336e+00     -1.09704343e+00     
H    -6.69124797e-01     -2.93705084e+00     -9.93333254e-01     
H    5.66687074e-01      -2.89183687e+00     -1.91610153e+00     
O    -4.35684431e+00     1.12221308e+00      6.87563292e-01      
H    -4.66840321e+00     1.31028751e+00      1.57461439e+00      
H    -4.74841827e+00     2.75607839e-01      4.39817760e-01      
O    -4.63945993e+00     -1.97027195e+00     2.53289932e+00      
H    -4.98453052e+00     -2.07841231e+00     1.63612156e+00      
H    -5.06025393e+00     -2.63350854e+00     3.08704017e+00      
O    -5.01802972e+00     -1.53617205e+00     -2.06687747e-01     
H    -5.64503009e+00     -1.79396168e+00     -8.87546105e-01     
H    -4.14481989e+00     -1.71787355e+00     -5.66962344e-01     
O    2.51724436e+00      1.26155361e+00      4.26452168e-01      
H    2.65815071e+00      2.20856492e+00      4.94932137e-01      
H    3.39080994e+00      8.83977935e-01      3.00358274e-01      
29
206.164371
N    3.80217936e-02      -2.71056986e-03     5.76763295e-02      
H    6.95716405e-02      -8.58728063e-01     -5.35853712e-01     
H    9.60847704e-01      4.70496083e-01      6.13808721e-02      
H    -6.92769339e-01     6.54018960e-01      -3.03960759e-01     
C    -3.14055513e-01     -3.64729055e-01     1.44370391e+00      
H    4.21722152e-01      -1.05355195e+00     1.84807157e+00      
H    -3.37483911e-01     5.32342847e-01      2.05474770e+00      
C    -1.67998932e+00     -1.02842277e+00     1.41419224e+00      
O    -2.19904555e+00     -1.42280693e+00     3.84962278e-01      
O    -2.17588401e+00     -1.11410199e+00     2.62872507e+00      
H    -3.10694804e+00     -1.50012460e+00     2.58374414e+00      
O    -1.92950335e+00     1.80582358e+00      -4.04412184e-01     
H    -2.82096998e+00     1.63721075e+00      -4.99872366e-02     
H    -2.00099055e+00     2.57972199e+00      -9.66666673e-01     
O    1.95157784e-01      -2.52571513e+00     -1.09710499e+00     
H    -6.70445279e-01     -2.93572012e+00     -1.00258062e+00     
H    5.79285777e-01      -2.89936651e+00     -1.90220989e+00     
O    -4.35613912e+00     1.12222356e+00      6.87387935e-01      
H    -4.66927360e+00     1.31274875e+00      1.57329845e+00      
H    -4.74894184e+00     2.76052834e-01      4.40212454e-01      
O    -4.63832388e+00     -1.96960193e+00     2.53185458e+00      
H    -4.98292539e+00     -2.07744831e+00     1.63483326e+00      
H    -5.05845455e+00     -2.63386115e+00     3.08529438e+00      
O    -5.01830216e+00     -1.53622967e+00     -2.06275725e-01     
H    -5.64479972e+00     -1.79617050e+00     -8.86729728e-01     
H    -4.14472953e+00     -1.71759073e+00     -5.65869673e-01     
O    2.51739002e+00      1.26141747e+00      4.26240988e-01      
H    2.65811639e+00      2.20837079e+00      4.95773570e-01      
H    3.39122143e+00      8.83927303e-01      3.01996657e-01      
29
206.164371
N    3.76531064e-02      -2.53385656e-03     5.74892164e-02      
H    6.98542409e-02      -8.58490094e-01     -5.35980907e-01     
H    9.60265787e-01      4.71027925e-01      6.14696436e-02      
H    -6.93457652e-01     6.53944040e-01      -3.04099010e-01     
C    -3.14531031e-01     -3.64817407e-01     1.44335544e+00      
H    4.21341388e-01      -1.05352338e+00     1.84775781e+00      
H    -3.38294830e-01     5.32176616e-01      2.05449681e+00      
C    -1.68031180e+00     -1.02881156e+00     1.41408165e+00      
O    -2.19973338e+00     -1.42385451e+00     3.85279480e-01      
O    -2.17582697e+00     -1.11375904e+00     2.62885102e+00      
H    -3.10698728e+00     -1.49979387e+00     2.58396258e+00      
O    -1.92915214e+00     1.80505659e+00      -4.03262199e-01     
H    -2.82057113e+00     1.63587726e+00      -4.89166307e-02     
H    -2.00284293e+00     2.57327413e+00      -9.72357304e-01     
O    1.93994487e-01      -2.52378691e+00     -1.09716656e+00     
H    -6.71765762e-01     -2.93438940e+00     -1.01182799e+00     
H    5.91884480e-01      -2.90689616e+00     -1.88831826e+00     
O    -4.35543394e+00     1.12223404e+00      6.87212578e-01      
H    -4.67014398e+00     1.31520999e+00      1.57198251e+00      
H    -4.74946542e+00     2.76497829e-01      4.40607148e-01      
O    -4.63718782e+00     -1.96893191e+00     2.53080983e+00      
H    -4.98132027e+00     -2.07648431e+00     1.63354497e+00      
H    -5.05665517e+00     -2.63421375e+00     3.08354860e+00      
O    -5.01857461e+00     -1.53628729e+00     -2.05863703e-01     
H    -5.64456936e+00     -1.79837932e+00     -8.85913351e-01     
H    -4.14463918e+00     -1.71730791e+00     -5.64777001e-01     
O    2.51753567e+00      1.26128132e+00      4.26029808e-01      
H    2.65808207e+00      2.20817665e+00      4.96615003e-01      
H    3.39163293e+00      8.83876671e-01      3.03635039e-01      
29
206.164371
N    3.72844193e-02      -2.35714325e-03     5.73021032e-02      
H    7.01368413e-02      -8.58252126e-01     -5.36108103e-01     
H    9.59683871e-01      4.71559767e-01      6.15584151e-02      
H    -6.94145965e-01     6.53869119e-01      -3.04237261e-01     
C    -3.15006549e-01     -3.64905758e-01     1.44300698e+00      
H    4.20960625e-01      -1.05349481e+00     1.84744405e+00      
H    -3.39105749e-01     5.32010385e-01      2.05424592e+00      
C    -1.68063428e+00     -1.02920035e+00     1.41397106e+00      
O    -2.20042122e+00     -1.42490210e+00     3.85596683e-01      
O    -2.17576994e+00     -1.11341609e+00     2.62897698e+00      
H    -3.10702652e+00     -1.49946314e+00     2.58418102e+00      
O    -1.92880094e+00     1.80428960e+00      -4.02112214e-01     
H    -2.82017228e+00     1.63454377e+00      -4.78460249e-02     
H    -2.00469532e+00     2.56682626e+00      -9.78047935e-01     
O    1.92831190e-01      -2.52185868e+00     -1.09722813e+00     
H    -6.73086245e-01     -2.93305868e+00     -1.02107536e+00     
H    6.04483183e-01      -2.91442580e+00     -1.87442662e+00     
O    -4.35472876e+00     1.12224452e+00      6.87037221e-01      
H    -4.67101436e+00     1.31767123e+00      1.57066657e+00      
H    -4.74998899e+00     2.76942824e-01      4.41001842e-01      
O    -4.63605177e+00     -1.96826189e+00     2.52976509e+00      
H    -4.97971514e+00     -2.07552031e+00     1.63225668e+00      
H    -5.05485578e+00     -2.63456636e+00     3.08180281e+00      
O    -5.01884705e+00     -1.53634491e+00     -2.05451681e-01     
H    -5.64433900e+00     -1.80058814e+00     -8.85096975e-01     
H    -4.14454882e+00     -1.71702509e+00     -5.63684330e-01     
O    2.51768132e+00      1.26114518e+00      4.25818629e-01      
H    2.65804774e+00      2.20798252e+00      4.97456436e-01      
H    3.39204442e+00      8.83826038e-01      3.05273421e-01      
29
206.164371
N    3.69157321e-02      -2.18042995e-03     5.71149901e-02      
H    7.04194416e-02      -8.58014157e-01     -5.36235299e-01     
H    9.59101955e-01      4.72091610e-01      6.16471866e-02      
H    -6.94834277e-01     6.53794198e-01      -3.04375512e-01     
C    -3.15482067e-01     -3.64994109e-01     1.44265851e+00      
H    4.20579861e-01      -1.05346624e+00     1.84713029e+00      
H    -3.39916668e-01     5.31844154e-01      2.05399504e+00      
C    -1.68095676e+00     -1.02958914e+00     1.41386048e+00      
O    -2.20110905e+00     -1.42594968e+00     3.85913885e-01      
O    -2.17571290e+00     -1.11307314e+00     2.62910293e+00      
H    -3.10706576e+00     -1.49913241e+00     2.58439946e+00      
O    -1.92844973e+00     1.80352261e+00      -4.00962229e-01     
H    -2.81977343e+00     1.63321028e+00      -4.67754190e-02     
H    -2.00654770e+00     2.56037839e+00      -9.83738565e-01     
O    1.91667893e-01      -2.51993046e+00     -1.09728970e+00     
H    -6.74406728e-01     -2.93172797e+00     -1.03032273e+00     
H    6.17081886e-01      -2.92195545e+00     -1.86053498e+00     
O    -4.35402358e+00     1.12225500e+00      6.86861864e-01      
H    -4.67188474e+00     1.32013247e+00      1.56935062e+00      
H    -4.75051256e+00     2.77387819e-01      4.41396536e-01      
O    -4.63491572e+00     -1.96759187e+00     2.52872035e+00      
H    -4.97811001e+00     -2.07455632e+00     1.63096839e+00      
H    -5.05305640e+00     -2.63491897e+00     3.08005703e+00      
O    -5.01911950e+00     -1.53640252e+00     -2.05039660e-01     
H    -5.64410864e+00     -1.80279696e+00     -8.84280598e-01     
H    -4.14445847e+00     -1.71674228e+00     -5.62591658e-01     
O    2.51782697e+00      1.26100903e+00      4.25607449e-01      
H    2.65801342e+00      2.20778838e+00      4.98297869e-01      
H    3.39245592e+00      8.83775406e-01      3.06911803e-01      
29
206.164371
N    3.67313885e-02      -2.09207330e-03     5.70214335e-02      
H    7.05607418e-02      -8.57895173e-01     -5.36298897e-01     
H    9.58810997e-01      4.72357531e-01      6.16915724e-02      
H    -6.95178434e-01     6.53756737e-01      -3.04444637e-01     
C    -3.15719826e-01     -3.65038284e-01     1.44248428e+00      
H    4.20389479e-01      -1.05345196e+00     1.84697342e+00      
H    -3.40322127e-01     5.31761039e-01      2.05386959e+00      
C    -1.68111800e+00     -1.02978354e+00     1.41380518e+00      
O    -2.20145297e+00     -1.42647347e+00     3.86072486e-01      
O    -2.17568438e+00     -1.11290166e+00     2.62916591e+00      
H    -3.10708539e+00     -1.49896704e+00     2.58450868e+00      
O    -1.92827413e+00     1.80313911e+00      -4.00387237e-01     
H    -2.81957401e+00     1.63254353e+00      -4.62401160e-02     
H    -2.00747389e+00     2.55715446e+00      -9.86583881e-01     
O    1.91086245e-01      -2.51896635e+00     -1.09732049e+00     
H    -6.75066969e-01     -2.93106261e+00     -1.03494642e+00     
H    6.23381237e-01      -2.92572027e+00     -1.85358916e+00     
O    -4.35367098e+00     1.12226024e+00      6.86774185e-01      
H    -4.67231994e+00     1.32136309e+00      1.56869265e+00      
H    -4.75077434e+00     2.77610317e-01      4.41593883e-01      
O    -4.63434770e+00     -1.96725686e+00     2.52819798e+00      
H    -4.97730744e+00     -2.07407432e+00     1.63032424e+00      
H    -5.05215671e+00     -2.63509527e+00     3.07918414e+00      
O    -5.01925572e+00     -1.53643133e+00     -2.04833649e-01     
H    -5.64399345e+00     -1.80390137e+00     -8.83872410e-01     
H    -4.14441329e+00     -1.71660087e+00     -5.62045322e-01     
O    2.51789980e+00      1.26094096e+00      4.25501859e-01      
H    2.65799626e+00      2.20769131e+00      4.98718586e-01      
H    3.39266167e+00      8.83750090e-01      3.07730995e-01      
29
206.164371
N    3.65470450e-02      -2.00371664e-03     5.69278769e-02      
H    7.07020420e-02      -8.57776189e-01     -5.36362495e-01     
H    9.58520038e-01      4.72623452e-01      6.17359582e-02      
H    -6.95522590e-01     6.53719277e-01      -3.04513763e-01     
C    -3.15957585e-01     -3.65082460e-01     1.44231005e+00      
H    4.20199097e-01      -1.05343768e+00     1.84681654e+00      
H    -3.40727587e-01     5.31677923e-01      2.05374415e+00      
C    -1.68127924e+00     -1.02997793e+00     1.41374989e+00      
O    -2.20179689e+00     -1.42699727e+00     3.86231088e-01      
O    -2.17565587e+00     -1.11273019e+00     2.62922889e+00      
H    -3.10710501e+00     -1.49880167e+00     2.58461790e+00      
O    -1.92809853e+00     1.80275561e+00      -3.99812244e-01     
H    -2.81937458e+00     1.63187679e+00      -4.57048131e-02     
H    -2.00840009e+00     2.55393053e+00      -9.89429196e-01     
O    1.90504596e-01      -2.51800223e+00     -1.09735127e+00     
H    -6.75727210e-01     -2.93039725e+00     -1.03957010e+00     
H    6.29680589e-01      -2.92948509e+00     -1.84664335e+00     
O    -4.35331839e+00     1.12226548e+00      6.86686507e-01      
H    -4.67275513e+00     1.32259371e+00      1.56803468e+00      
H    -4.75103613e+00     2.77832814e-01      4.41791230e-01      
O    -4.63377967e+00     -1.96692185e+00     2.52767560e+00      
H    -4.97650488e+00     -2.07359232e+00     1.62968009e+00      
H    -5.05125702e+00     -2.63527157e+00     3.07831124e+00      
O    -5.01939194e+00     -1.53646014e+00     -2.04627638e-01     
H    -5.64387827e+00     -1.80500578e+00     -8.83464222e-01     
H    -4.14436811e+00     -1.71645946e+00     -5.61498987e-01     
O    2.51797263e+00      1.26087289e+00      4.25396270e-01      
H    2.65797909e+00      2.20759425e+00      4.99139302e-01      
H    3.39286741e+00      8.83724773e-01      3.08550186e-01      
29
206.164371
N    3.58096706e-02      -1.65029004e-03     5.65536507e-02      
H    7.12672428e-02      -8.57300251e-01     -5.36616887e-01     
H    9.57356206e-01      4.73687136e-01      6.19135012e-02      
H    -6.96899216e-01     6.53569435e-01      -3.04790265e-01     
C    -3.16908621e-01     -3.65259162e-01     1.44161311e+00      
H    4.19437569e-01      -1.05338054e+00     1.84618902e+00      
H    -3.42349425e-01     5.31345461e-01      2.05324237e+00      
C    -1.68192420e+00     -1.03075551e+00     1.41352871e+00      
O    -2.20317255e+00     -1.42909243e+00     3.86865492e-01      
O    -2.17554179e+00     -1.11204429e+00     2.62948079e+00      
H    -3.10718349e+00     -1.49814021e+00     2.58505478e+00      
O    -1.92739611e+00     1.80122163e+00      -3.97512274e-01     
H    -2.81857688e+00     1.62920981e+00      -4.35636013e-02     
H    -2.01210485e+00     2.54103479e+00      -1.00081046e+00     
O    1.88178002e-01      -2.51414579e+00     -1.09747441e+00     
H    -6.78368176e-01     -2.92773581e+00     -1.05806484e+00     
H    6.54877995e-01      -2.94454439e+00     -1.81886007e+00     
O    -4.35190803e+00     1.12228644e+00      6.86335793e-01      
H    -4.67449589e+00     1.32751619e+00      1.56540280e+00      
H    -4.75208327e+00     2.78722804e-01      4.42580618e-01      
O    -4.63150757e+00     -1.96558181e+00     2.52558612e+00      
H    -4.97329462e+00     -2.07166432e+00     1.62710351e+00      
H    -5.04765826e+00     -2.63597679e+00     3.07481968e+00      
O    -5.01993684e+00     -1.53657538e+00     -2.03803594e-01     
H    -5.64341755e+00     -1.80942342e+00     -8.81831468e-01     
H    -4.14418741e+00     -1.71589382e+00     -5.59313643e-01     
O    2.51826393e+00      1.26060059e+00      4.24973910e-01      
H    2.65791045e+00      2.20720597e+00      5.00822168e-01      
H    3.39369041e+00      8.83623509e-01      3.11826950e-01      
29
206.164371
N    3.56253271e-02      -1.56193338e-03     5.64600941e-02      
H    7.14085430e-02      -8.57181267e-01     -5.36680485e-01     
H    9.57065247e-01      4.73953057e-01      6.19578870e-02      
H    -6.97243372e-01     6.53531975e-01      -3.04859391e-01     
C    -3.17146380e-01     -3.65303338e-01     1.44143888e+00      
H    4.19247187e-01      -1.05336626e+00     1.84603214e+00      
H    -3.42754885e-01     5.31262345e-01      2.05311693e+00      
C    -1.68208544e+00     -1.03094990e+00     1.41347342e+00      
O    -2.20351647e+00     -1.42961623e+00     3.87024094e-01      
O    -2.17551328e+00     -1.11187282e+00     2.62954377e+00      
H    -3.10720311e+00     -1.49797484e+00     2.58516400e+00      
O    -1.92722051e+00     1.80083813e+00      -3.96937281e-01     
H    -2.81837745e+00     1.62854307e+00      -4.30282984e-02     
H    -2.01303105e+00     2.53781086e+00      -1.00365577e+00     
O    1.87596353e-01      -2.51318167e+00     -1.09750519e+00     
H    -6.79028417e-01     -2.92707045e+00     -1.06268852e+00     
H    6.61177347e-01      -2.94830921e+00     -1.81191426e+00     
O    -4.35155544e+00     1.12229168e+00      6.86248115e-01      
H    -4.67493108e+00     1.32874681e+00      1.56474483e+00      
H    -4.75234506e+00     2.78945301e-01      4.42777965e-01      
O    -4.63093954e+00     -1.96524680e+00     2.52506374e+00      
H    -4.97249206e+00     -2.07118232e+00     1.62645936e+00      
H    -5.04675857e+00     -2.63615309e+00     3.07394678e+00      
O    -5.02007306e+00     -1.53660419e+00     -2.03597583e-01     
H    -5.64330237e+00     -1.81052783e+00     -8.81423280e-01     
H    -4.14414223e+00     -1.71575241e+00     -5.58767308e-01     
O    2.51833676e+00      1.26053252e+00      4.24868321e-01      
H    2.65789328e+00      2.20710891e+00      5.01242884e-01      
H    3.39389615e+00      8.83598192e-01      3.12646141e-01      
29
206.164371
N    3.54409835e-02      -1.47357673e-03     5.63665375e-02      
H    7.15498432e-02      -8.57062283e-01     -5.36744083e-01     
H    9.56774289e-01      4.74218978e-01      6.20022728e-02      
H    -6.97587529e-01     6.53494514e-01      -3.04928516e-01     
C    -3.17384139e-01     -3.65347513e-01     1.44126465e+00      
H    4.19056805e-01      -1.05335198e+00     1.84587527e+00      
H    -3.43160344e-01     5.31179230e-01      2.05299148e+00      
C    -1.68224668e+00     -1.03114430e+00     1.41341812e+00      
O    -2.20386039e+00     -1.43014002e+00     3.87182695e-01      
O    -2.17548476e+00     -1.11170134e+00     2.62960675e+00      
H    -3.10722274e+00     -1.49780947e+00     2.58527322e+00      
O    -1.92704491e+00     1.80045463e+00      -3.96362289e-01     
H    -2.81817803e+00     1.62787632e+00      -4.24929954e-02     
H    -2.01395724e+00     2.53458693e+00      -1.00650109e+00     
O    1.87014705e-01      -2.51221756e+00     -1.09753598e+00     
H    -6.79688658e-01     -2.92640509e+00     -1.06731221e+00     
H    6.67476698e-01      -2.95207403e+00     -1.80496844e+00     
O    -4.35120284e+00     1.12229692e+00      6.86160436e-01      
H    -4.67536628e+00     1.32997743e+00      1.56408686e+00      
H    -4.75260684e+00     2.79167799e-01      4.42975312e-01      
O    -4.63037152e+00     -1.96491179e+00     2.52454137e+00      
H    -4.97168949e+00     -2.07070032e+00     1.62581521e+00      
H    -5.04585888e+00     -2.63632939e+00     3.07307389e+00      
O    -5.02020928e+00     -1.53663300e+00     -2.03391572e-01     
H    -5.64318718e+00     -1.81163224e+00     -8.81015092e-01     
H    -4.14409705e+00     -1.71561100e+00     -5.58220972e-01     
O    2.51840959e+00      1.26046445e+00      4.24762731e-01      
H    2.65787612e+00      2.20701184e+00      5.01663601e-01      
H    3.39410190e+00      8.83572876e-01      3.13465333e-01      
29
206.164371
N    3.50722963e-02      -1.29686343e-03     5.61794244e-02      
H    7.18324435e-02      -8.56824314e-01     -5.36871279e-01     
H    9.56192373e-01      4.74750821e-01      6.20910443e-02      
H    -6.98275841e-01     6.53419593e-01      -3.05066767e-01     
C    -3.17859657e-01     -3.65435864e-01     1.44091618e+00      
H    4.18676041e-01      -1.05332341e+00     1.84556151e+00      
H    -3.43971263e-01     5.31012999e-01      2.05274060e+00      
C    -1.68256916e+00     -1.03153309e+00     1.41330754e+00      
O    -2.20454822e+00     -1.43118760e+00     3.87499897e-01      
O    -2.17542772e+00     -1.11135839e+00     2.62973270e+00      
H    -3.10726198e+00     -1.49747874e+00     2.58549166e+00      
O    -1.92669370e+00     1.79968764e+00      -3.95212304e-01     
H    -2.81777918e+00     1.62654283e+00      -4.14223895e-02     
H    -2.01580962e+00     2.52813906e+00      -1.01219172e+00     
O    1.85851408e-01      -2.51028934e+00     -1.09759755e+00     
H    -6.81009141e-01     -2.92507438e+00     -1.07655958e+00     
H    6.80075401e-01      -2.95960368e+00     -1.79107680e+00     
O    -4.35049766e+00     1.12230740e+00      6.85985079e-01      
H    -4.67623666e+00     1.33243867e+00      1.56277091e+00      
H    -4.75313041e+00     2.79612794e-01      4.43370006e-01      
O    -4.62923547e+00     -1.96424177e+00     2.52349663e+00      
H    -4.97008436e+00     -2.06973633e+00     1.62452692e+00      
H    -5.04405950e+00     -2.63668200e+00     3.07132811e+00      
O    -5.02048173e+00     -1.53669061e+00     -2.02979551e-01     
H    -5.64295682e+00     -1.81384106e+00     -8.80198715e-01     
H    -4.14400670e+00     -1.71532819e+00     -5.57128300e-01     
O    2.51855524e+00      1.26032830e+00      4.24551551e-01      
H    2.65784180e+00      2.20681770e+00      5.02505034e-01      
H    3.39451340e+00      8.83522244e-01      3.15103715e-01      
29
206.164371
N    3.47036092e-02      -1.12015012e-03     5.59923112e-02      
H    7.21150439e-02      -8.56586346e-01     -5.36998475e-01     
H    9.55610457e-01      4.75282663e-01      6.21798158e-02      
H    -6.98964154e-01     6.53344672e-01      -3.05205018e-01     
C    -3.18335175e-01     -3.65524215e-01     1.44056772e+00      
H    4.18295278e-01      -1.05329484e+00     1.84524775e+00      
H    -3.44782182e-01     5.30846768e-01      2.05248971e+00      
C    -1.68289164e+00     -1.03192188e+00     1.41319695e+00      
O    -2.20523606e+00     -1.43223519e+00     3.87817100e-01      
O    -2.17537069e+00     -1.11101544e+00     2.62985866e+00      
H    -3.10730122e+00     -1.49714801e+00     2.58571010e+00      
O    -1.92634250e+00     1.79892065e+00      -3.94062319e-01     
H    -2.81738033e+00     1.62520934e+00      -4.03517837e-02     
H    -2.01766201e+00     2.52169119e+00      -1.01788235e+00     
O    1.84688111e-01      -2.50836111e+00     -1.09765912e+00     
H    -6.82329624e-01     -2.92374366e+00     -1.08580695e+00     
H    6.92674104e-01      -2.96713332e+00     -1.77718516e+00     
O    -4.34979248e+00     1.12231788e+00      6.85809722e-01      
H    -4.67710704e+00     1.33489991e+00      1.56145497e+00      
H    -4.75365398e+00     2.80057789e-01      4.43764700e-01      
O    -4.62809942e+00     -1.96357175e+00     2.52245189e+00      
H    -4.96847923e+00     -2.06877233e+00     1.62323863e+00      
H    -5.04226011e+00     -2.63703461e+00     3.06958232e+00      
O    -5.02075417e+00     -1.53674823e+00     -2.02567529e-01     
H    -5.64272646e+00     -1.81604988e+00     -8.79382339e-01     
H    -4.14391634e+00     -1.71504537e+00     -5.56035629e-01     
O    2.51870089e+00      1.26019216e+00      4.24340372e-01      
H    2.65780747e+00      2.20662357e+00      5.03346467e-01      
H    3.39492489e+00      8.83471611e-01      3.16742097e-01      
29
206.164371
N    3.43349220e-02      -9.43436820e-04     5.58051981e-02      
H    7.23976443e-02      -8.56348377e-01     -5.37125670e-01     
H    9.55028540e-01      4.75814505e-01      6.22685873e-02      
H    -6.99652467e-01     6.53269752e-01      -3.05343269e-01     
C    -3.18810693e-01     -3.65612567e-01     1.44021925e+00      
H    4.17914514e-01      -1.05326627e+00     1.84493399e+00      
H    -3.45593101e-01     5.30680537e-01      2.05223882e+00      
C    -1.68321412e+00     -1.03231067e+00     1.41308636e+00      
O    -2.20592389e+00     -1.43328277e+00     3.88134302e-01      
O    -2.17531365e+00     -1.11067249e+00     2.62998461e+00      
H    -3.10734046e+00     -1.49681728e+00     2.58592854e+00      
O    -1.92599129e+00     1.79815366e+00      -3.92912334e-01     
H    -2.81698148e+00     1.62387585e+00      -3.92811778e-02     
H    -2.01951439e+00     2.51524333e+00      -1.02357298e+00     
O    1.83524814e-01      -2.50643289e+00     -1.09772069e+00     
H    -6.83650107e-01     -2.92241294e+00     -1.09505432e+00     
H    7.05272807e-01      -2.97466297e+00     -1.76329353e+00     
O    -4.34908730e+00     1.12232836e+00      6.85634365e-01      
H    -4.67797742e+00     1.33736115e+00      1.56013903e+00      
H    -4.75417756e+00     2.80502784e-01      4.44159394e-01      
O    -4.62696336e+00     -1.96290173e+00     2.52140714e+00      
H    -4.96687411e+00     -2.06780833e+00     1.62195034e+00      
H    -5.04046073e+00     -2.63738721e+00     3.06783654e+00      
O    -5.02102662e+00     -1.53680585e+00     -2.02155507e-01     
H    -5.64249610e+00     -1.81825870e+00     -8.78565962e-01     
H    -4.14382599e+00     -1.71476255e+00     -5.54942957e-01     
O    2.51884654e+00      1.26005601e+00      4.24129192e-01      
H    2.65777315e+00      2.20642943e+00      5.04187900e-01      
H    3.39533639e+00      8.83420979e-01      3.18380479e-01      
29
206.164371
N    3.39662349e-02      -7.66723516e-04     5.56180850e-02      
H    7.26802447e-02      -8.56110409e-01     -5.37252866e-01     
H    9.54446624e-01      4.76346347e-01      6.23573589e-02      
H    -7.00340780e-01     6.53194831e-01      -3.05481521e-01     
C    -3.19286211e-01     -3.65700918e-01     1.43987078e+00      
H    4.17533750e-01      -1.05323771e+00     1.84462024e+00      
H    -3.46404020e-01     5.30514306e-01      2.05198793e+00      
C    -1.68353660e+00     -1.03269945e+00     1.41297577e+00      
O    -2.20661172e+00     -1.43433036e+00     3.88451504e-01      
O    -2.17525661e+00     -1.11032955e+00     2.63011056e+00      
H    -3.10737971e+00     -1.49648654e+00     2.58614698e+00      
O    -1.92564009e+00     1.79738666e+00      -3.91762349e-01     
H    -2.81658262e+00     1.62254236e+00      -3.82105719e-02     
H    -2.02136677e+00     2.50879546e+00      -1.02926361e+00     
O    1.82361517e-01      -2.50450466e+00     -1.09778225e+00     
H    -6.84970589e-01     -2.92108222e+00     -1.10430169e+00     
H    7.17871510e-01      -2.98219261e+00     -1.74940189e+00     
O    -4.34838211e+00     1.12233884e+00      6.85459008e-01      
H    -4.67884781e+00     1.33982239e+00      1.55882309e+00      
H    -4.75470113e+00     2.80947779e-01      4.44554088e-01      
O    -4.62582731e+00     -1.96223171e+00     2.52036240e+00      
H    -4.96526898e+00     -2.06684433e+00     1.62066204e+00      
H    -5.03866135e+00     -2.63773982e+00     3.06609075e+00      
O    -5.02129906e+00     -1.53686347e+00     -2.01743485e-01     
H    -5.64226573e+00     -1.82046752e+00     -8.77749585e-01     
H    -4.14373563e+00     -1.71447973e+00     -5.53850286e-01     
O    2.51899220e+00      1.25991987e+00      4.23918012e-01      
H    2.65773883e+00      2.20623530e+00      5.05029333e-01      
H    3.39574788e+00      8.83370347e-01      3.20018862e-01      
29
206.164371
N    3.32288606e-02      -4.13296909e-04     5.52438587e-02      
H    7.32454454e-02      -8.55634472e-01     -5.37507258e-01     
H    9.53282791e-01      4.77410032e-01      6.25349019e-02      
H    -7.01717405e-01     6.53044989e-01      -3.05758023e-01     
C    -3.20237247e-01     -3.65877620e-01     1.43917385e+00      
H    4.16772222e-01      -1.05318057e+00     1.84399272e+00      
H    -3.48025858e-01     5.30181844e-01      2.05148616e+00      
C    -1.68418156e+00     -1.03347703e+00     1.41275460e+00      
O    -2.20798739e+00     -1.43642552e+00     3.89085909e-01      
O    -2.17514254e+00     -1.10964365e+00     2.63036247e+00      
H    -3.10745819e+00     -1.49582508e+00     2.58658386e+00      
O    -1.92493768e+00     1.79585268e+00      -3.89462379e-01     
H    -2.81578492e+00     1.61987538e+00      -3.60693601e-02     
H    -2.02507154e+00     2.49589973e+00      -1.04064487e+00     
O    1.80034923e-01      -2.50064821e+00     -1.09790539e+00     
H    -6.87611555e-01     -2.91842079e+00     -1.12279643e+00     
H    7.43068916e-01      -2.99725190e+00     -1.72161862e+00     
O    -4.34697175e+00     1.12235980e+00      6.85108294e-01      
H    -4.68058857e+00     1.34474487e+00      1.55619120e+00      
H    -4.75574827e+00     2.81837769e-01      4.45343476e-01      
O    -4.62355521e+00     -1.96089168e+00     2.51827291e+00      
H    -4.96205872e+00     -2.06491634e+00     1.61808546e+00      
H    -5.03506259e+00     -2.63844503e+00     3.06259918e+00      
O    -5.02184395e+00     -1.53697870e+00     -2.00919441e-01     
H    -5.64180501e+00     -1.82488517e+00     -8.76116832e-01     
H    -4.14355493e+00     -1.71391410e+00     -5.51664942e-01     
O    2.51928350e+00      1.25964758e+00      4.23495653e-01      
H    2.65767018e+00      2.20584703e+00      5.06712198e-01      
H    3.39657088e+00      8.83269082e-01      3.23295626e-01      
