29
199.680164
N    3.17373634e-02      -8.59735015e-03     4.55047615e-02      
H    7.38399865e-02      -8.67220845e-01     -5.45061740e-01     
H    9.51502377e-01      4.68605609e-01      5.54411982e-02      
H    -7.00360781e-01     6.45872440e-01      -3.18897437e-01     
C    -3.27805841e-01     -3.65614443e-01     1.43003260e+00      
H    4.08172695e-01      -1.04952926e+00     1.84250097e+00      
H    -3.57191757e-01     5.35012306e-01      2.03568817e+00      
C    -1.69210548e+00     -1.03295601e+00     1.41068972e+00      
O    -2.22424896e+00     -1.43548402e+00     3.90945973e-01      
O    -2.17198894e+00     -1.11339786e+00     2.63235416e+00      
H    -3.10621588e+00     -1.49577142e+00     2.59501085e+00      
O    -1.91820775e+00     1.78693978e+00      -3.89373902e-01     
H    -2.80919103e+00     1.62093958e+00      -3.22755978e-02     
H    -2.00664954e+00     2.50742388e+00      -1.01664465e+00     
O    1.95547701e-01      -2.50025566e+00     -1.08578795e+00     
H    -6.69964571e-01     -2.91153929e+00     -9.95859474e-01     
H    5.82413934e-01      -2.86651839e+00     -1.89361131e+00     
O    -4.34424511e+00     1.12847395e+00      6.92673311e-01      
H    -4.72757050e+00     1.38814550e+00      1.53695692e+00      
H    -4.76433995e+00     2.94168882e-01      4.50229467e-01      
O    -4.62378835e+00     -1.96081659e+00     2.52892585e+00      
H    -4.95463232e+00     -2.06471475e+00     1.62563920e+00      
H    -5.03109875e+00     -2.64705346e+00     3.06604250e+00      
O    -5.02098346e+00     -1.54317780e+00     -2.14616621e-01     
H    -5.63815692e+00     -1.84393864e+00     -8.87230987e-01     
H    -4.14110679e+00     -1.71284788e+00     -5.64890281e-01     
O    2.52873230e+00      1.26729407e+00      4.18865965e-01      
H    2.67448849e+00      2.20750119e+00      5.60941065e-01      
H    3.40920952e+00      8.84141606e-01      3.66299048e-01      
29
199.680164
N    3.28476120e-02      -6.90476345e-03     4.83137620e-02      
H    7.31261505e-02      -8.64800189e-01     -5.42918728e-01     
H    9.53111314e-01      4.69743031e-01      5.70370811e-02      
H    -6.99323312e-01     6.47815419e-01      -3.15336081e-01     
C    -3.24962657e-01     -3.65503535e-01     1.43301485e+00      
H    4.11084105e-01      -1.05049922e+00     1.84350143e+00      
H    -3.53278444e-01     5.34137152e-01      2.04013944e+00      
C    -1.68947954e+00     -1.03230869e+00     1.41142712e+00      
O    -2.21880790e+00     -1.43362423e+00     3.89846552e-01      
O    -2.17289141e+00     -1.11314521e+00     2.63160433e+00      
H    -3.10644797e+00     -1.49644630e+00     2.59246722e+00      
O    -1.92059264e+00     1.79070199e+00      -3.91695992e-01     
H    -2.81163721e+00     1.62334051e+00      -3.53652502e-02     
H    -2.00755027e+00     2.51743857e+00      -1.01126345e+00     
O    1.93996101e-01      -2.50421025e+00     -1.08869417e+00     
H    -6.71735351e-01     -2.91592110e+00     -1.00909897e+00     
H    5.97380273e-01      -2.88414248e+00     -1.87839641e+00     
O    -4.34633713e+00     1.12692446e+00      6.91132771e-01      
H    -4.71408426e+00     1.37237286e+00      1.54439737e+00      
H    -4.76114489e+00     2.90196114e-01      4.48218581e-01      
O    -4.62600216e+00     -1.96217540e+00     2.52835210e+00      
H    -4.95969918e+00     -2.06669314e+00     1.62632735e+00      
H    -5.03568848e+00     -2.64419614e+00     3.06867324e+00      
O    -5.02065370e+00     -1.54151279e+00     -2.12016369e-01     
H    -5.63952967e+00     -1.83475763e+00     -8.86085201e-01     
H    -4.14189953e+00     -1.71368007e+00     -5.63769289e-01     
O    2.52607880e+00      1.26565474e+00      4.20445747e-01      
H    2.67035256e+00      2.20747592e+00      5.45700982e-01      
H    3.40522687e+00      8.84024740e-01      3.52271428e-01      
29
199.680164
N    3.34027363e-02      -6.05847010e-03     4.97182623e-02      
H    7.27692325e-02      -8.63589861e-01     -5.41847222e-01     
H    9.53915782e-01      4.70311741e-01      5.78350225e-02      
H    -6.98804577e-01     6.48786908e-01      -3.13555403e-01     
C    -3.23541064e-01     -3.65448081e-01     1.43450597e+00      
H    4.12539809e-01      -1.05098420e+00     1.84400165e+00      
H    -3.51321788e-01     5.33699576e-01      2.04236508e+00      
C    -1.68816657e+00     -1.03198503e+00     1.41179581e+00      
O    -2.21608737e+00     -1.43269433e+00     3.89296842e-01      
O    -2.17334265e+00     -1.11301888e+00     2.63122941e+00      
H    -3.10656402e+00     -1.49678374e+00     2.59119541e+00      
O    -1.92178509e+00     1.79258309e+00      -3.92857036e-01     
H    -2.81286029e+00     1.62454097e+00      -3.69100763e-02     
H    -2.00800064e+00     2.52244592e+00      -1.00857284e+00     
O    1.93220300e-01      -2.50618754e+00     -1.09014728e+00     
H    -6.72620741e-01     -2.91811200e+00     -1.01571872e+00     
H    6.04863443e-01      -2.89295452e+00     -1.87078896e+00     
O    -4.34738315e+00     1.12614971e+00      6.90362501e-01      
H    -4.70734113e+00     1.36448655e+00      1.54811760e+00      
H    -4.75954736e+00     2.88209730e-01      4.47213138e-01      
O    -4.62710907e+00     -1.96285480e+00     2.52806523e+00      
H    -4.96223261e+00     -2.06768234e+00     1.62667142e+00      
H    -5.03798334e+00     -2.64276748e+00     3.06998861e+00      
O    -5.02048881e+00     -1.54068029e+00     -2.10716244e-01     
H    -5.64021604e+00     -1.83016712e+00     -8.85512308e-01     
H    -4.14229590e+00     -1.71409616e+00     -5.63208794e-01     
O    2.52475205e+00      1.26483507e+00      4.21235637e-01      
H    2.66828459e+00      2.20746328e+00      5.38080941e-01      
H    3.40323554e+00      8.83966307e-01      3.45257618e-01      
29
199.680164
N    3.39578606e-02      -5.21217675e-03     5.11227626e-02      
H    7.24123144e-02      -8.62379533e-01     -5.40775715e-01     
H    9.54720250e-01      4.70880452e-01      5.86329639e-02      
H    -6.98285842e-01     6.49758398e-01      -3.11774726e-01     
C    -3.22119472e-01     -3.65392627e-01     1.43599709e+00      
H    4.13995514e-01      -1.05146918e+00     1.84450188e+00      
H    -3.49365131e-01     5.33261999e-01      2.04459072e+00      
C    -1.68685360e+00     -1.03166137e+00     1.41216451e+00      
O    -2.21336684e+00     -1.43176444e+00     3.88747131e-01      
O    -2.17379388e+00     -1.11289255e+00     2.63085450e+00      
H    -3.10668006e+00     -1.49712118e+00     2.58992360e+00      
O    -1.92297753e+00     1.79446420e+00      -3.94018081e-01     
H    -2.81408338e+00     1.62574144e+00      -3.84549025e-02     
H    -2.00845100e+00     2.52745327e+00      -1.00588224e+00     
O    1.92444500e-01      -2.50816483e+00     -1.09160040e+00     
H    -6.73506132e-01     -2.92030291e+00     -1.02233847e+00     
H    6.12346613e-01      -2.90176657e+00     -1.86318151e+00     
O    -4.34842916e+00     1.12537496e+00      6.89592231e-01      
H    -4.70059801e+00     1.35660023e+00      1.55183783e+00      
H    -4.75794983e+00     2.86223346e-01      4.46207695e-01      
O    -4.62821598e+00     -1.96353421e+00     2.52777836e+00      
H    -4.96476604e+00     -2.06867153e+00     1.62701550e+00      
H    -5.04027820e+00     -2.64133882e+00     3.07130398e+00      
O    -5.02032393e+00     -1.53984778e+00     -2.09416118e-01     
H    -5.64090242e+00     -1.82557662e+00     -8.84939416e-01     
H    -4.14269228e+00     -1.71451226e+00     -5.62648298e-01     
O    2.52342529e+00      1.26401540e+00      4.22025528e-01      
H    2.66621663e+00      2.20745065e+00      5.30460900e-01      
H    3.40124421e+00      8.83907874e-01      3.38243808e-01      
29
199.680164
N    3.45129849e-02      -4.36588339e-03     5.25272629e-02      
H    7.20553964e-02      -8.61169204e-01     -5.39704209e-01     
H    9.55524718e-01      4.71449162e-01      5.94309054e-02      
H    -6.97767107e-01     6.50729887e-01      -3.09994048e-01     
C    -3.20697880e-01     -3.65337173e-01     1.43748821e+00      
H    4.15451219e-01      -1.05195417e+00     1.84500210e+00      
H    -3.47408475e-01     5.32824422e-01      2.04681635e+00      
C    -1.68554063e+00     -1.03133770e+00     1.41253321e+00      
O    -2.21064631e+00     -1.43083454e+00     3.88197421e-01      
O    -2.17424512e+00     -1.11276622e+00     2.63047958e+00      
H    -3.10679611e+00     -1.49745862e+00     2.58865178e+00      
O    -1.92416998e+00     1.79634530e+00      -3.95179125e-01     
H    -2.81530647e+00     1.62694190e+00      -3.99997287e-02     
H    -2.00890137e+00     2.53246062e+00      -1.00319164e+00     
O    1.91668700e-01      -2.51014213e+00     -1.09305351e+00     
H    -6.74391522e-01     -2.92249381e+00     -1.02895822e+00     
H    6.19829783e-01      -2.91057861e+00     -1.85557406e+00     
O    -4.34947517e+00     1.12460021e+00      6.88821960e-01      
H    -4.69385488e+00     1.34871391e+00      1.55555806e+00      
H    -4.75635229e+00     2.84236962e-01      4.45202253e-01      
O    -4.62932289e+00     -1.96421361e+00     2.52749148e+00      
H    -4.96729946e+00     -2.06966073e+00     1.62735957e+00      
H    -5.04257306e+00     -2.63991016e+00     3.07261935e+00      
O    -5.02015904e+00     -1.53901528e+00     -2.08115993e-01     
H    -5.64158879e+00     -1.82098611e+00     -8.84366523e-01     
H    -4.14308865e+00     -1.71492835e+00     -5.62087802e-01     
O    2.52209854e+00      1.26319574e+00      4.22815418e-01      
H    2.66414866e+00      2.20743801e+00      5.22840859e-01      
H    3.39925289e+00      8.83849441e-01      3.31229998e-01      
29
199.680164
N    3.50681092e-02      -3.51959004e-03     5.39317632e-02      
H    7.16984784e-02      -8.59958876e-01     -5.38632703e-01     
H    9.56329186e-01      4.72017873e-01      6.02288468e-02      
H    -6.97248373e-01     6.51701377e-01      -3.08213370e-01     
C    -3.19276288e-01     -3.65281719e-01     1.43897934e+00      
H    4.16906924e-01      -1.05243915e+00     1.84550233e+00      
H    -3.45451819e-01     5.32386845e-01      2.04904199e+00      
C    -1.68422766e+00     -1.03101404e+00     1.41290191e+00      
O    -2.20792578e+00     -1.42990464e+00     3.87647711e-01      
O    -2.17469636e+00     -1.11263990e+00     2.63010467e+00      
H    -3.10691216e+00     -1.49779606e+00     2.58737997e+00      
O    -1.92536243e+00     1.79822641e+00      -3.96340170e-01     
H    -2.81652956e+00     1.62814237e+00      -4.15445549e-02     
H    -2.00935174e+00     2.53746796e+00      -1.00050103e+00     
O    1.90892900e-01      -2.51211942e+00     -1.09450662e+00     
H    -6.75276912e-01     -2.92468472e+00     -1.03557797e+00     
H    6.27312952e-01      -2.91939065e+00     -1.84796661e+00     
O    -4.35052118e+00     1.12382546e+00      6.88051690e-01      
H    -4.68711176e+00     1.34082759e+00      1.55927828e+00      
H    -4.75475476e+00     2.82250577e-01      4.44196810e-01      
O    -4.63042980e+00     -1.96489302e+00     2.52720461e+00      
H    -4.96983289e+00     -2.07064993e+00     1.62770365e+00      
H    -5.04486792e+00     -2.63848150e+00     3.07393472e+00      
O    -5.01999416e+00     -1.53818277e+00     -2.06815867e-01     
H    -5.64227516e+00     -1.81639561e+00     -8.83793630e-01     
H    -4.14348502e+00     -1.71534445e+00     -5.61527306e-01     
O    2.52077179e+00      1.26237607e+00      4.23605309e-01      
H    2.66208070e+00      2.20742538e+00      5.15220817e-01      
H    3.39726156e+00      8.83791007e-01      3.24216188e-01      
29
199.680164
N    3.53456714e-02      -3.09644337e-03     5.46340134e-02      
H    7.15200194e-02      -8.59353712e-01     -5.38096950e-01     
H    9.56731420e-01      4.72302228e-01      6.06278175e-02      
H    -6.96989005e-01     6.52187122e-01      -3.07323031e-01     
C    -3.18565491e-01     -3.65253992e-01     1.43972490e+00      
H    4.17634776e-01      -1.05268164e+00     1.84575244e+00      
H    -3.44473491e-01     5.32168057e-01      2.05015481e+00      
C    -1.68357117e+00     -1.03085221e+00     1.41308625e+00      
O    -2.20656551e+00     -1.42943969e+00     3.87372856e-01      
O    -2.17492198e+00     -1.11257673e+00     2.62991721e+00      
H    -3.10697018e+00     -1.49796478e+00     2.58674406e+00      
O    -1.92595865e+00     1.79916696e+00      -3.96920692e-01     
H    -2.81714110e+00     1.62874260e+00      -4.23169679e-02     
H    -2.00957692e+00     2.53997164e+00      -9.99155732e-01     
O    1.90504999e-01      -2.51310807e+00     -1.09523317e+00     
H    -6.75719608e-01     -2.92578017e+00     -1.03888785e+00     
H    6.31054537e-01      -2.92379668e+00     -1.84416289e+00     
O    -4.35104419e+00     1.12343808e+00      6.87666555e-01      
H    -4.68374020e+00     1.33688443e+00      1.56113840e+00      
H    -4.75395600e+00     2.81257385e-01      4.43694088e-01      
O    -4.63098326e+00     -1.96523272e+00     2.52706117e+00      
H    -4.97109961e+00     -2.07114452e+00     1.62787569e+00      
H    -5.04601535e+00     -2.63776717e+00     3.07459241e+00      
O    -5.01991172e+00     -1.53776652e+00     -2.06165804e-01     
H    -5.64261835e+00     -1.81410036e+00     -8.83507184e-01     
H    -4.14368320e+00     -1.71555250e+00     -5.61247059e-01     
O    2.52010841e+00      1.26196624e+00      4.24000254e-01      
H    2.66104672e+00      2.20741906e+00      5.11410797e-01      
H    3.39626590e+00      8.83761791e-01      3.20709283e-01      
29
199.680164
N    3.56232335e-02      -2.67329669e-03     5.53362635e-02      
H    7.13415604e-02      -8.58748548e-01     -5.37561197e-01     
H    9.57133654e-01      4.72586583e-01      6.10267883e-02      
H    -6.96729638e-01     6.52672866e-01      -3.06432692e-01     
C    -3.17854695e-01     -3.65226265e-01     1.44047046e+00      
H    4.18362628e-01      -1.05292413e+00     1.84600255e+00      
H    -3.43495162e-01     5.31949269e-01      2.05126762e+00      
C    -1.68291469e+00     -1.03069038e+00     1.41327060e+00      
O    -2.20520525e+00     -1.42897475e+00     3.87098000e-01      
O    -2.17514759e+00     -1.11251357e+00     2.62972975e+00      
H    -3.10702820e+00     -1.49813350e+00     2.58610815e+00      
O    -1.92655487e+00     1.80010751e+00      -3.97501214e-01     
H    -2.81775264e+00     1.62934283e+00      -4.30893810e-02     
H    -2.00980210e+00     2.54247531e+00      -9.97810430e-01     
O    1.90117099e-01      -2.51409672e+00     -1.09595973e+00     
H    -6.76162303e-01     -2.92687562e+00     -1.04219772e+00     
H    6.34796122e-01      -2.92820270e+00     -1.84035916e+00     
O    -4.35156720e+00     1.12305071e+00      6.87281420e-01      
H    -4.68036863e+00     1.33294127e+00      1.56299851e+00      
H    -4.75315723e+00     2.80264193e-01      4.43191367e-01      
O    -4.63153671e+00     -1.96557242e+00     2.52691773e+00      
H    -4.97236632e+00     -2.07163912e+00     1.62804772e+00      
H    -5.04716278e+00     -2.63705284e+00     3.07525009e+00      
O    -5.01982927e+00     -1.53735027e+00     -2.05515742e-01     
H    -5.64296154e+00     -1.81180510e+00     -8.83220738e-01     
H    -4.14388139e+00     -1.71576054e+00     -5.60966811e-01     
O    2.51944503e+00      1.26155641e+00      4.24395199e-01      
H    2.66001273e+00      2.20741274e+00      5.07600776e-01      
H    3.39527024e+00      8.83732574e-01      3.17202378e-01      
29
199.680164
N    3.67334821e-02      -9.80709988e-04     5.81452641e-02      
H    7.06277244e-02      -8.56327892e-01     -5.35418185e-01     
H    9.58742590e-01      4.73724005e-01      6.26226711e-02      
H    -6.95692168e-01     6.54615846e-01      -3.02871336e-01     
C    -3.15011511e-01     -3.65115357e-01     1.44345270e+00      
H    4.21274038e-01      -1.05389409e+00     1.84700301e+00      
H    -3.39581850e-01     5.31074115e-01      2.05571890e+00      
C    -1.68028875e+00     -1.03004306e+00     1.41400800e+00      
O    -2.19976419e+00     -1.42711495e+00     3.85998580e-01      
O    -2.17605007e+00     -1.11226091e+00     2.62897993e+00      
H    -3.10726030e+00     -1.49880838e+00     2.58356453e+00      
O    -1.92893977e+00     1.80386973e+00      -3.99823304e-01     
H    -2.82019882e+00     1.63174377e+00      -4.61790334e-02     
H    -2.01070284e+00     2.55249001e+00      -9.92429224e-01     
O    1.88565499e-01      -2.51805130e+00     -1.09886595e+00     
H    -6.77933083e-01     -2.93125744e+00     -1.05543722e+00     
H    6.49762462e-01      -2.94582678e+00     -1.82514426e+00     
O    -4.35365922e+00     1.12150121e+00      6.85740880e-01      
H    -4.66688239e+00     1.31716863e+00      1.57043897e+00      
H    -4.74996217e+00     2.76291425e-01      4.41180481e-01      
O    -4.63375053e+00     -1.96693124e+00     2.52634399e+00      
H    -4.97743318e+00     -2.07361752e+00     1.62873588e+00      
H    -5.05175250e+00     -2.63419552e+00     3.07788083e+00      
O    -5.01949951e+00     -1.53568525e+00     -2.02915490e-01     
H    -5.64433428e+00     -1.80262410e+00     -8.82074952e-01     
H    -4.14467413e+00     -1.71659274e+00     -5.59845819e-01     
O    2.51679153e+00      1.25991707e+00      4.25974981e-01      
H    2.65587681e+00      2.20738748e+00      4.92360694e-01      
H    3.39128758e+00      8.83615708e-01      3.03174758e-01      
29
199.680164
N    3.70110442e-02      -5.57563313e-04     5.88475142e-02      
H    7.04492654e-02      -8.55722728e-01     -5.34882432e-01     
H    9.59144824e-01      4.74008360e-01      6.30216419e-02      
H    -6.95432801e-01     6.55101590e-01      -3.01980997e-01     
C    -3.14300715e-01     -3.65087630e-01     1.44419826e+00      
H    4.22001890e-01      -1.05413658e+00     1.84725312e+00      
H    -3.38603521e-01     5.30855327e-01      2.05683171e+00      
C    -1.67963227e+00     -1.02988123e+00     1.41419235e+00      
O    -2.19840393e+00     -1.42665001e+00     3.85723724e-01      
O    -2.17627568e+00     -1.11219775e+00     2.62879247e+00      
H    -3.10731832e+00     -1.49897710e+00     2.58292862e+00      
O    -1.92953599e+00     1.80481028e+00      -4.00403826e-01     
H    -2.82081036e+00     1.63234400e+00      -4.69514465e-02     
H    -2.01092802e+00     2.55499368e+00      -9.91083922e-01     
O    1.88177599e-01      -2.51903995e+00     -1.09959251e+00     
H    -6.78375778e-01     -2.93235289e+00     -1.05874709e+00     
H    6.53504047e-01      -2.95023280e+00     -1.82134053e+00     
O    -4.35418223e+00     1.12111384e+00      6.85355745e-01      
H    -4.66351082e+00     1.31322547e+00      1.57229908e+00      
H    -4.74916340e+00     2.75298233e-01      4.40677760e-01      
O    -4.63430398e+00     -1.96727094e+00     2.52620055e+00      
H    -4.97869989e+00     -2.07411212e+00     1.62890791e+00      
H    -5.05289993e+00     -2.63348119e+00     3.07853851e+00      
O    -5.01941706e+00     -1.53526900e+00     -2.02265428e-01     
H    -5.64467747e+00     -1.80032884e+00     -8.81788506e-01     
H    -4.14487232e+00     -1.71680078e+00     -5.59565571e-01     
O    2.51612815e+00      1.25950724e+00      4.26369926e-01      
H    2.65484282e+00      2.20738116e+00      4.88550673e-01      
H    3.39029192e+00      8.83586491e-01      2.99667853e-01      
29
199.680164
N    3.72886064e-02      -1.34416637e-04     5.95497644e-02      
H    7.02708064e-02      -8.55117564e-01     -5.34346679e-01     
H    9.59547058e-01      4.74292715e-01      6.34206126e-02      
H    -6.95173433e-01     6.55587335e-01      -3.01090658e-01     
C    -3.13589918e-01     -3.65059903e-01     1.44494382e+00      
H    4.22729742e-01      -1.05437907e+00     1.84750323e+00      
H    -3.37625193e-01     5.30636539e-01      2.05794453e+00      
C    -1.67897578e+00     -1.02971940e+00     1.41437669e+00      
O    -2.19704366e+00     -1.42618506e+00     3.85448869e-01      
O    -2.17650130e+00     -1.11213458e+00     2.62860501e+00      
H    -3.10737634e+00     -1.49914582e+00     2.58229271e+00      
O    -1.93013221e+00     1.80575083e+00      -4.00984348e-01     
H    -2.82142190e+00     1.63294423e+00      -4.77238595e-02     
H    -2.01115320e+00     2.55749736e+00      -9.89738621e-01     
O    1.87789698e-01      -2.52002860e+00     -1.10031906e+00     
H    -6.78818474e-01     -2.93344834e+00     -1.06205697e+00     
H    6.57245632e-01      -2.95463883e+00     -1.81753681e+00     
O    -4.35470524e+00     1.12072646e+00      6.84970610e-01      
H    -4.66013926e+00     1.30928231e+00      1.57415920e+00      
H    -4.74836464e+00     2.74305041e-01      4.40175038e-01      
O    -4.63485744e+00     -1.96761064e+00     2.52605711e+00      
H    -4.97996661e+00     -2.07460671e+00     1.62907995e+00      
H    -5.05404736e+00     -2.63276686e+00     3.07919620e+00      
O    -5.01933462e+00     -1.53485275e+00     -2.01615365e-01     
H    -5.64502066e+00     -1.79803359e+00     -8.81502060e-01     
H    -4.14507050e+00     -1.71700883e+00     -5.59285324e-01     
O    2.51546477e+00      1.25909741e+00      4.26764871e-01      
H    2.65380884e+00      2.20737484e+00      4.84740653e-01      
H    3.38929626e+00      8.83557275e-01      2.96160948e-01      
29
199.680164
N    3.78437307e-02      7.11876715e-04      6.09542647e-02      
H    6.99138884e-02      -8.53907236e-01     -5.33275173e-01     
H    9.60351526e-01      4.74861426e-01      6.42185540e-02      
H    -6.94654699e-01     6.56558825e-01      -2.99309980e-01     
C    -3.12168326e-01     -3.65004449e-01     1.44643495e+00      
H    4.24185447e-01      -1.05486405e+00     1.84800346e+00      
H    -3.35668537e-01     5.30198962e-01      2.06017017e+00      
C    -1.67766281e+00     -1.02939574e+00     1.41474539e+00      
O    -2.19432313e+00     -1.42525516e+00     3.84899159e-01      
O    -2.17695254e+00     -1.11200826e+00     2.62823010e+00      
H    -3.10749239e+00     -1.49948326e+00     2.58102090e+00      
O    -1.93132466e+00     1.80763194e+00      -4.02145393e-01     
H    -2.82264499e+00     1.63414470e+00      -4.92686857e-02     
H    -2.01160357e+00     2.56250470e+00      -9.87048018e-01     
O    1.87013898e-01      -2.52200589e+00     -1.10177217e+00     
H    -6.79703864e-01     -2.93563925e+00     -1.06867672e+00     
H    6.64728801e-01      -2.96345087e+00     -1.80992936e+00     
O    -4.35575125e+00     1.11995171e+00      6.84200340e-01      
H    -4.65339614e+00     1.30139599e+00      1.57787942e+00      
H    -4.74676711e+00     2.72318656e-01      4.39169595e-01      
O    -4.63596435e+00     -1.96829005e+00     2.52577024e+00      
H    -4.98250004e+00     -2.07559591e+00     1.62942403e+00      
H    -5.05634222e+00     -2.63133820e+00     3.08051157e+00      
O    -5.01916974e+00     -1.53402024e+00     -2.00315239e-01     
H    -5.64570703e+00     -1.79344309e+00     -8.80929167e-01     
H    -4.14546687e+00     -1.71742493e+00     -5.58724828e-01     
O    2.51413802e+00      1.25827774e+00      4.27554762e-01      
H    2.65174088e+00      2.20736221e+00      4.77120611e-01      
H    3.38730493e+00      8.83498841e-01      2.89147138e-01      
29
199.680164
N    3.83988550e-02      1.55817007e-03      6.23587650e-02      
H    6.95569704e-02      -8.52696907e-01     -5.32203667e-01     
H    9.61155994e-01      4.75430136e-01      6.50164955e-02      
H    -6.94135964e-01     6.57530314e-01      -2.97529302e-01     
C    -3.10746734e-01     -3.64948995e-01     1.44792607e+00      
H    4.25641152e-01      -1.05534904e+00     1.84850368e+00      
H    -3.33711881e-01     5.29761385e-01      2.06239580e+00      
C    -1.67634984e+00     -1.02907207e+00     1.41511409e+00      
O    -2.19160260e+00     -1.42432526e+00     3.84349449e-01      
O    -2.17740378e+00     -1.11188193e+00     2.62785518e+00      
H    -3.10760844e+00     -1.49982070e+00     2.57974908e+00      
O    -1.93251711e+00     1.80951304e+00      -4.03306437e-01     
H    -2.82386808e+00     1.63534516e+00      -5.08135119e-02     
H    -2.01205394e+00     2.56751205e+00      -9.84357415e-01     
O    1.86238098e-01      -2.52398319e+00     -1.10322528e+00     
H    -6.80589254e-01     -2.93783015e+00     -1.07529647e+00     
H    6.72211971e-01      -2.97226291e+00     -1.80232191e+00     
O    -4.35679726e+00     1.11917696e+00      6.83430069e-01      
H    -4.64665301e+00     1.29350967e+00      1.58159965e+00      
H    -4.74516957e+00     2.70332272e-01      4.38164153e-01      
O    -4.63707126e+00     -1.96896945e+00     2.52548336e+00      
H    -4.98503346e+00     -2.07658511e+00     1.62976810e+00      
H    -5.05863708e+00     -2.62990954e+00     3.08182694e+00      
O    -5.01900485e+00     -1.53318774e+00     -1.99015114e-01     
H    -5.64639340e+00     -1.78885258e+00     -8.80356274e-01     
H    -4.14586324e+00     -1.71784102e+00     -5.58164332e-01     
O    2.51281127e+00      1.25745808e+00      4.28344652e-01      
H    2.64967291e+00      2.20734957e+00      4.69500570e-01      
H    3.38531361e+00      8.83440408e-01      2.82133328e-01      
29
199.680164
N    3.89539793e-02      2.40446342e-03      6.37632653e-02      
H    6.92000523e-02      -8.51486579e-01     -5.31132160e-01     
H    9.61960462e-01      4.75998847e-01      6.58144369e-02      
H    -6.93617229e-01     6.58501804e-01      -2.95748625e-01     
C    -3.09325142e-01     -3.64893541e-01     1.44941719e+00      
H    4.27096857e-01      -1.05583402e+00     1.84900391e+00      
H    -3.31755224e-01     5.29323808e-01      2.06462144e+00      
C    -1.67503687e+00     -1.02874841e+00     1.41548279e+00      
O    -2.18888207e+00     -1.42339537e+00     3.83799738e-01      
O    -2.17785501e+00     -1.11175560e+00     2.62748027e+00      
H    -3.10772448e+00     -1.50015814e+00     2.57847727e+00      
O    -1.93370955e+00     1.81139415e+00      -4.04467482e-01     
H    -2.82509117e+00     1.63654563e+00      -5.23583381e-02     
H    -2.01250430e+00     2.57251940e+00      -9.81666812e-01     
O    1.85462298e-01      -2.52596048e+00     -1.10467840e+00     
H    -6.81474645e-01     -2.94002106e+00     -1.08191622e+00     
H    6.79695141e-01      -2.98107496e+00     -1.79471446e+00     
O    -4.35784327e+00     1.11840221e+00      6.82659799e-01      
H    -4.63990989e+00     1.28562335e+00      1.58531988e+00      
H    -4.74357204e+00     2.68345888e-01      4.37158710e-01      
O    -4.63817817e+00     -1.96964886e+00     2.52519649e+00      
H    -4.98756689e+00     -2.07757430e+00     1.63011218e+00      
H    -5.06093194e+00     -2.62848088e+00     3.08314231e+00      
O    -5.01883997e+00     -1.53235523e+00     -1.97714988e-01     
H    -5.64707978e+00     -1.78426208e+00     -8.79783382e-01     
H    -4.14625962e+00     -1.71825712e+00     -5.57603836e-01     
O    2.51148451e+00      1.25663841e+00      4.29134543e-01      
H    2.64760495e+00      2.20733694e+00      4.61880529e-01      
H    3.38332228e+00      8.83381975e-01      2.75119518e-01      
29
199.680164
N    3.95091036e-02      3.25075677e-03      6.51677656e-02      
H    6.88431343e-02      -8.50276251e-01     -5.30060654e-01     
H    9.62764930e-01      4.76567557e-01      6.66123783e-02      
H    -6.93098494e-01     6.59473293e-01      -2.93967947e-01     
C    -3.07903549e-01     -3.64838087e-01     1.45090831e+00      
H    4.28552561e-01      -1.05631900e+00     1.84950413e+00      
H    -3.29798568e-01     5.28886232e-01      2.06684708e+00      
C    -1.67372390e+00     -1.02842475e+00     1.41585148e+00      
O    -2.18616154e+00     -1.42246547e+00     3.83250028e-01      
O    -2.17830625e+00     -1.11162927e+00     2.62710535e+00      
H    -3.10784053e+00     -1.50049558e+00     2.57720546e+00      
O    -1.93490200e+00     1.81327525e+00      -4.05628526e-01     
H    -2.82631425e+00     1.63774609e+00      -5.39031642e-02     
H    -2.01295467e+00     2.57752675e+00      -9.78976209e-01     
O    1.84686497e-01      -2.52793777e+00     -1.10613151e+00     
H    -6.82360035e-01     -2.94221196e+00     -1.08853597e+00     
H    6.87178311e-01      -2.98988700e+00     -1.78710701e+00     
O    -4.35888929e+00     1.11762746e+00      6.81889529e-01      
H    -4.63316676e+00     1.27773704e+00      1.58904011e+00      
H    -4.74197451e+00     2.66359504e-01      4.36153267e-01      
O    -4.63928508e+00     -1.97032826e+00     2.52490962e+00      
H    -4.99010032e+00     -2.07856350e+00     1.63045625e+00      
H    -5.06322680e+00     -2.62705222e+00     3.08445768e+00      
O    -5.01867508e+00     -1.53152273e+00     -1.96414863e-01     
H    -5.64776615e+00     -1.77967157e+00     -8.79210489e-01     
H    -4.14665599e+00     -1.71867321e+00     -5.57043341e-01     
O    2.51015776e+00      1.25581874e+00      4.29924433e-01      
H    2.64553698e+00      2.20732430e+00      4.54260488e-01      
H    3.38133095e+00      8.83323542e-01      2.68105708e-01      
29
199.680164
N    4.06193522e-02      4.94334347e-03      6.79767661e-02      
H    6.81292983e-02      -8.47855595e-01     -5.27917642e-01     
H    9.64373867e-01      4.77704979e-01      6.82082612e-02      
H    -6.92061025e-01     6.61416272e-01      -2.90406591e-01     
C    -3.05060365e-01     -3.64727179e-01     1.45389056e+00      
H    4.31463971e-01      -1.05728896e+00     1.85050459e+00      
H    -3.25885255e-01     5.28011078e-01      2.07129835e+00      
C    -1.67109796e+00     -1.02777743e+00     1.41658888e+00      
O    -2.18072048e+00     -1.42060568e+00     3.82150607e-01      
O    -2.17920872e+00     -1.11137662e+00     2.62635552e+00      
H    -3.10807262e+00     -1.50117046e+00     2.57466183e+00      
O    -1.93728689e+00     1.81703746e+00      -4.07950616e-01     
H    -2.82876043e+00     1.64014702e+00      -5.69928166e-02     
H    -2.01385540e+00     2.58754144e+00      -9.73595003e-01     
O    1.83134897e-01      -2.53189236e+00     -1.10903773e+00     
H    -6.84130815e-01     -2.94659377e+00     -1.10177547e+00     
H    7.02144650e-01      -3.00751109e+00     -1.77189211e+00     
O    -4.36098131e+00     1.11607797e+00      6.80348989e-01      
H    -4.61968052e+00     1.26196440e+00      1.59648056e+00      
H    -4.73877945e+00     2.62386736e-01      4.34142381e-01      
O    -4.64149889e+00     -1.97168707e+00     2.52433587e+00      
H    -4.99516718e+00     -2.08054189e+00     1.63114440e+00      
H    -5.06781653e+00     -2.62419490e+00     3.08708842e+00      
O    -5.01834532e+00     -1.52985772e+00     -1.93814611e-01     
H    -5.64913890e+00     -1.77049056e+00     -8.78064703e-01     
H    -4.14744873e+00     -1.71950540e+00     -5.55922349e-01     
O    2.50750426e+00      1.25417941e+00      4.31504215e-01      
H    2.64140105e+00      2.20729903e+00      4.39020405e-01      
H    3.37734830e+00      8.83206676e-01      2.54078088e-01      
