29
192.975229
N    3.07239409e-02      -2.31271816e-03     5.36207425e-02      
H    6.70765672e-02      -8.58044008e-01     -5.39576089e-01     
H    9.52451555e-01      4.71794702e-01      6.08987651e-02      
H    -7.00317339e-01     6.54540936e-01      -3.08447969e-01     
C    -3.25293166e-01     -3.65184856e-01     1.43771116e+00      
H    4.09964569e-01      -1.05279610e+00     1.84502884e+00      
H    -3.51889657e-01     5.32032494e-01      2.04860785e+00      
C    -1.69035605e+00     -1.03123006e+00     1.41313960e+00      
O    -2.21787964e+00     -1.43051415e+00     3.90265597e-01      
O    -2.17702484e+00     -1.11263613e+00     2.63250152e+00      
H    -3.10697568e+00     -1.50462920e+00     2.59182776e+00      
O    -1.93093767e+00     1.79064336e+00      -3.99597123e-01     
H    -2.82523309e+00     1.62294921e+00      -4.99209253e-02     
H    -1.98570437e+00     2.59843854e+00      -9.21530275e-01     
O    1.87870484e-01      -2.51216186e+00     -1.09524514e+00     
H    -6.76315292e-01     -2.93146467e+00     -1.06199621e+00     
H    6.56375713e-01      -2.92857462e+00     -1.82361754e+00     
O    -4.34816615e+00     1.13079131e+00      6.75172828e-01      
H    -4.55700806e+00     1.22988366e+00      1.62039526e+00      
H    -4.72234841e+00     2.78114226e-01      4.18631098e-01      
O    -4.62356494e+00     -1.96853214e+00     2.52776789e+00      
H    -4.96493150e+00     -2.07287634e+00     1.62868932e+00      
H    -5.04857212e+00     -2.63203146e+00     3.07883295e+00      
O    -5.01464741e+00     -1.53523488e+00     -2.03024136e-01     
H    -5.65458162e+00     -1.79313158e+00     -8.72098142e-01     
H    -4.14800928e+00     -1.73283703e+00     -5.71340067e-01     
O    2.52844669e+00      1.26729958e+00      4.24110788e-01      
H    2.67361343e+00      2.21112379e+00      5.23368953e-01      
H    3.40425857e+00      8.85940816e-01      3.28865053e-01      
29
192.975229
N    3.20875451e-02      -2.19128945e-03     5.44007478e-02      
H    6.80535860e-02      -8.57917561e-01     -5.38804489e-01     
H    9.53823196e-01      4.72134850e-01      6.11302563e-02      
H    -6.99290730e-01     6.54316791e-01      -3.07498980e-01     
C    -3.23078150e-01     -3.65181344e-01     1.43877377e+00      
H    4.12428010e-01      -1.05294935e+00     1.84539732e+00      
H    -3.49301869e-01     5.31902293e-01      2.04982920e+00      
C    -1.68816747e+00     -1.03101423e+00     1.41326452e+00      
O    -2.21403091e+00     -1.42989683e+00     3.89336271e-01      
O    -2.17666834e+00     -1.11257390e+00     2.63171485e+00      
H    -3.10701782e+00     -1.50308963e+00     2.59007991e+00      
O    -1.93014009e+00     1.79347967e+00      -3.99363407e-01     
H    -2.82366875e+00     1.62484773e+00      -4.85992458e-02     
H    -1.99184139e+00     2.58569957e+00      -9.39927663e-01     
O    1.88238188e-01      -2.51313990e+00     -1.09578707e+00     
H    -6.76498392e-01     -2.93086513e+00     -1.05870152e+00     
H    6.52851608e-01      -2.93068465e+00     -1.82590108e+00     
O    -4.34927791e+00     1.12866247e+00      6.78007408e-01      
H    -4.58616243e+00     1.25367648e+00      1.60697613e+00      
H    -4.72965123e+00     2.78155122e-01      4.24519804e-01      
O    -4.62583461e+00     -1.96796206e+00     2.52748363e+00      
H    -4.96742356e+00     -2.07281433e+00     1.62861494e+00      
H    -5.04879350e+00     -2.63292964e+00     3.07826608e+00      
O    -5.01590166e+00     -1.53555560e+00     -2.03322006e-01     
H    -5.65184819e+00     -1.79665234e+00     -8.74735568e-01     
H    -4.14707640e+00     -1.72867194e+00     -5.68606629e-01     
O    2.52586459e+00      1.26565887e+00      4.24379363e-01      
H    2.66969627e+00      2.21019287e+00      5.17521899e-01      
H    3.40151366e+00      8.85374147e-01      3.24195932e-01      
29
192.975229
N    3.27693472e-02      -2.13057510e-03     5.47907505e-02      
H    6.85420954e-02      -8.57854338e-01     -5.38418690e-01     
H    9.54509017e-01      4.72304924e-01      6.12460018e-02      
H    -6.98777425e-01     6.54204718e-01      -3.07024486e-01     
C    -3.21970642e-01     -3.65179589e-01     1.43930507e+00      
H    4.13659730e-01      -1.05302598e+00     1.84558157e+00      
H    -3.48007975e-01     5.31837193e-01      2.05043988e+00      
C    -1.68707318e+00     -1.03090631e+00     1.41332698e+00      
O    -2.21210654e+00     -1.42958816e+00     3.88871607e-01      
O    -2.17649008e+00     -1.11254279e+00     2.63132151e+00      
H    -3.10703889e+00     -1.50231985e+00     2.58920598e+00      
O    -1.92974129e+00     1.79489783e+00      -3.99246549e-01     
H    -2.82288658e+00     1.62579699e+00      -4.79384060e-02     
H    -1.99490990e+00     2.57933009e+00      -9.49126357e-01     
O    1.88422040e-01      -2.51362892e+00     -1.09605803e+00     
H    -6.76589942e-01     -2.93056537e+00     -1.05705418e+00     
H    6.51089555e-01      -2.93173966e+00     -1.82704285e+00     
O    -4.34983379e+00     1.12759805e+00      6.79424698e-01      
H    -4.60073961e+00     1.26557289e+00      1.60026657e+00      
H    -4.73330264e+00     2.78175570e-01      4.27464157e-01      
O    -4.62696944e+00     -1.96767702e+00     2.52734150e+00      
H    -4.96866959e+00     -2.07278333e+00     1.62857775e+00      
H    -5.04890419e+00     -2.63337873e+00     3.07798264e+00      
O    -5.01652878e+00     -1.53571596e+00     -2.03470941e-01     
H    -5.65048148e+00     -1.79841271e+00     -8.76054281e-01     
H    -4.14660996e+00     -1.72658939e+00     -5.67239910e-01     
O    2.52457354e+00      1.26483851e+00      4.24513651e-01      
H    2.66773768e+00      2.20972741e+00      5.14598371e-01      
H    3.40014120e+00      8.85090813e-01      3.21861371e-01      
29
192.975229
N    3.34511494e-02      -2.06986075e-03     5.51807532e-02      
H    6.90306048e-02      -8.57791114e-01     -5.38032890e-01     
H    9.55194838e-01      4.72474998e-01      6.13617474e-02      
H    -6.98264121e-01     6.54092646e-01      -3.06549992e-01     
C    -3.20863134e-01     -3.65177833e-01     1.43983637e+00      
H    4.14891451e-01      -1.05310260e+00     1.84576581e+00      
H    -3.46714082e-01     5.31772093e-01      2.05105056e+00      
C    -1.68597888e+00     -1.03079839e+00     1.41338945e+00      
O    -2.21018218e+00     -1.42927950e+00     3.88406944e-01      
O    -2.17631183e+00     -1.11251168e+00     2.63092818e+00      
H    -3.10705996e+00     -1.50155007e+00     2.58833205e+00      
O    -1.92934250e+00     1.79631599e+00      -3.99129691e-01     
H    -2.82210441e+00     1.62674625e+00      -4.72775663e-02     
H    -1.99797842e+00     2.57296060e+00      -9.58325051e-01     
O    1.88605891e-01      -2.51411794e+00     -1.09632899e+00     
H    -6.76681492e-01     -2.93026560e+00     -1.05540684e+00     
H    6.49327502e-01      -2.93279468e+00     -1.82818463e+00     
O    -4.35038968e+00     1.12653363e+00      6.80841989e-01      
H    -4.61531679e+00     1.27746930e+00      1.59355700e+00      
H    -4.73695405e+00     2.78196018e-01      4.30408511e-01      
O    -4.62810428e+00     -1.96739199e+00     2.52719937e+00      
H    -4.96991562e+00     -2.07275233e+00     1.62854056e+00      
H    -5.04901488e+00     -2.63382782e+00     3.07769921e+00      
O    -5.01715590e+00     -1.53587632e+00     -2.03619876e-01     
H    -5.64911477e+00     -1.80017309e+00     -8.77372994e-01     
H    -4.14614352e+00     -1.72450684e+00     -5.65873191e-01     
O    2.52328249e+00      1.26401816e+00      4.24647939e-01      
H    2.66577910e+00      2.20926195e+00      5.11674844e-01      
H    3.39876874e+00      8.84807479e-01      3.19526811e-01      
29
192.975229
N    3.41329515e-02      -2.00914640e-03     5.55707558e-02      
H    6.95191142e-02      -8.57727891e-01     -5.37647090e-01     
H    9.55880659e-01      4.72645072e-01      6.14774930e-02      
H    -6.97750816e-01     6.53980573e-01      -3.06075497e-01     
C    -3.19755627e-01     -3.65176078e-01     1.44036767e+00      
H    4.16123171e-01      -1.05317923e+00     1.84595005e+00      
H    -3.45420188e-01     5.31706993e-01      2.05166123e+00      
C    -1.68488459e+00     -1.03069047e+00     1.41345191e+00      
O    -2.20825781e+00     -1.42897084e+00     3.87942280e-01      
O    -2.17613358e+00     -1.11248057e+00     2.63053484e+00      
H    -3.10708104e+00     -1.50078029e+00     2.58745812e+00      
O    -1.92894370e+00     1.79773415e+00      -3.99012833e-01     
H    -2.82132224e+00     1.62769552e+00      -4.66167265e-02     
H    -2.00104693e+00     2.56659112e+00      -9.67523745e-01     
O    1.88789743e-01      -2.51460696e+00     -1.09659995e+00     
H    -6.76773043e-01     -2.92996583e+00     -1.05375950e+00     
H    6.47565450e-01      -2.93384969e+00     -1.82932640e+00     
O    -4.35094556e+00     1.12546922e+00      6.82259279e-01      
H    -4.62989397e+00     1.28936572e+00      1.58684744e+00      
H    -4.74060546e+00     2.78216465e-01      4.33352864e-01      
O    -4.62923911e+00     -1.96710695e+00     2.52705725e+00      
H    -4.97116165e+00     -2.07272133e+00     1.62850337e+00      
H    -5.04912557e+00     -2.63427691e+00     3.07741577e+00      
O    -5.01778302e+00     -1.53603668e+00     -2.03768811e-01     
H    -5.64774805e+00     -1.80193347e+00     -8.78691707e-01     
H    -4.14567708e+00     -1.72242429e+00     -5.64506472e-01     
O    2.52199143e+00      1.26319780e+00      4.24782227e-01      
H    2.66382052e+00      2.20879649e+00      5.08751317e-01      
H    3.39739628e+00      8.84524144e-01      3.17192250e-01      
29
192.975229
N    3.48147536e-02      -1.94843204e-03     5.59607585e-02      
H    7.00076236e-02      -8.57664667e-01     -5.37261290e-01     
H    9.56566480e-01      4.72815146e-01      6.15932386e-02      
H    -6.97237512e-01     6.53868501e-01      -3.05601003e-01     
C    -3.18648119e-01     -3.65174322e-01     1.44089898e+00      
H    4.17354892e-01      -1.05325586e+00     1.84613429e+00      
H    -3.44126294e-01     5.31641892e-01      2.05227191e+00      
C    -1.68379030e+00     -1.03058256e+00     1.41351437e+00      
O    -2.20633345e+00     -1.42866218e+00     3.87477617e-01      
O    -2.17595533e+00     -1.11244946e+00     2.63014151e+00      
H    -3.10710211e+00     -1.50001050e+00     2.58658420e+00      
O    -1.92854491e+00     1.79915230e+00      -3.98895975e-01     
H    -2.82054007e+00     1.62864478e+00      -4.59558867e-02     
H    -2.00411544e+00     2.56022163e+00      -9.76722439e-01     
O    1.88973595e-01      -2.51509597e+00     -1.09687092e+00     
H    -6.76864593e-01     -2.92966606e+00     -1.05211215e+00     
H    6.45803397e-01      -2.93490471e+00     -1.83046817e+00     
O    -4.35150144e+00     1.12440480e+00      6.83676569e-01      
H    -4.64447115e+00     1.30126213e+00      1.58013787e+00      
H    -4.74425688e+00     2.78236913e-01      4.36297217e-01      
O    -4.63037395e+00     -1.96682191e+00     2.52691512e+00      
H    -4.97240769e+00     -2.07269032e+00     1.62846618e+00      
H    -5.04923626e+00     -2.63472600e+00     3.07713233e+00      
O    -5.01841015e+00     -1.53619704e+00     -2.03917746e-01     
H    -5.64638134e+00     -1.80369385e+00     -8.80010419e-01     
H    -4.14521064e+00     -1.72034174e+00     -5.63139753e-01     
O    2.52070038e+00      1.26237745e+00      4.24916514e-01      
H    2.66186194e+00      2.20833103e+00      5.05827790e-01      
H    3.39602383e+00      8.84240810e-01      3.14857689e-01      
29
192.975229
N    3.51556546e-02      -1.91807487e-03     5.61557598e-02      
H    7.02518783e-02      -8.57633055e-01     -5.37068391e-01     
H    9.56909391e-01      4.72900183e-01      6.16511113e-02      
H    -6.96980860e-01     6.53812465e-01      -3.05363756e-01     
C    -3.18094365e-01     -3.65173444e-01     1.44116463e+00      
H    4.17970752e-01      -1.05329417e+00     1.84622642e+00      
H    -3.43479347e-01     5.31609342e-01      2.05257725e+00      
C    -1.68324316e+00     -1.03052860e+00     1.41354561e+00      
O    -2.20537127e+00     -1.42850784e+00     3.87245285e-01      
O    -2.17586621e+00     -1.11243391e+00     2.62994484e+00      
H    -3.10711264e+00     -1.49962561e+00     2.58614723e+00      
O    -1.92834551e+00     1.79986138e+00      -3.98837546e-01     
H    -2.82014899e+00     1.62911941e+00      -4.56254668e-02     
H    -2.00564970e+00     2.55703689e+00      -9.81321786e-01     
O    1.89065521e-01      -2.51534048e+00     -1.09700640e+00     
H    -6.76910368e-01     -2.92951618e+00     -1.05128848e+00     
H    6.44922371e-01      -2.93543222e+00     -1.83103905e+00     
O    -4.35177939e+00     1.12387259e+00      6.84385215e-01      
H    -4.65175974e+00     1.30721033e+00      1.57678309e+00      
H    -4.74608258e+00     2.78247137e-01      4.37769394e-01      
O    -4.63094137e+00     -1.96667939e+00     2.52684405e+00      
H    -4.97303070e+00     -2.07267482e+00     1.62844759e+00      
H    -5.04929161e+00     -2.63495054e+00     3.07699061e+00      
O    -5.01872371e+00     -1.53627722e+00     -2.03992213e-01     
H    -5.64569798e+00     -1.80457403e+00     -8.80669776e-01     
H    -4.14497742e+00     -1.71930046e+00     -5.62456394e-01     
O    2.52005486e+00      1.26196727e+00      4.24983658e-01      
H    2.66088264e+00      2.20809830e+00      5.04366026e-01      
H    3.39533760e+00      8.84099143e-01      3.13690409e-01      
29
192.975229
N    3.54965557e-02      -1.88771769e-03     5.63507611e-02      
H    7.04961330e-02      -8.57601444e-01     -5.36875491e-01     
H    9.57252301e-01      4.72985220e-01      6.17089841e-02      
H    -6.96724207e-01     6.53756428e-01      -3.05126508e-01     
C    -3.17540611e-01     -3.65172567e-01     1.44143028e+00      
H    4.18586612e-01      -1.05333248e+00     1.84631854e+00      
H    -3.42832400e-01     5.31576792e-01      2.05288258e+00      
C    -1.68269601e+00     -1.03047464e+00     1.41357684e+00      
O    -2.20440908e+00     -1.42835351e+00     3.87012953e-01      
O    -2.17577708e+00     -1.11241835e+00     2.62974817e+00      
H    -3.10712318e+00     -1.49924072e+00     2.58571027e+00      
O    -1.92814611e+00     1.80057046e+00      -3.98779117e-01     
H    -2.81975790e+00     1.62959404e+00      -4.52950470e-02     
H    -2.00718396e+00     2.55385215e+00      -9.85921133e-01     
O    1.89157447e-01      -2.51558499e+00     -1.09714188e+00     
H    -6.76956143e-01     -2.92936630e+00     -1.05046481e+00     
H    6.44041345e-01      -2.93595972e+00     -1.83160994e+00     
O    -4.35205733e+00     1.12334038e+00      6.85093860e-01      
H    -4.65904833e+00     1.31315854e+00      1.57342831e+00      
H    -4.74790829e+00     2.78257361e-01      4.39241571e-01      
O    -4.63150878e+00     -1.96653687e+00     2.52677299e+00      
H    -4.97365372e+00     -2.07265932e+00     1.62842899e+00      
H    -5.04934695e+00     -2.63517509e+00     3.07684890e+00      
O    -5.01903727e+00     -1.53635740e+00     -2.04066681e-01     
H    -5.64501462e+00     -1.80545422e+00     -8.81329132e-01     
H    -4.14474420e+00     -1.71825919e+00     -5.61773034e-01     
O    2.51940933e+00      1.26155709e+00      4.25050802e-01      
H    2.65990335e+00      2.20786557e+00      5.02904262e-01      
H    3.39465137e+00      8.83957475e-01      3.12523129e-01      
29
192.975229
N    3.68601599e-02      -1.76628899e-03     5.71307665e-02      
H    7.14731518e-02      -8.57474996e-01     -5.36103891e-01     
H    9.58623943e-01      4.73325368e-01      6.19404753e-02      
H    -6.95697599e-01     6.53532284e-01      -3.04177520e-01     
C    -3.15325595e-01     -3.65169055e-01     1.44249288e+00      
H    4.21050054e-01      -1.05348574e+00     1.84668702e+00      
H    -3.40244612e-01     5.31446592e-01      2.05410394e+00      
C    -1.68050743e+00     -1.03025880e+00     1.41370176e+00      
O    -2.20056036e+00     -1.42773619e+00     3.86083627e-01      
O    -2.17542058e+00     -1.11235613e+00     2.62896151e+00      
H    -3.10716532e+00     -1.49770116e+00     2.58396241e+00      
O    -1.92734853e+00     1.80340678e+00      -3.98545401e-01     
H    -2.81819356e+00     1.63149256e+00      -4.39733674e-02     
H    -2.01332098e+00     2.54111317e+00      -1.00431852e+00     
O    1.89525151e-01      -2.51656303e+00     -1.09768380e+00     
H    -6.77139243e-01     -2.92876676e+00     -1.04717013e+00     
H    6.40517239e-01      -2.93806976e+00     -1.83389348e+00     
O    -4.35316909e+00     1.12121154e+00      6.87928440e-01      
H    -4.68820269e+00     1.33695136e+00      1.56000917e+00      
H    -4.75521111e+00     2.78298257e-01      4.45130277e-01      
O    -4.63377846e+00     -1.96596679e+00     2.52648873e+00      
H    -4.97614578e+00     -2.07259732e+00     1.62835461e+00      
H    -5.04956833e+00     -2.63607327e+00     3.07628202e+00      
O    -5.02029151e+00     -1.53667812e+00     -2.04364551e-01     
H    -5.64228120e+00     -1.80897498e+00     -8.83966558e-01     
H    -4.14381132e+00     -1.71409409e+00     -5.59039596e-01     
O    2.51682723e+00      1.25991639e+00      4.25319378e-01      
H    2.65598619e+00      2.20693465e+00      4.97057208e-01      
H    3.39190645e+00      8.83390807e-01      3.07854007e-01      
29
192.975229
N    3.72010610e-02      -1.73593181e-03     5.73257678e-02      
H    7.17174065e-02      -8.57443385e-01     -5.35910991e-01     
H    9.58966853e-01      4.73410405e-01      6.19983481e-02      
H    -6.95440946e-01     6.53476247e-01      -3.03940272e-01     
C    -3.14771841e-01     -3.65168178e-01     1.44275853e+00      
H    4.21665914e-01      -1.05352405e+00     1.84677914e+00      
H    -3.39597665e-01     5.31414042e-01      2.05440927e+00      
C    -1.67996028e+00     -1.03020484e+00     1.41373299e+00      
O    -2.19959817e+00     -1.42758186e+00     3.85851295e-01      
O    -2.17533145e+00     -1.11234057e+00     2.62876484e+00      
H    -3.10717586e+00     -1.49731627e+00     2.58352545e+00      
O    -1.92714913e+00     1.80411586e+00      -3.98486972e-01     
H    -2.81780247e+00     1.63196719e+00      -4.36429476e-02     
H    -2.01485524e+00     2.53792843e+00      -1.00891787e+00     
O    1.89617077e-01      -2.51680754e+00     -1.09781928e+00     
H    -6.77185018e-01     -2.92861688e+00     -1.04634646e+00     
H    6.39636213e-01      -2.93859726e+00     -1.83446437e+00     
O    -4.35344703e+00     1.12067933e+00      6.88637085e-01      
H    -4.69549128e+00     1.34289957e+00      1.55665439e+00      
H    -4.75703682e+00     2.78308481e-01      4.46602454e-01      
O    -4.63434587e+00     -1.96582427e+00     2.52641767e+00      
H    -4.97676880e+00     -2.07258182e+00     1.62833601e+00      
H    -5.04962367e+00     -2.63629782e+00     3.07614031e+00      
O    -5.02060507e+00     -1.53675830e+00     -2.04439019e-01     
H    -5.64159784e+00     -1.80985517e+00     -8.84625914e-01     
H    -4.14357810e+00     -1.71305282e+00     -5.58356236e-01     
O    2.51618170e+00      1.25950621e+00      4.25386522e-01      
H    2.65500690e+00      2.20670192e+00      4.95595444e-01      
H    3.39122022e+00      8.83249139e-01      3.06686727e-01      
29
192.975229
N    3.75419620e-02      -1.70557464e-03     5.75207691e-02      
H    7.19616612e-02      -8.57411773e-01     -5.35718092e-01     
H    9.59309764e-01      4.73495442e-01      6.20562208e-02      
H    -6.95184294e-01     6.53420211e-01      -3.03703025e-01     
C    -3.14218087e-01     -3.65167300e-01     1.44302418e+00      
H    4.22281774e-01      -1.05356236e+00     1.84687127e+00      
H    -3.38950718e-01     5.31381492e-01      2.05471461e+00      
C    -1.67941314e+00     -1.03015088e+00     1.41376423e+00      
O    -2.19863599e+00     -1.42742752e+00     3.85618963e-01      
O    -2.17524233e+00     -1.11232502e+00     2.62856817e+00      
H    -3.10718639e+00     -1.49693138e+00     2.58308848e+00      
O    -1.92694973e+00     1.80482494e+00      -3.98428543e-01     
H    -2.81741139e+00     1.63244182e+00      -4.33125277e-02     
H    -2.01638950e+00     2.53474369e+00      -1.01351722e+00     
O    1.89709003e-01      -2.51705205e+00     -1.09795476e+00     
H    -6.77230793e-01     -2.92846700e+00     -1.04552279e+00     
H    6.38755187e-01      -2.93912477e+00     -1.83503525e+00     
O    -4.35372498e+00     1.12014712e+00      6.89345731e-01      
H    -4.70277987e+00     1.34884777e+00      1.55329961e+00      
H    -4.75886252e+00     2.78318705e-01      4.48074631e-01      
O    -4.63491329e+00     -1.96568175e+00     2.52634660e+00      
H    -4.97739181e+00     -2.07256632e+00     1.62831742e+00      
H    -5.04967902e+00     -2.63652236e+00     3.07599859e+00      
O    -5.02091863e+00     -1.53683848e+00     -2.04513486e-01     
H    -5.64091448e+00     -1.81073535e+00     -8.85285271e-01     
H    -4.14334488e+00     -1.71201154e+00     -5.57672877e-01     
O    2.51553618e+00      1.25909603e+00      4.25453666e-01      
H    2.65402760e+00      2.20646919e+00      4.94133680e-01      
H    3.39053399e+00      8.83107472e-01      3.05519447e-01      
29
192.975229
N    3.82237641e-02      -1.64486028e-03     5.79107718e-02      
H    7.24501706e-02      -8.57348549e-01     -5.35332292e-01     
H    9.59995585e-01      4.73665516e-01      6.21719664e-02      
H    -6.94670990e-01     6.53308139e-01      -3.03228531e-01     
C    -3.13110579e-01     -3.65165544e-01     1.44355549e+00      
H    4.23513495e-01      -1.05363899e+00     1.84705551e+00      
H    -3.37656824e-01     5.31316391e-01      2.05532529e+00      
C    -1.67831885e+00     -1.03004297e+00     1.41382669e+00      
O    -2.19671163e+00     -1.42711886e+00     3.85154300e-01      
O    -2.17506408e+00     -1.11229391e+00     2.62817484e+00      
H    -3.10720746e+00     -1.49616159e+00     2.58221456e+00      
O    -1.92655094e+00     1.80624309e+00      -3.98311685e-01     
H    -2.81662922e+00     1.63339108e+00      -4.26516879e-02     
H    -2.01945801e+00     2.52837420e+00      -1.02271591e+00     
O    1.89892855e-01      -2.51754106e+00     -1.09822573e+00     
H    -6.77322343e-01     -2.92816723e+00     -1.04387544e+00     
H    6.36993134e-01      -2.94017979e+00     -1.83617702e+00     
O    -4.35428086e+00     1.11908270e+00      6.90763021e-01      
H    -4.71735705e+00     1.36074418e+00      1.54659004e+00      
H    -4.76251394e+00     2.78339153e-01      4.51018984e-01      
O    -4.63604813e+00     -1.96539671e+00     2.52620447e+00      
H    -4.97863785e+00     -2.07253531e+00     1.62828023e+00      
H    -5.04978971e+00     -2.63697145e+00     3.07571515e+00      
O    -5.02154576e+00     -1.53699884e+00     -2.04662421e-01     
H    -5.63954777e+00     -1.81249573e+00     -8.86603983e-01     
H    -4.14287844e+00     -1.70992899e+00     -5.56306158e-01     
O    2.51424513e+00      1.25827568e+00      4.25587953e-01      
H    2.65206902e+00      2.20600373e+00      4.91210153e-01      
H    3.38916154e+00      8.82824138e-01      3.03184886e-01      
29
192.975229
N    3.89055662e-02      -1.58414593e-03     5.83007744e-02      
H    7.29386800e-02      -8.57285326e-01     -5.34946492e-01     
H    9.60681406e-01      4.73835590e-01      6.22877120e-02      
H    -6.94157685e-01     6.53196066e-01      -3.02754036e-01     
C    -3.12003072e-01     -3.65163789e-01     1.44408679e+00      
H    4.24745215e-01      -1.05371562e+00     1.84723975e+00      
H    -3.36362930e-01     5.31251291e-01      2.05593596e+00      
C    -1.67722456e+00     -1.02993505e+00     1.41388915e+00      
O    -2.19478726e+00     -1.42681020e+00     3.84689636e-01      
O    -2.17488583e+00     -1.11226280e+00     2.62778150e+00      
H    -3.10722854e+00     -1.49539181e+00     2.58134063e+00      
O    -1.92615214e+00     1.80766125e+00      -3.98194827e-01     
H    -2.81584705e+00     1.63434035e+00      -4.19908481e-02     
H    -2.02252652e+00     2.52200472e+00      -1.03191460e+00     
O    1.90076707e-01      -2.51803008e+00     -1.09849669e+00     
H    -6.77413894e-01     -2.92786746e+00     -1.04222810e+00     
H    6.35231082e-01      -2.94123480e+00     -1.83731879e+00     
O    -4.35483674e+00     1.11801829e+00      6.92180311e-01      
H    -4.73193423e+00     1.37264060e+00      1.53988048e+00      
H    -4.76616535e+00     2.78359600e-01      4.53963337e-01      
O    -4.63718296e+00     -1.96511167e+00     2.52606235e+00      
H    -4.97988388e+00     -2.07250431e+00     1.62824304e+00      
H    -5.04990040e+00     -2.63742054e+00     3.07543171e+00      
O    -5.02217288e+00     -1.53715920e+00     -2.04811356e-01     
H    -5.63818105e+00     -1.81425611e+00     -8.87922696e-01     
H    -4.14241200e+00     -1.70784644e+00     -5.54939439e-01     
O    2.51295407e+00      1.25745532e+00      4.25722241e-01      
H    2.65011044e+00      2.20553827e+00      4.88286626e-01      
H    3.38778908e+00      8.82540803e-01      3.00850325e-01      
29
192.975229
N    3.95873684e-02      -1.52343158e-03     5.86907771e-02      
H    7.34271894e-02      -8.57222102e-01     -5.34560692e-01     
H    9.61367227e-01      4.74005664e-01      6.24034576e-02      
H    -6.93644381e-01     6.53083994e-01      -3.02279542e-01     
C    -3.10895564e-01     -3.65162033e-01     1.44461809e+00      
H    4.25976936e-01      -1.05379224e+00     1.84742399e+00      
H    -3.35069037e-01     5.31186191e-01      2.05654664e+00      
C    -1.67613026e+00     -1.02982713e+00     1.41395162e+00      
O    -2.19286290e+00     -1.42650154e+00     3.84224973e-01      
O    -2.17470758e+00     -1.11223169e+00     2.62738817e+00      
H    -3.10724961e+00     -1.49462203e+00     2.58046670e+00      
O    -1.92575335e+00     1.80907941e+00      -3.98077969e-01     
H    -2.81506488e+00     1.63528961e+00      -4.13300084e-02     
H    -2.02559504e+00     2.51563523e+00      -1.04111330e+00     
O    1.90260558e-01      -2.51851910e+00     -1.09876765e+00     
H    -6.77505444e-01     -2.92756769e+00     -1.04058076e+00     
H    6.33469029e-01      -2.94228982e+00     -1.83846057e+00     
O    -4.35539263e+00     1.11695387e+00      6.93597602e-01      
H    -4.74651141e+00     1.38453701e+00      1.53317091e+00      
H    -4.76981676e+00     2.78380048e-01      4.56907691e-01      
O    -4.63831780e+00     -1.96482664e+00     2.52592022e+00      
H    -4.98112991e+00     -2.07247331e+00     1.62820585e+00      
H    -5.05001109e+00     -2.63786963e+00     3.07514828e+00      
O    -5.02280000e+00     -1.53731956e+00     -2.04960291e-01     
H    -5.63681434e+00     -1.81601649e+00     -8.89241409e-01     
H    -4.14194556e+00     -1.70576389e+00     -5.53572720e-01     
O    2.51166302e+00      1.25663497e+00      4.25856529e-01      
H    2.64815186e+00      2.20507281e+00      4.85363099e-01      
H    3.38641662e+00      8.82257469e-01      2.98515765e-01      
29
192.975229
N    4.02691705e-02      -1.46271723e-03     5.90807798e-02      
H    7.39156988e-02      -8.57158879e-01     -5.34174893e-01     
H    9.62053048e-01      4.74175738e-01      6.25192031e-02      
H    -6.93131076e-01     6.52971921e-01      -3.01805048e-01     
C    -3.09788056e-01     -3.65160278e-01     1.44514939e+00      
H    4.27208656e-01      -1.05386887e+00     1.84760824e+00      
H    -3.33775143e-01     5.31121091e-01      2.05715732e+00      
C    -1.67503597e+00     -1.02971921e+00     1.41401408e+00      
O    -2.19093853e+00     -1.42619287e+00     3.83760309e-01      
O    -2.17452932e+00     -1.11220058e+00     2.62699483e+00      
H    -3.10727068e+00     -1.49385225e+00     2.57959277e+00      
O    -1.92535455e+00     1.81049757e+00      -3.97961111e-01     
H    -2.81428271e+00     1.63623887e+00      -4.06691686e-02     
H    -2.02866355e+00     2.50926575e+00      -1.05031199e+00     
O    1.90444410e-01      -2.51900812e+00     -1.09903861e+00     
H    -6.77596994e-01     -2.92726793e+00     -1.03893342e+00     
H    6.31706976e-01      -2.94334483e+00     -1.83960234e+00     
O    -4.35594851e+00     1.11588945e+00      6.95014892e-01      
H    -4.76108859e+00     1.39643342e+00      1.52646135e+00      
H    -4.77346817e+00     2.78400496e-01      4.59852044e-01      
O    -4.63945263e+00     -1.96454160e+00     2.52577809e+00      
H    -4.98237594e+00     -2.07244231e+00     1.62816866e+00      
H    -5.05012178e+00     -2.63831872e+00     3.07486484e+00      
O    -5.02342712e+00     -1.53747992e+00     -2.05109226e-01     
H    -5.63544763e+00     -1.81777686e+00     -8.90560122e-01     
H    -4.14147912e+00     -1.70368134e+00     -5.52206001e-01     
O    2.51037197e+00      1.25581461e+00      4.25990817e-01      
H    2.64619327e+00      2.20460735e+00      4.82439571e-01      
H    3.38504416e+00      8.81974135e-01      2.96181204e-01      
29
192.975229
N    4.16327747e-02      -1.34128852e-03     5.98607851e-02      
H    7.48927176e-02      -8.57032432e-01     -5.33403293e-01     
H    9.63424689e-01      4.74515886e-01      6.27506943e-02      
H    -6.92104467e-01     6.52747776e-01      -3.00856059e-01     
C    -3.07573040e-01     -3.65156766e-01     1.44621200e+00      
H    4.29672097e-01      -1.05402212e+00     1.84797672e+00      
H    -3.31187355e-01     5.30990890e-01      2.05837867e+00      
C    -1.67284739e+00     -1.02950338e+00     1.41413900e+00      
O    -2.18708980e+00     -1.42557555e+00     3.82830983e-01      
O    -2.17417282e+00     -1.11213835e+00     2.62620816e+00      
H    -3.10731282e+00     -1.49231268e+00     2.57784492e+00      
O    -1.92455697e+00     1.81333388e+00      -3.97727395e-01     
H    -2.81271837e+00     1.63813739e+00      -3.93474891e-02     
H    -2.03480057e+00     2.49652678e+00      -1.06870938e+00     
O    1.90812114e-01      -2.51998616e+00     -1.09958054e+00     
H    -6.77780094e-01     -2.92666839e+00     -1.03563873e+00     
H    6.28182871e-01      -2.94545486e+00     -1.84188588e+00     
O    -4.35706027e+00     1.11376061e+00      6.97849472e-01      
H    -4.79024296e+00     1.42022624e+00      1.51304222e+00      
H    -4.78077099e+00     2.78441392e-01      4.65740750e-01      
O    -4.64172230e+00     -1.96397152e+00     2.52549383e+00      
H    -4.98486800e+00     -2.07238030e+00     1.62809428e+00      
H    -5.05034316e+00     -2.63921690e+00     3.07429797e+00      
O    -5.02468137e+00     -1.53780064e+00     -2.05407096e-01     
H    -5.63271420e+00     -1.82129762e+00     -8.93197548e-01     
H    -4.14054624e+00     -1.69951625e+00     -5.49472563e-01     
O    2.50778987e+00      1.25417390e+00      4.26259392e-01      
H    2.64227611e+00      2.20367643e+00      4.76592517e-01      
H    3.38229925e+00      8.81407466e-01      2.91512083e-01      
