29
327.584868
N    5.23996787e-02      -2.25429126e-02     5.41882651e-02      
H    1.19743957e-01      -8.82509558e-01     -5.32116625e-01     
H    9.64850947e-01      4.71874809e-01      7.02058197e-02      
H    -6.81766316e-01     6.16757709e-01      -3.27061795e-01     
C    -3.16839522e-01     -3.67701434e-01     1.44090386e+00      
H    4.15671275e-01      -1.04798448e+00     1.86533024e+00      
H    -3.48614378e-01     5.39632409e-01      2.03682834e+00      
C    -1.68318881e+00     -1.03140100e+00     1.41517770e+00      
O    -2.20805182e+00     -1.42748906e+00     3.89510878e-01      
O    -2.17362045e+00     -1.11234572e+00     2.63311246e+00      
H    -3.10579288e+00     -1.49704687e+00     2.59149127e+00      
O    -1.94684898e+00     1.81716212e+00      -3.96301944e-01     
H    -2.83917163e+00     1.62000670e+00      -5.82102075e-02     
H    -2.04386784e+00     2.55764983e+00      -9.97119451e-01     
O    2.00036214e-01      -2.50920788e+00     -1.10120635e+00     
H    -7.03946903e-01     -2.84116343e+00     -1.02241438e+00     
H    6.08053256e-01      -3.00900848e+00     -1.81901900e+00     
O    -4.34774129e+00     1.12170007e+00      6.79785460e-01      
H    -4.60802199e+00     1.36346718e+00      1.57315646e+00      
H    -4.78426666e+00     2.81413898e-01      4.85210062e-01      
O    -4.63882749e+00     -1.96662402e+00     2.52818123e+00      
H    -4.95327131e+00     -2.09137373e+00     1.62132557e+00      
H    -5.05452257e+00     -2.64003643e+00     3.07407300e+00      
O    -5.01762408e+00     -1.53838613e+00     -2.04479753e-01     
H    -5.64438392e+00     -1.82450106e+00     -8.74231787e-01     
H    -4.14163228e+00     -1.65764666e+00     -5.89176382e-01     
O    2.51659499e+00      1.26089892e+00      4.23870925e-01      
H    2.66862429e+00      2.20509979e+00      5.06605115e-01      
H    3.38726598e+00      8.72110783e-01      3.13311205e-01      
29
327.584868
N    4.83443485e-02      -1.73639353e-02     5.48263897e-02      
H    1.07554128e-01      -8.76266724e-01     -5.33209891e-01     
H    9.63122740e-01      4.72194930e-01      6.81105472e-02      
H    -6.85377462e-01     6.25979370e-01      -3.21459349e-01     
C    -3.16737917e-01     -3.67068778e-01     1.44116829e+00      
H    4.16708039e-01      -1.04934064e+00     1.86062338e+00      
H    -3.46845410e-01     5.37602230e-01      2.04099457e+00      
C    -1.68279204e+00     -1.03114243e+00     1.41479310e+00      
O    -2.20666005e+00     -1.42762801e+00     3.88770231e-01      
O    -2.17411505e+00     -1.11235610e+00     2.63217305e+00      
H    -3.10613072e+00     -1.49740289e+00     2.58982754e+00      
O    -1.94207357e+00     1.81336874e+00      -3.96892023e-01     
H    -2.83412265e+00     1.62264085e+00      -5.48162074e-02     
H    -2.03546400e+00     2.55510804e+00      -9.96619545e-01     
O    1.97362485e-01      -2.51092441e+00     -1.10025797e+00     
H    -6.97222101e-01     -2.86313921e+00     -1.02901515e+00     
H    6.16609765e-01      -2.99101005e+00     -1.82245218e+00     
O    -4.34895927e+00     1.12184404e+00      6.81466882e-01      
H    -4.62442287e+00     1.35386412e+00      1.57154703e+00      
H    -4.77608992e+00     2.80629876e-01      4.74454028e-01      
O    -4.63728152e+00     -1.96653097e+00     2.52779364e+00      
H    -4.95867842e+00     -2.08668737e+00     1.62309213e+00      
H    -5.05325634e+00     -2.63893337e+00     3.07469611e+00      
O    -5.01813416e+00     -1.53791904e+00     -2.04413719e-01     
H    -5.64419992e+00     -1.82017945e+00     -8.76335802e-01     
H    -4.14229365e+00     -1.67227916e+00     -5.81983865e-01     
O    2.51697581e+00      1.26085837e+00      4.24199466e-01      
H    2.66595441e+00      2.20567487e+00      5.04949020e-01      
H    3.38876921e+00      8.75001623e-01      3.12530546e-01      
29
327.584868
N    4.63166834e-02      -1.47744466e-02     5.51454521e-02      
H    1.01459214e-01      -8.73145306e-01     -5.33756525e-01     
H    9.62258637e-01      4.72354991e-01      6.70629110e-02      
H    -6.87183036e-01     6.30590201e-01      -3.18658127e-01     
C    -3.16687115e-01     -3.66752450e-01     1.44130050e+00      
H    4.17226422e-01      -1.05001872e+00     1.85826994e+00      
H    -3.45960926e-01     5.36587140e-01      2.04307768e+00      
C    -1.68259365e+00     -1.03101314e+00     1.41460080e+00      
O    -2.20596416e+00     -1.42769748e+00     3.88399908e-01      
O    -2.17436234e+00     -1.11236129e+00     2.63170335e+00      
H    -3.10629964e+00     -1.49758090e+00     2.58899567e+00      
O    -1.93968586e+00     1.81147206e+00      -3.97187062e-01     
H    -2.83159817e+00     1.62395792e+00      -5.31192074e-02     
H    -2.03126208e+00     2.55383714e+00      -9.96369592e-01     
O    1.96025621e-01      -2.51178268e+00     -1.09978379e+00     
H    -6.93859699e-01     -2.87412709e+00     -1.03231554e+00     
H    6.20888019e-01      -2.98201083e+00     -1.82416877e+00     
O    -4.34956826e+00     1.12191603e+00      6.82307594e-01      
H    -4.63262331e+00     1.34906259e+00      1.57074231e+00      
H    -4.77200155e+00     2.80237865e-01      4.69076010e-01      
O    -4.63650854e+00     -1.96648445e+00     2.52759984e+00      
H    -4.96138198e+00     -2.08434420e+00     1.62397541e+00      
H    -5.05262322e+00     -2.63838184e+00     3.07500767e+00      
O    -5.01838920e+00     -1.53768549e+00     -2.04380701e-01     
H    -5.64410792e+00     -1.81801864e+00     -8.77387809e-01     
H    -4.14262434e+00     -1.67959540e+00     -5.78387607e-01     
O    2.51716623e+00      1.26083810e+00      4.24363737e-01      
H    2.66461947e+00      2.20596241e+00      5.04120972e-01      
H    3.38952083e+00      8.76447043e-01      3.12140216e-01      
29
327.584868
N    4.42890183e-02      -1.21849580e-02     5.54645144e-02      
H    9.53642998e-02      -8.70023889e-01     -5.34303158e-01     
H    9.61394534e-01      4.72515051e-01      6.60152747e-02      
H    -6.88988609e-01     6.35201032e-01      -3.15856904e-01     
C    -3.16636312e-01     -3.66436122e-01     1.44143272e+00      
H    4.17744804e-01      -1.05069679e+00     1.85591651e+00      
H    -3.45076442e-01     5.35572050e-01      2.04516080e+00      
C    -1.68239527e+00     -1.03088386e+00     1.41440850e+00      
O    -2.20526827e+00     -1.42776696e+00     3.88029584e-01      
O    -2.17460964e+00     -1.11236648e+00     2.63123365e+00      
H    -3.10646856e+00     -1.49775891e+00     2.58816380e+00      
O    -1.93729815e+00     1.80957537e+00      -3.97482102e-01     
H    -2.82907368e+00     1.62527500e+00      -5.14222074e-02     
H    -2.02706016e+00     2.55256625e+00      -9.96119639e-01     
O    1.94688756e-01      -2.51264094e+00     -1.09930960e+00     
H    -6.90497298e-01     -2.88511498e+00     -1.03561593e+00     
H    6.25166274e-01      -2.97301161e+00     -1.82588535e+00     
O    -4.35017725e+00     1.12198801e+00      6.83148305e-01      
H    -4.64082375e+00     1.34426106e+00      1.56993760e+00      
H    -4.76791318e+00     2.79845854e-01      4.63697993e-01      
O    -4.63573556e+00     -1.96643792e+00     2.52740605e+00      
H    -4.96408553e+00     -2.08200102e+00     1.62485869e+00      
H    -5.05199010e+00     -2.63783030e+00     3.07531923e+00      
O    -5.01864424e+00     -1.53745194e+00     -2.04347684e-01     
H    -5.64401592e+00     -1.81585783e+00     -8.78439816e-01     
H    -4.14295502e+00     -1.68691165e+00     -5.74791349e-01     
O    2.51735664e+00      1.26081783e+00      4.24528007e-01      
H    2.66328453e+00      2.20624995e+00      5.03292925e-01      
H    3.39027244e+00      8.77892462e-01      3.11749886e-01      
29
327.584868
N    4.22613531e-02      -9.59546930e-03     5.57835768e-02      
H    8.92693854e-02      -8.66902472e-01     -5.34849791e-01     
H    9.60530431e-01      4.72675112e-01      6.49676385e-02      
H    -6.90794183e-01     6.39811863e-01      -3.13055682e-01     
C    -3.16585510e-01     -3.66119794e-01     1.44156493e+00      
H    4.18263186e-01      -1.05137487e+00     1.85356308e+00      
H    -3.44191958e-01     5.34556961e-01      2.04724391e+00      
C    -1.68219688e+00     -1.03075457e+00     1.41421620e+00      
O    -2.20457238e+00     -1.42783643e+00     3.87659261e-01      
O    -2.17485694e+00     -1.11237167e+00     2.63076395e+00      
H    -3.10663749e+00     -1.49793692e+00     2.58733194e+00      
O    -1.93491044e+00     1.80767868e+00      -3.97777141e-01     
H    -2.82654919e+00     1.62659207e+00      -4.97252073e-02     
H    -2.02285823e+00     2.55129535e+00      -9.95869686e-01     
O    1.93351892e-01      -2.51349921e+00     -1.09883541e+00     
H    -6.87134897e-01     -2.89610287e+00     -1.03891631e+00     
H    6.29444528e-01      -2.96401239e+00     -1.82760194e+00     
O    -4.35078624e+00     1.12206000e+00      6.83989016e-01      
H    -4.64902419e+00     1.33945953e+00      1.56913288e+00      
H    -4.76382481e+00     2.79453842e-01      4.58319976e-01      
O    -4.63496257e+00     -1.96639140e+00     2.52721225e+00      
H    -4.96678909e+00     -2.07965785e+00     1.62574196e+00      
H    -5.05135699e+00     -2.63727877e+00     3.07563079e+00      
O    -5.01889927e+00     -1.53721840e+00     -2.04314667e-01     
H    -5.64392391e+00     -1.81369702e+00     -8.79491823e-01     
H    -4.14328571e+00     -1.69422790e+00     -5.71195090e-01     
O    2.51754705e+00      1.26079756e+00      4.24692278e-01      
H    2.66194959e+00      2.20653749e+00      5.02464877e-01      
H    3.39102406e+00      8.79337882e-01      3.11359557e-01      
29
327.584868
N    4.02336880e-02      -7.00598065e-03     5.61026391e-02      
H    8.31744711e-02      -8.63781055e-01     -5.35396424e-01     
H    9.59666328e-01      4.72835173e-01      6.39200022e-02      
H    -6.92599756e-01     6.44422694e-01      -3.10254459e-01     
C    -3.16534708e-01     -3.65803467e-01     1.44169715e+00      
H    4.18781568e-01      -1.05205295e+00     1.85120965e+00      
H    -3.43307474e-01     5.33541871e-01      2.04932703e+00      
C    -1.68199849e+00     -1.03062529e+00     1.41402390e+00      
O    -2.20387650e+00     -1.42790590e+00     3.87288937e-01      
O    -2.17510424e+00     -1.11237686e+00     2.63029424e+00      
H    -3.10680641e+00     -1.49811492e+00     2.58650007e+00      
O    -1.93252274e+00     1.80578199e+00      -3.98072180e-01     
H    -2.82402470e+00     1.62790915e+00      -4.80282073e-02     
H    -2.01865631e+00     2.55002445e+00      -9.95619733e-01     
O    1.92015028e-01      -2.51435748e+00     -1.09836122e+00     
H    -6.83772496e-01     -2.90709076e+00     -1.04221670e+00     
H    6.33722783e-01      -2.95501318e+00     -1.82931853e+00     
O    -4.35139523e+00     1.12213199e+00      6.84829727e-01      
H    -4.65722463e+00     1.33465801e+00      1.56832817e+00      
H    -4.75973644e+00     2.79061831e-01      4.52941959e-01      
O    -4.63418959e+00     -1.96634488e+00     2.52701845e+00      
H    -4.96949264e+00     -2.07731467e+00     1.62662524e+00      
H    -5.05072387e+00     -2.63672724e+00     3.07594234e+00      
O    -5.01915431e+00     -1.53698485e+00     -2.04281650e-01     
H    -5.64383191e+00     -1.81153622e+00     -8.80543831e-01     
H    -4.14361639e+00     -1.70154415e+00     -5.67598832e-01     
O    2.51773746e+00      1.26077728e+00      4.24856549e-01      
H    2.66061465e+00      2.20682503e+00      5.01636830e-01      
H    3.39177568e+00      8.80783302e-01      3.10969227e-01      
29
327.584868
N    3.92198555e-02      -5.71123632e-03     5.62621703e-02      
H    8.01270139e-02      -8.62220346e-01     -5.35669741e-01     
H    9.59234277e-01      4.72915203e-01      6.33961841e-02      
H    -6.93502543e-01     6.46728110e-01      -3.08853848e-01     
C    -3.16509307e-01     -3.65645303e-01     1.44176326e+00      
H    4.19040760e-01      -1.05239199e+00     1.85003293e+00      
H    -3.42865232e-01     5.33034326e-01      2.05036859e+00      
C    -1.68189930e+00     -1.03056065e+00     1.41392775e+00      
O    -2.20352855e+00     -1.42794064e+00     3.87103775e-01      
O    -2.17522788e+00     -1.11237946e+00     2.63005939e+00      
H    -3.10689087e+00     -1.49820393e+00     2.58608414e+00      
O    -1.93132888e+00     1.80483365e+00      -3.98219700e-01     
H    -2.82276246e+00     1.62856769e+00      -4.71797073e-02     
H    -2.01655535e+00     2.54938900e+00      -9.95494757e-01     
O    1.91346596e-01      -2.51478661e+00     -1.09812412e+00     
H    -6.82091295e-01     -2.91258470e+00     -1.04386689e+00     
H    6.35861910e-01      -2.95051357e+00     -1.83017683e+00     
O    -4.35169973e+00     1.12216798e+00      6.85250083e-01      
H    -4.66132485e+00     1.33225724e+00      1.56792581e+00      
H    -4.75769225e+00     2.78865826e-01      4.50252950e-01      
O    -4.63380310e+00     -1.96632162e+00     2.52692155e+00      
H    -4.97084442e+00     -2.07614308e+00     1.62706688e+00      
H    -5.05040731e+00     -2.63645148e+00     3.07609812e+00      
O    -5.01928183e+00     -1.53686808e+00     -2.04265142e-01     
H    -5.64378591e+00     -1.81045581e+00     -8.81069834e-01     
H    -4.14378173e+00     -1.70520227e+00     -5.65800703e-01     
O    2.51783266e+00      1.26076715e+00      4.24938684e-01      
H    2.65994718e+00      2.20696880e+00      5.01222806e-01      
H    3.39215149e+00      8.81506011e-01      3.10774062e-01      
29
327.584868
N    3.82060229e-02      -4.41649199e-03     5.64217015e-02      
H    7.70795567e-02      -8.60659637e-01     -5.35943058e-01     
H    9.58802225e-01      4.72995233e-01      6.28723660e-02      
H    -6.94405330e-01     6.49033525e-01      -3.07453237e-01     
C    -3.16483905e-01     -3.65487139e-01     1.44182936e+00      
H    4.19299951e-01      -1.05273103e+00     1.84885621e+00      
H    -3.42422990e-01     5.32526782e-01      2.05141014e+00      
C    -1.68180011e+00     -1.03049600e+00     1.41383160e+00      
O    -2.20318061e+00     -1.42797538e+00     3.86918614e-01      
O    -2.17535153e+00     -1.11238205e+00     2.62982454e+00      
H    -3.10697533e+00     -1.49829293e+00     2.58566821e+00      
O    -1.93013503e+00     1.80388531e+00      -3.98367220e-01     
H    -2.82150022e+00     1.62922622e+00      -4.63312072e-02     
H    -2.01445439e+00     2.54875356e+00      -9.95369780e-01     
O    1.90678163e-01      -2.51521574e+00     -1.09788703e+00     
H    -6.80410094e-01     -2.91807864e+00     -1.04551708e+00     
H    6.38001037e-01      -2.94601396e+00     -1.83103512e+00     
O    -4.35200422e+00     1.12220397e+00      6.85670439e-01      
H    -4.66542507e+00     1.32985648e+00      1.56752345e+00      
H    -4.75564807e+00     2.78669820e-01      4.47563941e-01      
O    -4.63341660e+00     -1.96629835e+00     2.52682466e+00      
H    -4.97219620e+00     -2.07497150e+00     1.62750852e+00      
H    -5.05009076e+00     -2.63617571e+00     3.07625390e+00      
O    -5.01940935e+00     -1.53675131e+00     -2.04248633e-01     
H    -5.64373991e+00     -1.80937541e+00     -8.81595838e-01     
H    -4.14394708e+00     -1.70886039e+00     -5.64002573e-01     
O    2.51792787e+00      1.26075701e+00      4.25020819e-01      
H    2.65927971e+00      2.20711257e+00      5.00808782e-01      
H    3.39252729e+00      8.82228721e-01      3.10578898e-01      
29
327.584868
N    3.41506927e-02      7.62485314e-04      5.70598261e-02      
H    6.48897281e-02      -8.54416803e-01     -5.37036324e-01     
H    9.57074019e-01      4.73315355e-01      6.07770934e-02      
H    -6.98016476e-01     6.58255187e-01      -3.01850791e-01     
C    -3.16382301e-01     -3.64854483e-01     1.44209380e+00      
H    4.20336715e-01      -1.05408719e+00     1.84414935e+00      
H    -3.40654022e-01     5.30496602e-01      2.05557638e+00      
C    -1.68140333e+00     -1.03023744e+00     1.41344700e+00      
O    -2.20178883e+00     -1.42811432e+00     3.86177966e-01      
O    -2.17584613e+00     -1.11239243e+00     2.62888514e+00      
H    -3.10731317e+00     -1.49864895e+00     2.58400447e+00      
O    -1.92535961e+00     1.80009193e+00      -3.98957298e-01     
H    -2.81645124e+00     1.63186038e+00      -4.29372072e-02     
H    -2.00605055e+00     2.54621176e+00      -9.94869874e-01     
O    1.88004435e-01      -2.51693228e+00     -1.09693865e+00     
H    -6.73685292e-01     -2.94005442e+00     -1.05211786e+00     
H    6.46557547e-01      -2.92801552e+00     -1.83446830e+00     
O    -4.35322220e+00     1.12234795e+00      6.87351861e-01      
H    -4.68182595e+00     1.32025342e+00      1.56591403e+00      
H    -4.74747133e+00     2.77885798e-01      4.36807907e-01      
O    -4.63187064e+00     -1.96620531e+00     2.52643706e+00      
H    -4.97760330e+00     -2.07028514e+00     1.62927508e+00      
H    -5.04882452e+00     -2.63507265e+00     3.07687702e+00      
O    -5.01991943e+00     -1.53628421e+00     -2.04182599e-01     
H    -5.64355591e+00     -1.80505379e+00     -8.83699852e-01     
H    -4.14460844e+00     -1.72349289e+00     -5.56810057e-01     
O    2.51830869e+00      1.26071647e+00      4.25349361e-01      
H    2.65660983e+00      2.20768765e+00      4.99152688e-01      
H    3.39403053e+00      8.85119561e-01      3.09798238e-01      
29
327.584868
N    3.31368601e-02      2.05722964e-03      5.72193573e-02      
H    6.18422709e-02      -8.52856094e-01     -5.37309641e-01     
H    9.56641967e-01      4.73395385e-01      6.02532753e-02      
H    -6.98919263e-01     6.60560602e-01      -3.00450180e-01     
C    -3.16356899e-01     -3.64696319e-01     1.44215990e+00      
H    4.20595906e-01      -1.05442623e+00     1.84297263e+00      
H    -3.40211780e-01     5.29989058e-01      2.05661793e+00      
C    -1.68130414e+00     -1.03017279e+00     1.41335085e+00      
O    -2.20144089e+00     -1.42814906e+00     3.85992805e-01      
O    -2.17596978e+00     -1.11239502e+00     2.62865029e+00      
H    -3.10739763e+00     -1.49873795e+00     2.58358854e+00      
O    -1.92416576e+00     1.79914359e+00      -3.99104818e-01     
H    -2.81518900e+00     1.63251891e+00      -4.20887071e-02     
H    -2.00394959e+00     2.54557632e+00      -9.94744897e-01     
O    1.87336002e-01      -2.51736141e+00     -1.09670156e+00     
H    -6.72004091e-01     -2.94554836e+00     -1.05376805e+00     
H    6.48696674e-01      -2.92351591e+00     -1.83532659e+00     
O    -4.35352669e+00     1.12238394e+00      6.87772217e-01      
H    -4.68592617e+00     1.31785266e+00      1.56551167e+00      
H    -4.74542715e+00     2.77689792e-01      4.34118898e-01      
O    -4.63148414e+00     -1.96618204e+00     2.52634017e+00      
H    -4.97895508e+00     -2.06911356e+00     1.62971672e+00      
H    -5.04850797e+00     -2.63479688e+00     3.07703280e+00      
O    -5.02004695e+00     -1.53616744e+00     -2.04166090e-01     
H    -5.64350991e+00     -1.80397339e+00     -8.84225856e-01     
H    -4.14477379e+00     -1.72715101e+00     -5.55011927e-01     
O    2.51840390e+00      1.26070633e+00      4.25431496e-01      
H    2.65594236e+00      2.20783142e+00      4.98738664e-01      
H    3.39440633e+00      8.85842271e-01      3.09603074e-01      
29
327.584868
N    3.21230276e-02      3.35197397e-03      5.73788885e-02      
H    5.87948137e-02      -8.51295385e-01     -5.37582958e-01     
H    9.56209916e-01      4.73475415e-01      5.97294572e-02      
H    -6.99822050e-01     6.62866018e-01      -2.99049569e-01     
C    -3.16331498e-01     -3.64538155e-01     1.44222601e+00      
H    4.20855098e-01      -1.05476527e+00     1.84179591e+00      
H    -3.39769538e-01     5.29481513e-01      2.05765949e+00      
C    -1.68120495e+00     -1.03010815e+00     1.41325470e+00      
O    -2.20109294e+00     -1.42818380e+00     3.85807643e-01      
O    -2.17609342e+00     -1.11239762e+00     2.62841544e+00      
H    -3.10748209e+00     -1.49882696e+00     2.58317261e+00      
O    -1.92297190e+00     1.79819525e+00      -3.99252338e-01     
H    -2.81392676e+00     1.63317745e+00      -4.12402071e-02     
H    -2.00184863e+00     2.54494087e+00      -9.94619921e-01     
O    1.86667570e-01      -2.51779054e+00     -1.09646446e+00     
H    -6.70322890e-01     -2.95104230e+00     -1.05541824e+00     
H    6.50835801e-01      -2.91901630e+00     -1.83618489e+00     
O    -4.35383119e+00     1.12241993e+00      6.88192573e-01      
H    -4.69002639e+00     1.31545189e+00      1.56510931e+00      
H    -4.74338296e+00     2.77493787e-01      4.31429889e-01      
O    -4.63109765e+00     -1.96615878e+00     2.52624327e+00      
H    -4.98030686e+00     -2.06794197e+00     1.63015836e+00      
H    -5.04819141e+00     -2.63452112e+00     3.07718858e+00      
O    -5.02017447e+00     -1.53605067e+00     -2.04149582e-01     
H    -5.64346391e+00     -1.80289298e+00     -8.84751859e-01     
H    -4.14493913e+00     -1.73080913e+00     -5.53213798e-01     
O    2.51849910e+00      1.26069620e+00      4.25513631e-01      
H    2.65527489e+00      2.20797519e+00      4.98324640e-01      
H    3.39478214e+00      8.86564980e-01      3.09407909e-01      
29
327.584868
N    3.00953625e-02      5.94146262e-03      5.76979508e-02      
H    5.26998994e-02      -8.48173968e-01     -5.38129591e-01     
H    9.55345813e-01      4.73635476e-01      5.86818209e-02      
H    -7.01627623e-01     6.67476849e-01      -2.96248346e-01     
C    -3.16280696e-01     -3.64221828e-01     1.44235823e+00      
H    4.21373480e-01      -1.05544335e+00     1.83944248e+00      
H    -3.38885054e-01     5.28466423e-01      2.05974261e+00      
C    -1.68100656e+00     -1.02997887e+00     1.41306240e+00      
O    -2.20039706e+00     -1.42825327e+00     3.85437319e-01      
O    -2.17634072e+00     -1.11240281e+00     2.62794573e+00      
H    -3.10765101e+00     -1.49900496e+00     2.58234074e+00      
O    -1.92058420e+00     1.79629856e+00      -3.99547377e-01     
H    -2.81140227e+00     1.63449453e+00      -3.95432071e-02     
H    -1.99764671e+00     2.54366997e+00      -9.94369968e-01     
O    1.85330706e-01      -2.51864881e+00     -1.09599027e+00     
H    -6.66960489e-01     -2.96203019e+00     -1.05871863e+00     
H    6.55114056e-01      -2.91001709e+00     -1.83790148e+00     
O    -4.35444018e+00     1.12249192e+00      6.89033284e-01      
H    -4.69822683e+00     1.31065037e+00      1.56430460e+00      
H    -4.73929459e+00     2.77101776e-01      4.26051872e-01      
O    -4.63032467e+00     -1.96611226e+00     2.52604947e+00      
H    -4.98301041e+00     -2.06559879e+00     1.63104164e+00      
H    -5.04755829e+00     -2.63396959e+00     3.07750013e+00      
O    -5.02042951e+00     -1.53581712e+00     -2.04116565e-01     
H    -5.64337191e+00     -1.80073218e+00     -8.85803867e-01     
H    -4.14526981e+00     -1.73812538e+00     -5.49617540e-01     
O    2.51868951e+00      1.26067592e+00      4.25677902e-01      
H    2.65393995e+00      2.20826273e+00      4.97496593e-01      
H    3.39553376e+00      8.88010400e-01      3.09017579e-01      
29
327.584868
N    2.80676973e-02      8.53095128e-03      5.80170132e-02      
H    4.66049850e-02      -8.45052551e-01     -5.38676224e-01     
H    9.54481710e-01      4.73795537e-01      5.76341847e-02      
H    -7.03433197e-01     6.72087680e-01      -2.93447124e-01     
C    -3.16229894e-01     -3.63905500e-01     1.44249044e+00      
H    4.21891862e-01      -1.05612143e+00     1.83708905e+00      
H    -3.38000570e-01     5.27451334e-01      2.06182572e+00      
C    -1.68080817e+00     -1.02984958e+00     1.41287010e+00      
O    -2.19970117e+00     -1.42832274e+00     3.85066996e-01      
O    -2.17658802e+00     -1.11240800e+00     2.62747603e+00      
H    -3.10781994e+00     -1.49918297e+00     2.58150888e+00      
O    -1.91819649e+00     1.79440187e+00      -3.99842416e-01     
H    -2.80887778e+00     1.63581160e+00      -3.78462070e-02     
H    -1.99344478e+00     2.54239907e+00      -9.94120015e-01     
O    1.83993842e-01      -2.51950708e+00     -1.09551608e+00     
H    -6.63598088e-01     -2.97301808e+00     -1.06201901e+00     
H    6.59392310e-01      -2.90101787e+00     -1.83961807e+00     
O    -4.35504917e+00     1.12256391e+00      6.89873995e-01      
H    -4.70642727e+00     1.30584884e+00      1.56349988e+00      
H    -4.73520622e+00     2.76709764e-01      4.20673855e-01      
O    -4.62955168e+00     -1.96606574e+00     2.52585567e+00      
H    -4.98571397e+00     -2.06325562e+00     1.63192491e+00      
H    -5.04692518e+00     -2.63341806e+00     3.07781169e+00      
O    -5.02068454e+00     -1.53558358e+00     -2.04083548e-01     
H    -5.64327990e+00     -1.79857137e+00     -8.86855874e-01     
H    -4.14560050e+00     -1.74544163e+00     -5.46021281e-01     
O    2.51887992e+00      1.26065565e+00      4.25842173e-01      
H    2.65260501e+00      2.20855027e+00      4.96668545e-01      
H    3.39628538e+00      8.89455820e-01      3.08627250e-01      
29
327.584868
N    2.60400322e-02      1.11204399e-02      5.83360755e-02      
H    4.05100707e-02      -8.41931134e-01     -5.39222857e-01     
H    9.53617607e-01      4.73955597e-01      5.65865484e-02      
H    -7.05238770e-01     6.76698511e-01      -2.90645901e-01     
C    -3.16179091e-01     -3.63589172e-01     1.44262266e+00      
H    4.22410244e-01      -1.05679950e+00     1.83473562e+00      
H    -3.37116086e-01     5.26436244e-01      2.06390884e+00      
C    -1.68060979e+00     -1.02972030e+00     1.41267780e+00      
O    -2.19900528e+00     -1.42839222e+00     3.84696672e-01      
O    -2.17683532e+00     -1.11241319e+00     2.62700633e+00      
H    -3.10798886e+00     -1.49936098e+00     2.58067701e+00      
O    -1.91580878e+00     1.79250518e+00      -4.00137456e-01     
H    -2.80635329e+00     1.63712868e+00      -3.61492070e-02     
H    -1.98924286e+00     2.54112818e+00      -9.93870062e-01     
O    1.82656977e-01      -2.52036534e+00     -1.09504189e+00     
H    -6.60235687e-01     -2.98400597e+00     -1.06531940e+00     
H    6.63670565e-01      -2.89201865e+00     -1.84133465e+00     
O    -4.35565816e+00     1.12263589e+00      6.90714706e-01      
H    -4.71462771e+00     1.30104731e+00      1.56269517e+00      
H    -4.73111785e+00     2.76317753e-01      4.15295838e-01      
O    -4.62877870e+00     -1.96601921e+00     2.52566188e+00      
H    -4.98841752e+00     -2.06091244e+00     1.63280819e+00      
H    -5.04629206e+00     -2.63286652e+00     3.07812325e+00      
O    -5.02093958e+00     -1.53535003e+00     -2.04050531e-01     
H    -5.64318790e+00     -1.79641056e+00     -8.87907881e-01     
H    -4.14593118e+00     -1.75275788e+00     -5.42425023e-01     
O    2.51907033e+00      1.26063538e+00      4.26006443e-01      
H    2.65127007e+00      2.20883781e+00      4.95840498e-01      
H    3.39703699e+00      8.90901239e-01      3.08236920e-01      
29
327.584868
N    2.40123671e-02      1.37099286e-02      5.86551379e-02      
H    3.44151563e-02      -8.38809716e-01     -5.39769491e-01     
H    9.52753504e-01      4.74115658e-01      5.55389122e-02      
H    -7.07044344e-01     6.81309342e-01      -2.87844679e-01     
C    -3.16128289e-01     -3.63272844e-01     1.44275487e+00      
H    4.22928627e-01      -1.05747758e+00     1.83238218e+00      
H    -3.36231602e-01     5.25421154e-01      2.06599195e+00      
C    -1.68041140e+00     -1.02959101e+00     1.41248550e+00      
O    -2.19830939e+00     -1.42846169e+00     3.84326349e-01      
O    -2.17708261e+00     -1.11241838e+00     2.62653663e+00      
H    -3.10815778e+00     -1.49953899e+00     2.57984514e+00      
O    -1.91342107e+00     1.79060850e+00      -4.00432495e-01     
H    -2.80382881e+00     1.63844575e+00      -3.44522070e-02     
H    -1.98504094e+00     2.53985728e+00      -9.93620109e-01     
O    1.81320113e-01      -2.52122361e+00     -1.09456771e+00     
H    -6.56873285e-01     -2.99499385e+00     -1.06861979e+00     
H    6.67948819e-01      -2.88301943e+00     -1.84305124e+00     
O    -4.35626715e+00     1.12270788e+00      6.91555418e-01      
H    -4.72282815e+00     1.29624578e+00      1.56189045e+00      
H    -4.72702948e+00     2.75925742e-01      4.09917820e-01      
O    -4.62800572e+00     -1.96597269e+00     2.52546808e+00      
H    -4.99112108e+00     -2.05856927e+00     1.63369147e+00      
H    -5.04565894e+00     -2.63231499e+00     3.07843481e+00      
O    -5.02119462e+00     -1.53511648e+00     -2.04017513e-01     
H    -5.64309590e+00     -1.79424975e+00     -8.88959888e-01     
H    -4.14626187e+00     -1.76007412e+00     -5.38828765e-01     
O    2.51926075e+00      1.26061511e+00      4.26170714e-01      
H    2.64993513e+00      2.20912535e+00      4.95012450e-01      
H    3.39778861e+00      8.92346659e-01      3.07846590e-01      
29
327.584868
N    1.99570369e-02      1.88889059e-02      5.92932625e-02      
H    2.22253277e-02      -8.32566882e-01     -5.40862757e-01     
H    9.51025297e-01      4.74435779e-01      5.34436397e-02      
H    -7.10655490e-01     6.90531003e-01      -2.82242233e-01     
C    -3.16026684e-01     -3.62640188e-01     1.44301930e+00      
H    4.23965391e-01      -1.05883374e+00     1.82767532e+00      
H    -3.34462634e-01     5.23390975e-01      2.07015818e+00      
C    -1.68001463e+00     -1.02933244e+00     1.41210090e+00      
O    -2.19691762e+00     -1.42860064e+00     3.83585702e-01      
O    -2.17757721e+00     -1.11242876e+00     2.62559722e+00      
H    -3.10849562e+00     -1.49989501e+00     2.57818141e+00      
O    -1.90864566e+00     1.78681512e+00      -4.01022574e-01     
H    -2.79877983e+00     1.64107990e+00      -3.10582069e-02     
H    -1.97663710e+00     2.53731549e+00      -9.93120203e-01     
O    1.78646384e-01      -2.52294014e+00     -1.09361933e+00     
H    -6.50148483e-01     -3.01696963e+00     -1.07522056e+00     
H    6.76505328e-01      -2.86502100e+00     -1.84648442e+00     
O    -4.35748513e+00     1.12285185e+00      6.93236840e-01      
H    -4.73922903e+00     1.28664272e+00      1.56028102e+00      
H    -4.71885274e+00     2.75141720e-01      3.99161786e-01      
O    -4.62645975e+00     -1.96587964e+00     2.52508049e+00      
H    -4.99652819e+00     -2.05388291e+00     1.63545803e+00      
H    -5.04439271e+00     -2.63121193e+00     3.07905792e+00      
O    -5.02170470e+00     -1.53464939e+00     -2.03951479e-01     
H    -5.64291190e+00     -1.78992814e+00     -8.91063903e-01     
H    -4.14692324e+00     -1.77470662e+00     -5.31636248e-01     
O    2.51964157e+00      1.26057456e+00      4.26499255e-01      
H    2.64726525e+00      2.20970043e+00      4.93356355e-01      
H    3.39929184e+00      8.95237499e-01      3.07065931e-01      
