29
283.247122
N    3.59641957e-02      -1.16637563e-02     5.29657116e-02      
H    6.63108552e-02      -8.75566991e-01     -5.31727183e-01     
H    9.59013126e-01      4.60604394e-01      5.12386030e-02      
H    -6.96127511e-01     6.41593846e-01      -3.11506164e-01     
C    -3.13767629e-01     -3.65042110e-01     1.44156113e+00      
H    4.23425358e-01      -1.04982718e+00     1.84957169e+00      
H    -3.39721395e-01     5.36058362e-01      2.04665958e+00      
C    -1.67823366e+00     -1.03148182e+00     1.41491726e+00      
O    -2.19891809e+00     -1.42851798e+00     3.87255177e-01      
O    -2.17400996e+00     -1.11093741e+00     2.62994095e+00      
H    -3.10550507e+00     -1.49627910e+00     2.58486006e+00      
O    -1.94069618e+00     1.80857031e+00      -3.96440107e-01     
H    -2.82763297e+00     1.63206888e+00      -3.39911790e-02     
H    -2.03782692e+00     2.54374541e+00      -1.00381339e+00     
O    1.87830921e-01      -2.52347197e+00     -1.08280628e+00     
H    -7.15125165e-01     -2.87812833e+00     -1.18023275e+00     
H    6.59567137e-01      -2.83209712e+00     -1.87169072e+00     
O    -4.34673131e+00     1.12503224e+00      6.84007144e-01      
H    -4.67422173e+00     1.32822975e+00      1.56179376e+00      
H    -4.73721300e+00     2.76922673e-01      4.39930621e-01      
O    -4.63611352e+00     -1.96527691e+00     2.52588952e+00      
H    -4.97594498e+00     -2.06957227e+00     1.62645537e+00      
H    -5.03524441e+00     -2.65367538e+00     3.06634076e+00      
O    -5.01933768e+00     -1.53781424e+00     -2.04750468e-01     
H    -5.64890392e+00     -1.79821083e+00     -8.82195167e-01     
H    -4.14739852e+00     -1.73299148e+00     -5.61037993e-01     
O    2.52310537e+00      1.25927969e+00      4.28051345e-01      
H    2.63409242e+00      2.21185199e+00      4.83427368e-01      
H    3.40824156e+00      9.09231997e-01      2.99989743e-01      
29
283.247122
N    3.60177362e-02      -9.20456809e-03     5.39094747e-02      
H    6.74793020e-02      -8.71059798e-01     -5.32917810e-01     
H    9.58744375e-01      4.63742119e-01      5.38851347e-02      
H    -6.96148359e-01     6.44606474e-01      -3.09792626e-01     
C    -3.14433998e-01     -3.65074285e-01     1.44166124e+00      
H    4.22523602e-01      -1.05072266e+00     1.84880446e+00      
H    -3.40175673e-01     5.34921695e-01      2.04836800e+00      
C    -1.67907567e+00     -1.03120304e+00     1.41459777e+00      
O    -2.19980975e+00     -1.42839969e+00     3.87078455e-01      
O    -2.17440718e+00     -1.11129987e+00     2.62979442e+00      
H    -3.10591486e+00     -1.49682706e+00     2.58485413e+00      
O    -1.93745897e+00     1.80692489e+00      -3.96995645e-01     
H    -2.82546866e+00     1.63168748e+00      -3.66519360e-02     
H    -2.03093330e+00     2.54467972e+00      -1.00164000e+00     
O    1.88208515e-01      -2.52162248e+00     -1.08645792e+00     
H    -7.05605797e-01     -2.89086288e+00     -1.14737893e+00     
H    6.55245176e-01      -2.85832652e+00     -1.86195597e+00     
O    -4.34820179e+00     1.12434317e+00      6.84633146e-01      
H    -4.67407268e+00     1.32743605e+00      1.56302500e+00      
H    -4.74079968e+00     2.77261457e-01      4.40494447e-01      
O    -4.63524605e+00     -1.96552064e+00     2.52607486e+00      
H    -4.97568367e+00     -2.07033629e+00     1.62693947e+00      
H    -5.03879772e+00     -2.64916258e+00     3.06889693e+00      
O    -5.01941936e+00     -1.53749012e+00     -2.04616755e-01     
H    -5.64758992e+00     -1.80046177e+00     -8.82308337e-01     
H    -4.14661833e+00     -1.72878777e+00     -5.60880074e-01     
O    2.52185860e+00      1.25964395e+00      4.27334781e-01      
H    2.64005551e+00      2.21073902e+00      4.87565710e-01      
H    3.40450090e+00      9.02842533e-01      3.02539449e-01      
29
283.247122
N    3.60445065e-02      -7.97497396e-03     5.43813562e-02      
H    6.80635254e-02      -8.68806202e-01     -5.33513124e-01     
H    9.58610000e-01      4.65310982e-01      5.52084005e-02      
H    -6.96158783e-01     6.46112787e-01      -3.08935858e-01     
C    -3.14767182e-01     -3.65090373e-01     1.44171130e+00      
H    4.22072724e-01      -1.05117040e+00     1.84842085e+00      
H    -3.40402812e-01     5.34353361e-01      2.04922221e+00      
C    -1.67949668e+00     -1.03106366e+00     1.41443802e+00      
O    -2.20025558e+00     -1.42834055e+00     3.86990094e-01      
O    -2.17460579e+00     -1.11148110e+00     2.62972116e+00      
H    -3.10611976e+00     -1.49710104e+00     2.58485116e+00      
O    -1.93584036e+00     1.80610218e+00      -3.97273414e-01     
H    -2.82438650e+00     1.63149679e+00      -3.79823146e-02     
H    -2.02748650e+00     2.54514688e+00      -1.00055330e+00     
O    1.88397313e-01      -2.52069774e+00     -1.08828374e+00     
H    -7.00846113e-01     -2.89723016e+00     -1.13095202e+00     
H    6.53084195e-01      -2.87144123e+00     -1.85708859e+00     
O    -4.34893702e+00     1.12399864e+00      6.84946147e-01      
H    -4.67399815e+00     1.32703920e+00      1.56364063e+00      
H    -4.74259301e+00     2.77430849e-01      4.40776360e-01      
O    -4.63481231e+00     -1.96564251e+00     2.52616753e+00      
H    -4.97555302e+00     -2.07071829e+00     1.62718153e+00      
H    -5.04057437e+00     -2.64690618e+00     3.07017502e+00      
O    -5.01946020e+00     -1.53732806e+00     -2.04549899e-01     
H    -5.64693292e+00     -1.80158724e+00     -8.82364921e-01     
H    -4.14622824e+00     -1.72668591e+00     -5.60801114e-01     
O    2.52123521e+00      1.25982609e+00      4.26976499e-01      
H    2.64303705e+00      2.21018254e+00      4.89634881e-01      
H    3.40263057e+00      8.99647801e-01      3.03814302e-01      
29
283.247122
N    3.60712768e-02      -6.74537984e-03     5.48532377e-02      
H    6.86477488e-02      -8.66552605e-01     -5.34108437e-01     
H    9.58475624e-01      4.66879844e-01      5.65316663e-02      
H    -6.96169207e-01     6.47619101e-01      -3.08079089e-01     
C    -3.15100366e-01     -3.65106460e-01     1.44176136e+00      
H    4.21621846e-01      -1.05161814e+00     1.84803723e+00      
H    -3.40629950e-01     5.33785027e-01      2.05007642e+00      
C    -1.67991769e+00     -1.03092427e+00     1.41427828e+00      
O    -2.20070141e+00     -1.42828141e+00     3.86901733e-01      
O    -2.17480440e+00     -1.11166233e+00     2.62964789e+00      
H    -3.10632466e+00     -1.49737502e+00     2.58484820e+00      
O    -1.93422175e+00     1.80527946e+00      -3.97551183e-01     
H    -2.82330435e+00     1.63130609e+00      -3.93126931e-02     
H    -2.02403969e+00     2.54561404e+00      -9.99466608e-01     
O    1.88586110e-01      -2.51977299e+00     -1.09010956e+00     
H    -6.96086429e-01     -2.90359743e+00     -1.11452511e+00     
H    6.50923215e-01      -2.88455593e+00     -1.85222122e+00     
O    -4.34967226e+00     1.12365410e+00      6.85259147e-01      
H    -4.67392362e+00     1.32664235e+00      1.56425625e+00      
H    -4.74438635e+00     2.77600241e-01      4.41058273e-01      
O    -4.63437857e+00     -1.96576437e+00     2.52626019e+00      
H    -4.97542236e+00     -2.07110030e+00     1.62742358e+00      
H    -5.04235103e+00     -2.64464978e+00     3.07145311e+00      
O    -5.01950104e+00     -1.53716600e+00     -2.04483042e-01     
H    -5.64627591e+00     -1.80271271e+00     -8.82421506e-01     
H    -4.14583814e+00     -1.72458406e+00     -5.60722154e-01     
O    2.52061183e+00      1.26000822e+00      4.26618217e-01      
H    2.64601859e+00      2.20962605e+00      4.91704052e-01      
H    3.40076023e+00      8.96453069e-01      3.05089155e-01      
29
283.247122
N    3.60980470e-02      -5.51578571e-03     5.53251192e-02      
H    6.92319722e-02      -8.64299009e-01     -5.34703751e-01     
H    9.58341249e-01      4.68448707e-01      5.78549322e-02      
H    -6.96179631e-01     6.49125415e-01      -3.07222320e-01     
C    -3.15433550e-01     -3.65122548e-01     1.44181141e+00      
H    4.21170967e-01      -1.05206589e+00     1.84765362e+00      
H    -3.40857089e-01     5.33216693e-01      2.05093063e+00      
C    -1.68033870e+00     -1.03078488e+00     1.41411853e+00      
O    -2.20114724e+00     -1.42822227e+00     3.86813372e-01      
O    -2.17500300e+00     -1.11184355e+00     2.62957463e+00      
H    -3.10652956e+00     -1.49764900e+00     2.58484523e+00      
O    -1.93260314e+00     1.80445675e+00      -3.97828952e-01     
H    -2.82222219e+00     1.63111539e+00      -4.06430716e-02     
H    -2.02059289e+00     2.54608119e+00      -9.98379913e-01     
O    1.88774907e-01      -2.51884825e+00     -1.09193538e+00     
H    -6.91326745e-01     -2.90996471e+00     -1.09809820e+00     
H    6.48762234e-01      -2.89767063e+00     -1.84735384e+00     
O    -4.35040750e+00     1.12330957e+00      6.85572148e-01      
H    -4.67384909e+00     1.32624550e+00      1.56487187e+00      
H    -4.74617969e+00     2.77769633e-01      4.41340185e-01      
O    -4.63394483e+00     -1.96588624e+00     2.52635286e+00      
H    -4.97529171e+00     -2.07148230e+00     1.62766564e+00      
H    -5.04412768e+00     -2.64239338e+00     3.07273120e+00      
O    -5.01954187e+00     -1.53700394e+00     -2.04416186e-01     
H    -5.64561891e+00     -1.80383819e+00     -8.82478091e-01     
H    -4.14544805e+00     -1.72248220e+00     -5.60643194e-01     
O    2.51998844e+00      1.26019035e+00      4.26259936e-01      
H    2.64900014e+00      2.20906957e+00      4.93773223e-01      
H    3.39888990e+00      8.93258337e-01      3.06364009e-01      
29
283.247122
N    3.61248173e-02      -4.28619159e-03     5.57970008e-02      
H    6.98161956e-02      -8.62045413e-01     -5.35299064e-01     
H    9.58206873e-01      4.70017569e-01      5.91781980e-02      
H    -6.96190055e-01     6.50631729e-01      -3.06365551e-01     
C    -3.15766735e-01     -3.65138636e-01     1.44186147e+00      
H    4.20720089e-01      -1.05251363e+00     1.84727001e+00      
H    -3.41084228e-01     5.32648360e-01      2.05178484e+00      
C    -1.68075970e+00     -1.03064549e+00     1.41395879e+00      
O    -2.20159306e+00     -1.42816313e+00     3.86725012e-01      
O    -2.17520161e+00     -1.11202478e+00     2.62950137e+00      
H    -3.10673445e+00     -1.49792298e+00     2.58484227e+00      
O    -1.93098454e+00     1.80363404e+00      -3.98106721e-01     
H    -2.82114004e+00     1.63092469e+00      -4.19734501e-02     
H    -2.01714608e+00     2.54654835e+00      -9.97293217e-01     
O    1.88963704e-01      -2.51792350e+00     -1.09376120e+00     
H    -6.86567061e-01     -2.91633198e+00     -1.08167129e+00     
H    6.46601253e-01      -2.91078533e+00     -1.84248646e+00     
O    -4.35114274e+00     1.12296503e+00      6.85885149e-01      
H    -4.67377457e+00     1.32584865e+00      1.56548749e+00      
H    -4.74797303e+00     2.77939025e-01      4.41622098e-01      
O    -4.63351110e+00     -1.96600810e+00     2.52644553e+00      
H    -4.97516106e+00     -2.07186431e+00     1.62790769e+00      
H    -5.04590433e+00     -2.64013698e+00     3.07400928e+00      
O    -5.01958271e+00     -1.53684188e+00     -2.04349329e-01     
H    -5.64496191e+00     -1.80496366e+00     -8.82534676e-01     
H    -4.14505795e+00     -1.72038035e+00     -5.60564235e-01     
O    2.51936505e+00      1.26037248e+00      4.25901654e-01      
H    2.65198168e+00      2.20851308e+00      4.95842393e-01      
H    3.39701957e+00      8.90063605e-01      3.07638862e-01      
29
283.247122
N    3.61382024e-02      -3.67139453e-03     5.60329415e-02      
H    7.01083073e-02      -8.60918614e-01     -5.35596721e-01     
H    9.58139685e-01      4.70802000e-01      5.98398309e-02      
H    -6.96195267e-01     6.51384885e-01      -3.05937167e-01     
C    -3.15933327e-01     -3.65146680e-01     1.44188650e+00      
H    4.20494650e-01      -1.05273750e+00     1.84707820e+00      
H    -3.41197798e-01     5.32364193e-01      2.05221194e+00      
C    -1.68097021e+00     -1.03057580e+00     1.41387892e+00      
O    -2.20181598e+00     -1.42813356e+00     3.86680831e-01      
O    -2.17530092e+00     -1.11211540e+00     2.62946474e+00      
H    -3.10683690e+00     -1.49805997e+00     2.58484079e+00      
O    -1.93017523e+00     1.80322269e+00      -3.98245605e-01     
H    -2.82059896e+00     1.63082935e+00      -4.26386394e-02     
H    -2.01542268e+00     2.54678193e+00      -9.96749870e-01     
O    1.89058103e-01      -2.51746113e+00     -1.09467411e+00     
H    -6.84187219e-01     -2.91951562e+00     -1.07345784e+00     
H    6.45520763e-01      -2.91734269e+00     -1.84005277e+00     
O    -4.35151035e+00     1.12279276e+00      6.86041649e-01      
H    -4.67373730e+00     1.32565023e+00      1.56579531e+00      
H    -4.74886969e+00     2.78023721e-01      4.41763055e-01      
O    -4.63329423e+00     -1.96606903e+00     2.52649186e+00      
H    -4.97509573e+00     -2.07205531e+00     1.62802872e+00      
H    -5.04679266e+00     -2.63900878e+00     3.07464833e+00      
O    -5.01960313e+00     -1.53676085e+00     -2.04315901e-01     
H    -5.64463341e+00     -1.80552639e+00     -8.82562968e-01     
H    -4.14486290e+00     -1.71932942e+00     -5.60524755e-01     
O    2.51905336e+00      1.26046354e+00      4.25722513e-01      
H    2.65347245e+00      2.20823484e+00      4.96876979e-01      
H    3.39608441e+00      8.88466239e-01      3.08276288e-01      
29
283.247122
N    3.61515875e-02      -3.05659746e-03     5.62688823e-02      
H    7.04004190e-02      -8.59791816e-01     -5.35894378e-01     
H    9.58072498e-01      4.71586432e-01      6.05014639e-02      
H    -6.96200479e-01     6.52138042e-01      -3.05508783e-01     
C    -3.16099919e-01     -3.65154723e-01     1.44191152e+00      
H    4.20269211e-01      -1.05296137e+00     1.84688639e+00      
H    -3.41311367e-01     5.32080026e-01      2.05263905e+00      
C    -1.68118071e+00     -1.03050611e+00     1.41379904e+00      
O    -2.20203889e+00     -1.42810399e+00     3.86636651e-01      
O    -2.17540022e+00     -1.11220601e+00     2.62942810e+00      
H    -3.10693935e+00     -1.49819696e+00     2.58483930e+00      
O    -1.92936593e+00     1.80281133e+00      -3.98384490e-01     
H    -2.82005788e+00     1.63073400e+00      -4.33038287e-02     
H    -2.01369928e+00     2.54701550e+00      -9.96206522e-01     
O    1.89152502e-01      -2.51699876e+00     -1.09558702e+00     
H    -6.81807377e-01     -2.92269926e+00     -1.06524438e+00     
H    6.44440273e-01      -2.92390004e+00     -1.83761909e+00     
O    -4.35187797e+00     1.12262050e+00      6.86198149e-01      
H    -4.67370004e+00     1.32545180e+00      1.56610312e+00      
H    -4.74976636e+00     2.78108417e-01      4.41904011e-01      
O    -4.63307736e+00     -1.96612997e+00     2.52653819e+00      
H    -4.97503040e+00     -2.07224631e+00     1.62814975e+00      
H    -5.04768099e+00     -2.63788058e+00     3.07528737e+00      
O    -5.01962355e+00     -1.53667982e+00     -2.04282473e-01     
H    -5.64430491e+00     -1.80608913e+00     -8.82591260e-01     
H    -4.14466786e+00     -1.71827849e+00     -5.60485275e-01     
O    2.51874167e+00      1.26055461e+00      4.25543372e-01      
H    2.65496323e+00      2.20795660e+00      4.97911564e-01      
H    3.39514924e+00      8.86868873e-01      3.08913715e-01      
29
283.247122
N    3.62051281e-02      -5.97409216e-04     5.72126453e-02      
H    7.15688658e-02      -8.55284624e-01     -5.37085004e-01     
H    9.57803746e-01      4.74724156e-01      6.31479955e-02      
H    -6.96221327e-01     6.55150670e-01      -3.03795245e-01     
C    -3.16766287e-01     -3.65186899e-01     1.44201164e+00      
H    4.19367455e-01      -1.05385685e+00     1.84611917e+00      
H    -3.41765645e-01     5.30943358e-01      2.05434747e+00      
C    -1.68202273e+00     -1.03022733e+00     1.41347956e+00      
O    -2.20293055e+00     -1.42798571e+00     3.86459929e-01      
O    -2.17579744e+00     -1.11256847e+00     2.62928158e+00      
H    -3.10734915e+00     -1.49874492e+00     2.58483338e+00      
O    -1.92612871e+00     1.80116591e+00      -3.98940028e-01     
H    -2.81789358e+00     1.63035260e+00      -4.59645857e-02     
H    -2.00680566e+00     2.54794982e+00      -9.94033132e-01     
O    1.89530096e-01      -2.51514926e+00     -1.09923866e+00     
H    -6.72288009e-01     -2.93543380e+00     -1.03239056e+00     
H    6.40118311e-01      -2.95012944e+00     -1.82788433e+00     
O    -4.35334845e+00     1.12193142e+00      6.86824151e-01      
H    -4.67355098e+00     1.32465810e+00      1.56733436e+00      
H    -4.75335304e+00     2.78447201e-01      4.42467837e-01      
O    -4.63220988e+00     -1.96637369e+00     2.52672353e+00      
H    -4.97476910e+00     -2.07301033e+00     1.62863385e+00      
H    -5.05123429e+00     -2.63336778e+00     3.07784355e+00      
O    -5.01970523e+00     -1.53635570e+00     -2.04148759e-01     
H    -5.64299091e+00     -1.80834007e+00     -8.82704430e-01     
H    -4.14388766e+00     -1.71407479e+00     -5.60327355e-01     
O    2.51749489e+00      1.26091887e+00      4.24826808e-01      
H    2.66092631e+00      2.20684362e+00      5.02049906e-01      
H    3.39140858e+00      8.80479409e-01      3.11463421e-01      
29
283.247122
N    3.62185132e-02      1.73878466e-05      5.74485861e-02      
H    7.18609775e-02      -8.54157826e-01     -5.37382661e-01     
H    9.57736559e-01      4.75508588e-01      6.38096285e-02      
H    -6.96226539e-01     6.55903827e-01      -3.03366861e-01     
C    -3.16932879e-01     -3.65194942e-01     1.44203666e+00      
H    4.19142016e-01      -1.05408072e+00     1.84592736e+00      
H    -3.41879214e-01     5.30659191e-01      2.05477458e+00      
C    -1.68223323e+00     -1.03015764e+00     1.41339968e+00      
O    -2.20315346e+00     -1.42795614e+00     3.86415749e-01      
O    -2.17589674e+00     -1.11265908e+00     2.62924494e+00      
H    -3.10745160e+00     -1.49888191e+00     2.58483189e+00      
O    -1.92531941e+00     1.80075455e+00      -3.99078913e-01     
H    -2.81735250e+00     1.63025725e+00      -4.66297750e-02     
H    -2.00508226e+00     2.54818339e+00      -9.93489784e-01     
O    1.89624495e-01      -2.51468689e+00     -1.10015157e+00     
H    -6.69908167e-01     -2.93861744e+00     -1.02417710e+00     
H    6.39037821e-01      -2.95668679e+00     -1.82545065e+00     
O    -4.35371607e+00     1.12175916e+00      6.86980651e-01      
H    -4.67351372e+00     1.32445967e+00      1.56764217e+00      
H    -4.75424971e+00     2.78531897e-01      4.42608793e-01      
O    -4.63199301e+00     -1.96643463e+00     2.52676986e+00      
H    -4.97470377e+00     -2.07320133e+00     1.62875488e+00      
H    -5.05212262e+00     -2.63223958e+00     3.07848259e+00      
O    -5.01972565e+00     -1.53627467e+00     -2.04115331e-01     
H    -5.64266241e+00     -1.80890281e+00     -8.82732722e-01     
H    -4.14369262e+00     -1.71302386e+00     -5.60287875e-01     
O    2.51718320e+00      1.26100994e+00      4.24647667e-01      
H    2.66241709e+00      2.20656538e+00      5.03084491e-01      
H    3.39047341e+00      8.78882043e-01      3.12100848e-01      
29
283.247122
N    3.62318983e-02      6.32184909e-04      5.76845268e-02      
H    7.21530892e-02      -8.53031027e-01     -5.37680318e-01     
H    9.57669371e-01      4.76293019e-01      6.44712614e-02      
H    -6.96231751e-01     6.56656983e-01      -3.02938477e-01     
C    -3.17099471e-01     -3.65202986e-01     1.44206169e+00      
H    4.18916577e-01      -1.05430459e+00     1.84573555e+00      
H    -3.41992784e-01     5.30375024e-01      2.05520168e+00      
C    -1.68244374e+00     -1.03008795e+00     1.41331981e+00      
O    -2.20337638e+00     -1.42792657e+00     3.86371568e-01      
O    -2.17599605e+00     -1.11274970e+00     2.62920831e+00      
H    -3.10755405e+00     -1.49901890e+00     2.58483041e+00      
O    -1.92451010e+00     1.80034320e+00      -3.99217797e-01     
H    -2.81681142e+00     1.63016191e+00      -4.72949643e-02     
H    -2.00335886e+00     2.54841697e+00      -9.92946437e-01     
O    1.89718894e-01      -2.51422452e+00     -1.10106448e+00     
H    -6.67528325e-01     -2.94180108e+00     -1.01596365e+00     
H    6.37957331e-01      -2.96324415e+00     -1.82301696e+00     
O    -4.35408368e+00     1.12158689e+00      6.87137151e-01      
H    -4.67347645e+00     1.32426125e+00      1.56794999e+00      
H    -4.75514637e+00     2.78616593e-01      4.42749750e-01      
O    -4.63177614e+00     -1.96649556e+00     2.52681619e+00      
H    -4.97463844e+00     -2.07339233e+00     1.62887591e+00      
H    -5.05301095e+00     -2.63111138e+00     3.07912164e+00      
O    -5.01974607e+00     -1.53619364e+00     -2.04081903e-01     
H    -5.64233391e+00     -1.80946554e+00     -8.82761014e-01     
H    -4.14349757e+00     -1.71197293e+00     -5.60248395e-01     
O    2.51687151e+00      1.26110100e+00      4.24468526e-01      
H    2.66390786e+00      2.20628714e+00      5.04119077e-01      
H    3.38953825e+00      8.77284677e-01      3.12738274e-01      
29
283.247122
N    3.62586686e-02      1.86177903e-03      5.81564084e-02      
H    7.27373126e-02      -8.50777431e-01     -5.38275631e-01     
H    9.57534995e-01      4.77861881e-01      6.57945272e-02      
H    -6.96242175e-01     6.58163297e-01      -3.02081708e-01     
C    -3.17432656e-01     -3.65219074e-01     1.44211175e+00      
H    4.18465699e-01      -1.05475233e+00     1.84535194e+00      
H    -3.42219923e-01     5.29806691e-01      2.05605589e+00      
C    -1.68286474e+00     -1.02994856e+00     1.41316007e+00      
O    -2.20382220e+00     -1.42786743e+00     3.86283208e-01      
O    -2.17619466e+00     -1.11293093e+00     2.62913505e+00      
H    -3.10775894e+00     -1.49929288e+00     2.58482745e+00      
O    -1.92289150e+00     1.79952049e+00      -3.99495566e-01     
H    -2.81572927e+00     1.62997121e+00      -4.86253428e-02     
H    -1.99991205e+00     2.54888413e+00      -9.91859741e-01     
O    1.89907691e-01      -2.51329977e+00     -1.10289030e+00     
H    -6.62768641e-01     -2.94816835e+00     -9.99536740e-01     
H    6.35796350e-01      -2.97635885e+00     -1.81814958e+00     
O    -4.35481892e+00     1.12124235e+00      6.87450152e-01      
H    -4.67340193e+00     1.32386440e+00      1.56856561e+00      
H    -4.75693971e+00     2.78785985e-01      4.43031663e-01      
O    -4.63134241e+00     -1.96661742e+00     2.52690886e+00      
H    -4.97450779e+00     -2.07377434e+00     1.62911796e+00      
H    -5.05478760e+00     -2.62885498e+00     3.08039972e+00      
O    -5.01978691e+00     -1.53603158e+00     -2.04015046e-01     
H    -5.64167691e+00     -1.81059101e+00     -8.82817599e-01     
H    -4.14310747e+00     -1.70987108e+00     -5.60169436e-01     
O    2.51624812e+00      1.26128313e+00      4.24110244e-01      
H    2.66688940e+00      2.20573065e+00      5.06188247e-01      
H    3.38766792e+00      8.74089945e-01      3.14013127e-01      
29
283.247122
N    3.62854388e-02      3.09137316e-03      5.86282899e-02      
H    7.33215360e-02      -8.48523835e-01     -5.38870945e-01     
H    9.57400620e-01      4.79430744e-01      6.71177931e-02      
H    -6.96252599e-01     6.59669611e-01      -3.01224939e-01     
C    -3.17765840e-01     -3.65235162e-01     1.44216180e+00      
H    4.18014820e-01      -1.05520008e+00     1.84496833e+00      
H    -3.42447062e-01     5.29238357e-01      2.05691010e+00      
C    -1.68328575e+00     -1.02980917e+00     1.41300032e+00      
O    -2.20426803e+00     -1.42780829e+00     3.86194847e-01      
O    -2.17639326e+00     -1.11311215e+00     2.62906179e+00      
H    -3.10796384e+00     -1.49956686e+00     2.58482448e+00      
O    -1.92127289e+00     1.79869778e+00      -3.99773335e-01     
H    -2.81464711e+00     1.62978051e+00      -4.99557213e-02     
H    -1.99646525e+00     2.54935128e+00      -9.90773046e-01     
O    1.90096488e-01      -2.51237503e+00     -1.10471612e+00     
H    -6.58008957e-01     -2.95453563e+00     -9.83109829e-01     
H    6.33635369e-01      -2.98947355e+00     -1.81328220e+00     
O    -4.35555416e+00     1.12089782e+00      6.87763153e-01      
H    -4.67332740e+00     1.32346755e+00      1.56918123e+00      
H    -4.75873305e+00     2.78955377e-01      4.43313575e-01      
O    -4.63090867e+00     -1.96673929e+00     2.52700153e+00      
H    -4.97437714e+00     -2.07415634e+00     1.62936002e+00      
H    -5.05656425e+00     -2.62659858e+00     3.08167781e+00      
O    -5.01982774e+00     -1.53586952e+00     -2.03948190e-01     
H    -5.64101991e+00     -1.81171649e+00     -8.82874184e-01     
H    -4.14271738e+00     -1.70776922e+00     -5.60090476e-01     
O    2.51562473e+00      1.26146526e+00      4.23751963e-01      
H    2.66987095e+00      2.20517417e+00      5.08257418e-01      
H    3.38579759e+00      8.70895213e-01      3.15287981e-01      
29
283.247122
N    3.63122091e-02      4.32096728e-03      5.91001714e-02      
H    7.39057594e-02      -8.46270238e-01     -5.39466258e-01     
H    9.57266244e-01      4.80999606e-01      6.84410589e-02      
H    -6.96263023e-01     6.61175925e-01      -3.00368170e-01     
C    -3.18099024e-01     -3.65251249e-01     1.44221186e+00      
H    4.17563942e-01      -1.05564782e+00     1.84458471e+00      
H    -3.42674200e-01     5.28670023e-01      2.05776431e+00      
C    -1.68370676e+00     -1.02966978e+00     1.41284058e+00      
O    -2.20471386e+00     -1.42774915e+00     3.86106486e-01      
O    -2.17659187e+00     -1.11329338e+00     2.62898852e+00      
H    -3.10816874e+00     -1.49984084e+00     2.58482152e+00      
O    -1.91965428e+00     1.79787506e+00      -4.00051104e-01     
H    -2.81356496e+00     1.62958981e+00      -5.12860998e-02     
H    -1.99301844e+00     2.54981844e+00      -9.89686351e-01     
O    1.90285285e-01      -2.51145028e+00     -1.10654194e+00     
H    -6.53249273e-01     -2.96090290e+00     -9.66682919e-01     
H    6.31474389e-01      -3.00258825e+00     -1.80841483e+00     
O    -4.35628940e+00     1.12055328e+00      6.88076153e-01      
H    -4.67325287e+00     1.32307070e+00      1.56979685e+00      
H    -4.76052639e+00     2.79124769e-01      4.43595488e-01      
O    -4.63047493e+00     -1.96686115e+00     2.52709419e+00      
H    -4.97424648e+00     -2.07453835e+00     1.62960207e+00      
H    -5.05834091e+00     -2.62434218e+00     3.08295590e+00      
O    -5.01986858e+00     -1.53570746e+00     -2.03881333e-01     
H    -5.64036290e+00     -1.81284196e+00     -8.82930769e-01     
H    -4.14232728e+00     -1.70566737e+00     -5.60011516e-01     
O    2.51500135e+00      1.26164739e+00      4.23393681e-01      
H    2.67285249e+00      2.20461768e+00      5.10326589e-01      
H    3.38392725e+00      8.67700481e-01      3.16562834e-01      
29
283.247122
N    3.63389794e-02      5.55056141e-03      5.95720529e-02      
H    7.44899828e-02      -8.44016642e-01     -5.40061572e-01     
H    9.57131869e-01      4.82568469e-01      6.97643247e-02      
H    -6.96273447e-01     6.62682238e-01      -2.99511402e-01     
C    -3.18432208e-01     -3.65267337e-01     1.44226192e+00      
H    4.17113064e-01      -1.05609556e+00     1.84420110e+00      
H    -3.42901339e-01     5.28101689e-01      2.05861852e+00      
C    -1.68412777e+00     -1.02953040e+00     1.41268083e+00      
O    -2.20515969e+00     -1.42769001e+00     3.86018125e-01      
O    -2.17679048e+00     -1.11347461e+00     2.62891526e+00      
H    -3.10837364e+00     -1.50011482e+00     2.58481855e+00      
O    -1.91803567e+00     1.79705235e+00      -4.00328873e-01     
H    -2.81248280e+00     1.62939912e+00      -5.26164784e-02     
H    -1.98957164e+00     2.55028560e+00      -9.88599656e-01     
O    1.90474083e-01      -2.51052554e+00     -1.10836776e+00     
H    -6.48489589e-01     -2.96727018e+00     -9.50256009e-01     
H    6.29313408e-01      -3.01570296e+00     -1.80354745e+00     
O    -4.35702463e+00     1.12020875e+00      6.88389154e-01      
H    -4.67317834e+00     1.32267385e+00      1.57041248e+00      
H    -4.76231972e+00     2.79294161e-01      4.43877401e-01      
O    -4.63004119e+00     -1.96698302e+00     2.52718686e+00      
H    -4.97411583e+00     -2.07492035e+00     1.62984413e+00      
H    -5.06011756e+00     -2.62208578e+00     3.08423399e+00      
O    -5.01990942e+00     -1.53554540e+00     -2.03814477e-01     
H    -5.63970590e+00     -1.81396743e+00     -8.82987353e-01     
H    -4.14193719e+00     -1.70356551e+00     -5.59932556e-01     
O    2.51437796e+00      1.26182953e+00      4.23035399e-01      
H    2.67583403e+00      2.20406120e+00      5.12395760e-01      
H    3.38205692e+00      8.64505749e-01      3.17837687e-01      
29
283.247122
N    3.63925199e-02      8.00974966e-03      6.05158160e-02      
H    7.56584296e-02      -8.39509449e-01     -5.41252199e-01     
H    9.56863118e-01      4.85706194e-01      7.24108564e-02      
H    -6.96294295e-01     6.65694866e-01      -2.97797864e-01     
C    -3.19098577e-01     -3.65299512e-01     1.44236203e+00      
H    4.16211308e-01      -1.05699104e+00     1.84343387e+00      
H    -3.43355617e-01     5.26965022e-01      2.06032694e+00      
C    -1.68496978e+00     -1.02925162e+00     1.41236134e+00      
O    -2.20605135e+00     -1.42757172e+00     3.85841403e-01      
O    -2.17718770e+00     -1.11383707e+00     2.62876873e+00      
H    -3.10878343e+00     -1.50066278e+00     2.58481262e+00      
O    -1.91479846e+00     1.79540693e+00      -4.00884411e-01     
H    -2.81031849e+00     1.62901772e+00      -5.52772354e-02     
H    -1.98267802e+00     2.55121991e+00      -9.86426265e-01     
O    1.90851677e-01      -2.50867605e+00     -1.11201940e+00     
H    -6.38970221e-01     -2.98000473e+00     -9.17402189e-01     
H    6.24991447e-01      -3.04193236e+00     -1.79381270e+00     
O    -4.35849511e+00     1.11951968e+00      6.89015156e-01      
H    -4.67302929e+00     1.32188015e+00      1.57164372e+00      
H    -4.76590640e+00     2.79632945e-01      4.44441227e-01      
O    -4.62917372e+00     -1.96722675e+00     2.52737220e+00      
H    -4.97385452e+00     -2.07568437e+00     1.63032823e+00      
H    -5.06367087e+00     -2.61757298e+00     3.08679016e+00      
O    -5.01999110e+00     -1.53522128e+00     -2.03680764e-01     
H    -5.63839190e+00     -1.81621837e+00     -8.83100523e-01     
H    -4.14115700e+00     -1.69936180e+00     -5.59774637e-01     
O    2.51313119e+00      1.26219379e+00      4.22318835e-01      
H    2.68179712e+00      2.20294823e+00      5.16534102e-01      
H    3.37831626e+00      8.58116285e-01      3.20387393e-01      
