29
305.788596
N    3.84827333e-02      -1.30987771e-02     5.67922851e-02      
H    4.35792170e-02      -8.72941827e-01     -5.33531437e-01     
H    9.73556659e-01      4.35396436e-01      5.29087383e-02      
H    -6.81795531e-01     6.56403954e-01      -3.01601690e-01     
C    -3.14664800e-01     -3.65202545e-01     1.44464754e+00      
H    4.20536850e-01      -1.05075827e+00     1.85551929e+00      
H    -3.40992885e-01     5.35703816e-01      2.05028152e+00      
C    -1.67976814e+00     -1.02970908e+00     1.41321675e+00      
O    -2.19594810e+00     -1.42591134e+00     3.83354280e-01      
O    -2.17855228e+00     -1.11467865e+00     2.62624872e+00      
H    -3.11113341e+00     -1.49902083e+00     2.57842521e+00      
O    -1.93963177e+00     1.80537448e+00      -3.98256099e-01     
H    -2.82802999e+00     1.62055763e+00      -4.39994449e-02     
H    -2.03360790e+00     2.55541122e+00      -9.87399089e-01     
O    1.81157455e-01      -2.50254367e+00     -1.09593935e+00     
H    -6.33200822e-01     -3.01717080e+00     -9.94100171e-01     
H    6.64310896e-01      -2.91430487e+00     -1.81755108e+00     
O    -4.34724505e+00     1.12417312e+00      6.83263237e-01      
H    -4.65283702e+00     1.33823095e+00      1.56650086e+00      
H    -4.76162541e+00     2.84368937e-01      4.49692481e-01      
O    -4.63131724e+00     -1.96485605e+00     2.52847882e+00      
H    -4.97487149e+00     -2.07998965e+00     1.63157606e+00      
H    -5.03608821e+00     -2.63865761e+00     3.08245146e+00      
O    -5.02261994e+00     -1.53853054e+00     -2.05068380e-01     
H    -5.63561398e+00     -1.80812486e+00     -8.93987238e-01     
H    -4.14104824e+00     -1.69301221e+00     -5.59434980e-01     
O    2.52471328e+00      1.25154046e+00      4.23949994e-01      
H    2.56206435e+00      2.21421108e+00      4.88909755e-01      
H    3.44312148e+00      9.66127327e-01      3.38353394e-01      
29
305.788596
N    3.79066394e-02      -1.02808337e-02     5.67794048e-02      
H    5.04305734e-02      -8.69090925e-01     -5.34271000e-01     
H    9.69652025e-01      4.44836151e-01      5.51377361e-02      
H    -6.85399374e-01     6.55714055e-01      -3.02364271e-01     
C    -3.15106876e-01     -3.65194611e-01     1.44397605e+00      
H    4.20357221e-01      -1.05142098e+00     1.85326516e+00      
H    -3.41129290e-01     5.34655785e-01      2.05108446e+00      
C    -1.68022653e+00     -1.02987349e+00     1.41332239e+00      
O    -2.19758226e+00     -1.42644471e+00     3.84152783e-01      
O    -2.17781392e+00     -1.11410580e+00     2.62702525e+00      
H    -3.11013612e+00     -1.49888336e+00     2.58002799e+00      
O    -1.93666066e+00     1.80452802e+00      -3.98357639e-01     
H    -2.82576642e+00     1.62305405e+00      -4.41581355e-02     
H    -2.02776905e+00     2.55342908e+00      -9.89329273e-01     
O    1.83203416e-01      -2.50592625e+00     -1.09630772e+00     
H    -6.44162540e-01     -2.99514473e+00     -1.00777950e+00     
H    6.58802995e-01      -2.91998234e+00     -1.82135124e+00     
O    -4.34858709e+00     1.12369883e+00      6.84075215e-01      
H    -4.65803414e+00     1.33493695e+00      1.56655533e+00      
H    -4.75910898e+00     2.82846155e-01      4.47815842e-01      
O    -4.63164884e+00     -1.96520500e+00     2.52801683e+00      
H    -4.97487856e+00     -2.07814932e+00     1.63078000e+00      
H    -5.03943057e+00     -2.63789925e+00     3.08097996e+00      
O    -5.02188105e+00     -1.53802734e+00     -2.04855189e-01     
H    -5.63762246e+00     -1.80789729e+00     -8.91152390e-01     
H    -4.14185562e+00     -1.69880332e+00     -5.59677814e-01     
O    2.52306453e+00      1.25383953e+00      4.24258768e-01      
H    2.58603445e+00      2.21250834e+00      4.91677500e-01      
H    3.43066084e+00      9.45514030e-01      3.31312187e-01      
29
305.788596
N    3.76185925e-02      -8.87186196e-03     5.67729646e-02      
H    5.38562516e-02      -8.67165474e-01     -5.34640782e-01     
H    9.67699707e-01      4.49556008e-01      5.62522351e-02      
H    -6.87201296e-01     6.55369105e-01      -3.02745561e-01     
C    -3.15327913e-01     -3.65190645e-01     1.44364031e+00      
H    4.20267406e-01      -1.05175233e+00     1.85213810e+00      
H    -3.41197493e-01     5.34131769e-01      2.05148592e+00      
C    -1.68045573e+00     -1.02995569e+00     1.41337521e+00      
O    -2.19839934e+00     -1.42671140e+00     3.84552034e-01      
O    -2.17744474e+00     -1.11381937e+00     2.62741351e+00      
H    -3.10963747e+00     -1.49881462e+00     2.58082938e+00      
O    -1.93517510e+00     1.80410478e+00      -3.98408409e-01     
H    -2.82463464e+00     1.62430226e+00      -4.42374808e-02     
H    -2.02484962e+00     2.55243801e+00      -9.90294366e-01     
O    1.84226397e-01      -2.50761755e+00     -1.09649191e+00     
H    -6.49643399e-01     -2.98413170e+00     -1.01461916e+00     
H    6.56049044e-01      -2.92282107e+00     -1.82325132e+00     
O    -4.34925811e+00     1.12346169e+00      6.84481204e-01      
H    -4.66063270e+00     1.33328995e+00      1.56658256e+00      
H    -4.75785077e+00     2.82084764e-01      4.46877522e-01      
O    -4.63181463e+00     -1.96537947e+00     2.52778584e+00      
H    -4.97488209e+00     -2.07722915e+00     1.63038196e+00      
H    -5.04110175e+00     -2.63752007e+00     3.08024421e+00      
O    -5.02151161e+00     -1.53777575e+00     -2.04748593e-01     
H    -5.63862670e+00     -1.80778351e+00     -8.89734966e-01     
H    -4.14225931e+00     -1.70169887e+00     -5.59799231e-01     
O    2.52224015e+00      1.25498907e+00      4.24413155e-01      
H    2.59801951e+00      2.21165697e+00      4.93061372e-01      
H    3.42443051e+00      9.35207382e-01      3.27791584e-01      
29
305.788596
N    3.73305455e-02      -7.46289024e-03     5.67665245e-02      
H    5.72819297e-02      -8.65240023e-01     -5.35010564e-01     
H    9.65747390e-01      4.54275865e-01      5.73667340e-02      
H    -6.89003217e-01     6.55024155e-01      -3.03126852e-01     
C    -3.15548951e-01     -3.65186678e-01     1.44330456e+00      
H    4.20177592e-01      -1.05208369e+00     1.85101103e+00      
H    -3.41265696e-01     5.33607754e-01      2.05188739e+00      
C    -1.68068493e+00     -1.03003790e+00     1.41342803e+00      
O    -2.19921641e+00     -1.42697809e+00     3.84951285e-01      
O    -2.17707556e+00     -1.11353295e+00     2.62780178e+00      
H    -3.10913883e+00     -1.49874589e+00     2.58163078e+00      
O    -1.93368955e+00     1.80368155e+00      -3.98459179e-01     
H    -2.82350286e+00     1.62555047e+00      -4.43168261e-02     
H    -2.02193019e+00     2.55144694e+00      -9.91259458e-01     
O    1.85249377e-01      -2.50930884e+00     -1.09667610e+00     
H    -6.55124257e-01     -2.97311866e+00     -1.02145882e+00     
H    6.53295094e-01      -2.92565980e+00     -1.82515140e+00     
O    -4.34992913e+00     1.12322454e+00      6.84887194e-01      
H    -4.66323126e+00     1.33164295e+00      1.56660980e+00      
H    -4.75659256e+00     2.81323373e-01      4.45939203e-01      
O    -4.63198043e+00     -1.96555394e+00     2.52755484e+00      
H    -4.97488562e+00     -2.07630898e+00     1.62998393e+00      
H    -5.04277293e+00     -2.63714089e+00     3.07950846e+00      
O    -5.02114217e+00     -1.53752415e+00     -2.04641998e-01     
H    -5.63963094e+00     -1.80766973e+00     -8.88317542e-01     
H    -4.14266300e+00     -1.70459442e+00     -5.59920647e-01     
O    2.52141578e+00      1.25613860e+00      4.24567542e-01      
H    2.61000456e+00      2.21080560e+00      4.94445245e-01      
H    3.41820019e+00      9.24900734e-01      3.24270981e-01      
29
305.788596
N    3.70424986e-02      -6.05391851e-03     5.67600843e-02      
H    6.07076079e-02      -8.63314573e-01     -5.35380346e-01     
H    9.63795073e-01      4.58995722e-01      5.84812329e-02      
H    -6.90805139e-01     6.54679205e-01      -3.03508142e-01     
C    -3.15769989e-01     -3.65182711e-01     1.44296882e+00      
H    4.20087777e-01      -1.05241504e+00     1.84988397e+00      
H    -3.41333898e-01     5.33083738e-01      2.05228886e+00      
C    -1.68091413e+00     -1.03012010e+00     1.41348084e+00      
O    -2.20003349e+00     -1.42724478e+00     3.85350536e-01      
O    -2.17670638e+00     -1.11324652e+00     2.62819004e+00      
H    -3.10864018e+00     -1.49867715e+00     2.58243217e+00      
O    -1.93220399e+00     1.80325832e+00      -3.98509949e-01     
H    -2.82237108e+00     1.62679867e+00      -4.43961713e-02     
H    -2.01901076e+00     2.55045587e+00      -9.92224550e-01     
O    1.86272358e-01      -2.51100013e+00     -1.09686028e+00     
H    -6.60605116e-01     -2.96210563e+00     -1.02829848e+00     
H    6.50541143e-01      -2.92849854e+00     -1.82705147e+00     
O    -4.35060015e+00     1.12298740e+00      6.85293183e-01      
H    -4.66582983e+00     1.32999595e+00      1.56663703e+00      
H    -4.75533434e+00     2.80561982e-01      4.45000883e-01      
O    -4.63214623e+00     -1.96572841e+00     2.52732385e+00      
H    -4.97488915e+00     -2.07538882e+00     1.62958590e+00      
H    -5.04444410e+00     -2.63676172e+00     3.07877271e+00      
O    -5.02077272e+00     -1.53727255e+00     -2.04535402e-01     
H    -5.64063519e+00     -1.80755595e+00     -8.86900117e-01     
H    -4.14306669e+00     -1.70748998e+00     -5.60042064e-01     
O    2.52059140e+00      1.25728814e+00      4.24721929e-01      
H    2.62198961e+00      2.20995422e+00      4.95829117e-01      
H    3.41196987e+00      9.14594086e-01      3.20750378e-01      
29
305.788596
N    3.67544517e-02      -4.64494679e-03     5.67536441e-02      
H    6.41332861e-02      -8.61389122e-01     -5.35750127e-01     
H    9.61842756e-01      4.63715580e-01      5.95957318e-02      
H    -6.92607060e-01     6.54334256e-01      -3.03889433e-01     
C    -3.15991027e-01     -3.65178744e-01     1.44263307e+00      
H    4.19997962e-01      -1.05274640e+00     1.84875691e+00      
H    -3.41402101e-01     5.32559723e-01      2.05269033e+00      
C    -1.68114332e+00     -1.03020231e+00     1.41353366e+00      
O    -2.20085057e+00     -1.42751147e+00     3.85749788e-01      
O    -2.17633719e+00     -1.11296009e+00     2.62857831e+00      
H    -3.10814154e+00     -1.49860841e+00     2.58323356e+00      
O    -1.93071843e+00     1.80283509e+00      -3.98560719e-01     
H    -2.82123929e+00     1.62804688e+00      -4.44755166e-02     
H    -2.01609133e+00     2.54946480e+00      -9.93189642e-01     
O    1.87295338e-01      -2.51269142e+00     -1.09704447e+00     
H    -6.66085975e-01     -2.95109260e+00     -1.03513815e+00     
H    6.47787193e-01      -2.93133727e+00     -1.82895155e+00     
O    -4.35127117e+00     1.12275025e+00      6.85699172e-01      
H    -4.66842839e+00     1.32834895e+00      1.56666427e+00      
H    -4.75407613e+00     2.79800591e-01      4.44062563e-01      
O    -4.63231203e+00     -1.96590289e+00     2.52709285e+00      
H    -4.97489269e+00     -2.07446865e+00     1.62918787e+00      
H    -5.04611528e+00     -2.63638254e+00     3.07803696e+00      
O    -5.02040328e+00     -1.53702095e+00     -2.04428807e-01     
H    -5.64163943e+00     -1.80744216e+00     -8.85482693e-01     
H    -4.14347038e+00     -1.71038553e+00     -5.60163481e-01     
O    2.51976703e+00      1.25843767e+00      4.24876316e-01      
H    2.63397466e+00      2.20910285e+00      4.97212990e-01      
H    3.40573955e+00      9.04287437e-01      3.17229774e-01      
29
305.788596
N    3.66104282e-02      -3.94046093e-03     5.67504240e-02      
H    6.58461251e-02      -8.60426396e-01     -5.35935018e-01     
H    9.60866598e-01      4.66075508e-01      6.01529813e-02      
H    -6.93508021e-01     6.54161781e-01      -3.04080078e-01     
C    -3.16101546e-01     -3.65176761e-01     1.44246520e+00      
H    4.19953055e-01      -1.05291208e+00     1.84819338e+00      
H    -3.41436202e-01     5.32297715e-01      2.05289106e+00      
C    -1.68125792e+00     -1.03024341e+00     1.41356007e+00      
O    -2.20125910e+00     -1.42764482e+00     3.85949413e-01      
O    -2.17615260e+00     -1.11281688e+00     2.62877244e+00      
H    -3.10789222e+00     -1.49857404e+00     2.58363425e+00      
O    -1.92997565e+00     1.80262347e+00      -3.98586104e-01     
H    -2.82067340e+00     1.62867099e+00      -4.45151893e-02     
H    -2.01463161e+00     2.54896927e+00      -9.93672189e-01     
O    1.87806828e-01      -2.51353707e+00     -1.09713656e+00     
H    -6.68826405e-01     -2.94558608e+00     -1.03855798e+00     
H    6.46410218e-01      -2.93275664e+00     -1.82990159e+00     
O    -4.35160668e+00     1.12263168e+00      6.85902166e-01      
H    -4.66972767e+00     1.32752545e+00      1.56667789e+00      
H    -4.75344702e+00     2.79419896e-01      4.43593403e-01      
O    -4.63239492e+00     -1.96599012e+00     2.52697735e+00      
H    -4.97489445e+00     -2.07400857e+00     1.62898885e+00      
H    -5.04695087e+00     -2.63619295e+00     3.07766908e+00      
O    -5.02021856e+00     -1.53689516e+00     -2.04375509e-01     
H    -5.64214155e+00     -1.80738527e+00     -8.84773981e-01     
H    -4.14367223e+00     -1.71183331e+00     -5.60224190e-01     
O    2.51935484e+00      1.25901244e+00      4.24953510e-01      
H    2.63996719e+00      2.20867717e+00      4.97904926e-01      
H    3.40262439e+00      8.99134113e-01      3.15469473e-01      
29
305.788596
N    3.64664047e-02      -3.23597506e-03     5.67472040e-02      
H    6.75589642e-02      -8.59463671e-01     -5.36119909e-01     
H    9.59890439e-01      4.68435437e-01      6.07102308e-02      
H    -6.94408982e-01     6.53989306e-01      -3.04270723e-01     
C    -3.16212065e-01     -3.65174778e-01     1.44229733e+00      
H    4.19908148e-01      -1.05307775e+00     1.84762984e+00      
H    -3.41470303e-01     5.32035707e-01      2.05309179e+00      
C    -1.68137252e+00     -1.03028451e+00     1.41358648e+00      
O    -2.20166764e+00     -1.42777816e+00     3.86149039e-01      
O    -2.17596801e+00     -1.11267367e+00     2.62896657e+00      
H    -3.10764289e+00     -1.49853968e+00     2.58403495e+00      
O    -1.92923288e+00     1.80241185e+00      -3.98611489e-01     
H    -2.82010751e+00     1.62929509e+00      -4.45548619e-02     
H    -2.01317190e+00     2.54847373e+00      -9.94154735e-01     
O    1.88318319e-01      -2.51438272e+00     -1.09722865e+00     
H    -6.71566834e-01     -2.94007956e+00     -1.04197781e+00     
H    6.45033242e-01      -2.93417601e+00     -1.83085163e+00     
O    -4.35194219e+00     1.12251311e+00      6.86105161e-01      
H    -4.67102695e+00     1.32670195e+00      1.56669150e+00      
H    -4.75281791e+00     2.79039200e-01      4.43124244e-01      
O    -4.63247782e+00     -1.96607736e+00     2.52686186e+00      
H    -4.97489622e+00     -2.07354849e+00     1.62878983e+00      
H    -5.04778646e+00     -2.63600336e+00     3.07730121e+00      
O    -5.02003383e+00     -1.53676936e+00     -2.04322211e-01     
H    -5.64264367e+00     -1.80732838e+00     -8.84065269e-01     
H    -4.14387407e+00     -1.71328109e+00     -5.60284898e-01     
O    2.51894265e+00      1.25958721e+00      4.25030703e-01      
H    2.64595972e+00      2.20825148e+00      4.98596862e-01      
H    3.39950923e+00      8.93980789e-01      3.13709171e-01      
29
305.788596
N    3.58903109e-02      -4.18031616e-04     5.67343236e-02      
H    7.44103206e-02      -8.55612769e-01     -5.36859473e-01     
H    9.55985805e-01      4.77875151e-01      6.29392286e-02      
H    -6.98012824e-01     6.53299406e-01      -3.05033305e-01     
C    -3.16654141e-01     -3.65166844e-01     1.44162583e+00      
H    4.19728518e-01      -1.05374047e+00     1.84537572e+00      
H    -3.41606709e-01     5.30987677e-01      2.05389473e+00      
C    -1.68183092e+00     -1.03044893e+00     1.41369212e+00      
O    -2.20330180e+00     -1.42831154e+00     3.86947541e-01      
O    -2.17522965e+00     -1.11210081e+00     2.62974311e+00      
H    -3.10664561e+00     -1.49840220e+00     2.58563773e+00      
O    -1.92626176e+00     1.80156539e+00      -3.98713029e-01     
H    -2.81784395e+00     1.63179151e+00      -4.47135525e-02     
H    -2.00733304e+00     2.54649159e+00      -9.96084919e-01     
O    1.90364279e-01      -2.51776530e+00     -1.09759703e+00     
H    -6.82528552e-01     -2.91805350e+00     -1.05565713e+00     
H    6.39525342e-01      -2.93985347e+00     -1.83465179e+00     
O    -4.35328423e+00     1.12203881e+00      6.86917139e-01      
H    -4.67622407e+00     1.32340795e+00      1.56674598e+00      
H    -4.75030149e+00     2.77516418e-01      4.41247604e-01      
O    -4.63280942e+00     -1.96642630e+00     2.52639986e+00      
H    -4.97490328e+00     -2.07170815e+00     1.62799377e+00      
H    -5.05112882e+00     -2.63524500e+00     3.07582971e+00      
O    -5.01929495e+00     -1.53626616e+00     -2.04109021e-01     
H    -5.64465215e+00     -1.80710082e+00     -8.81230421e-01     
H    -4.14468145e+00     -1.71907219e+00     -5.60527732e-01     
O    2.51729391e+00      1.26188627e+00      4.25339477e-01      
H    2.66992982e+00      2.20654874e+00      5.01364608e-01      
H    3.38704859e+00      8.73367493e-01      3.06667965e-01      
29
305.788596
N    3.57462874e-02      2.86454246e-04      5.67311036e-02      
H    7.61231597e-02      -8.54650044e-01     -5.37044364e-01     
H    9.55009646e-01      4.80235080e-01      6.34964781e-02      
H    -6.98913785e-01     6.53126931e-01      -3.05223950e-01     
C    -3.16764660e-01     -3.65164861e-01     1.44145796e+00      
H    4.19683611e-01      -1.05390614e+00     1.84481218e+00      
H    -3.41640810e-01     5.30725669e-01      2.05409546e+00      
C    -1.68194552e+00     -1.03049003e+00     1.41371853e+00      
O    -2.20371034e+00     -1.42844488e+00     3.87147167e-01      
O    -2.17504506e+00     -1.11195760e+00     2.62993724e+00      
H    -3.10639628e+00     -1.49836784e+00     2.58603843e+00      
O    -1.92551899e+00     1.80135377e+00      -3.98738414e-01     
H    -2.81727806e+00     1.63241561e+00      -4.47532251e-02     
H    -2.00587333e+00     2.54599605e+00      -9.96567465e-01     
O    1.90875770e-01      -2.51861095e+00     -1.09768912e+00     
H    -6.85268981e-01     -2.91254698e+00     -1.05907696e+00     
H    6.38148366e-01      -2.94127284e+00     -1.83560183e+00     
O    -4.35361974e+00     1.12192024e+00      6.87120134e-01      
H    -4.67752335e+00     1.32258445e+00      1.56675959e+00      
H    -4.74967238e+00     2.77135722e-01      4.40778445e-01      
O    -4.63289232e+00     -1.96651354e+00     2.52628437e+00      
H    -4.97490505e+00     -2.07124807e+00     1.62779475e+00      
H    -5.05196441e+00     -2.63505541e+00     3.07546184e+00      
O    -5.01911022e+00     -1.53614036e+00     -2.04055723e-01     
H    -5.64515427e+00     -1.80704393e+00     -8.80521709e-01     
H    -4.14488329e+00     -1.72051997e+00     -5.60588440e-01     
O    2.51688172e+00      1.26246104e+00      4.25416670e-01      
H    2.67592235e+00      2.20612305e+00      5.02056544e-01      
H    3.38393343e+00      8.68214169e-01      3.04907663e-01      
29
305.788596
N    3.56022639e-02      9.90940108e-04      5.67278835e-02      
H    7.78359987e-02      -8.53687318e-01     -5.37229255e-01     
H    9.54033488e-01      4.82595008e-01      6.40537276e-02      
H    -6.99814746e-01     6.52954456e-01      -3.05414595e-01     
C    -3.16875179e-01     -3.65162878e-01     1.44129009e+00      
H    4.19638704e-01      -1.05407182e+00     1.84424865e+00      
H    -3.41674911e-01     5.30463661e-01      2.05429619e+00      
C    -1.68206012e+00     -1.03053113e+00     1.41374494e+00      
O    -2.20411887e+00     -1.42857823e+00     3.87346792e-01      
O    -2.17486047e+00     -1.11181439e+00     2.63013137e+00      
H    -3.10614696e+00     -1.49833347e+00     2.58643912e+00      
O    -1.92477621e+00     1.80114215e+00      -3.98763799e-01     
H    -2.81671217e+00     1.63303972e+00      -4.47928978e-02     
H    -2.00441361e+00     2.54550052e+00      -9.97050012e-01     
O    1.91387260e-01      -2.51945660e+00     -1.09778121e+00     
H    -6.88009411e-01     -2.90704046e+00     -1.06249679e+00     
H    6.36771391e-01      -2.94269221e+00     -1.83655187e+00     
O    -4.35395525e+00     1.12180167e+00      6.87323128e-01      
H    -4.67882263e+00     1.32176095e+00      1.56677321e+00      
H    -4.74904327e+00     2.76755027e-01      4.40309285e-01      
O    -4.63297521e+00     -1.96660077e+00     2.52616887e+00      
H    -4.97490681e+00     -2.07078799e+00     1.62759573e+00      
H    -5.05280000e+00     -2.63486582e+00     3.07509396e+00      
O    -5.01892550e+00     -1.53601457e+00     -2.04002425e-01     
H    -5.64565639e+00     -1.80698704e+00     -8.79812997e-01     
H    -4.14508514e+00     -1.72196775e+00     -5.60649149e-01     
O    2.51646953e+00      1.26303581e+00      4.25493864e-01      
H    2.68191488e+00      2.20569737e+00      5.02748480e-01      
H    3.38081827e+00      8.63060845e-01      3.03147362e-01      
29
305.788596
N    3.53142170e-02      2.39991183e-03      5.67214433e-02      
H    8.12616769e-02      -8.51761867e-01     -5.37599036e-01     
H    9.52081171e-01      4.87314866e-01      6.51682265e-02      
H    -7.01616667e-01     6.52609507e-01      -3.05795886e-01     
C    -3.17096217e-01     -3.65158911e-01     1.44095434e+00      
H    4.19548889e-01      -1.05440318e+00     1.84312159e+00      
H    -3.41743114e-01     5.29939646e-01      2.05469766e+00      
C    -1.68228931e+00     -1.03061334e+00     1.41379776e+00      
O    -2.20493595e+00     -1.42884492e+00     3.87746044e-01      
O    -2.17449128e+00     -1.11152796e+00     2.63051964e+00      
H    -3.10564832e+00     -1.49826473e+00     2.58724051e+00      
O    -1.92329065e+00     1.80071892e+00      -3.98814569e-01     
H    -2.81558038e+00     1.63428793e+00      -4.48722431e-02     
H    -2.00149418e+00     2.54450945e+00      -9.98015104e-01     
O    1.92410240e-01      -2.52114789e+00     -1.09796540e+00     
H    -6.93490270e-01     -2.89602743e+00     -1.06933646e+00     
H    6.34017441e-01      -2.94553094e+00     -1.83845195e+00     
O    -4.35462627e+00     1.12156452e+00      6.87729117e-01      
H    -4.68142119e+00     1.32011395e+00      1.56680045e+00      
H    -4.74778506e+00     2.75993636e-01      4.39370965e-01      
O    -4.63314101e+00     -1.96677525e+00     2.52593787e+00      
H    -4.97491035e+00     -2.06986782e+00     1.62719770e+00      
H    -5.05447118e+00     -2.63448664e+00     3.07435821e+00      
O    -5.01855606e+00     -1.53576297e+00     -2.03895830e-01     
H    -5.64666063e+00     -1.80687325e+00     -8.78395573e-01     
H    -4.14548883e+00     -1.72486330e+00     -5.60770566e-01     
O    2.51564516e+00      1.26418534e+00      4.25648251e-01      
H    2.69389993e+00      2.20484600e+00      5.04132353e-01      
H    3.37458795e+00      8.52754196e-01      2.99626758e-01      
29
305.788596
N    3.50261701e-02      3.80888356e-03      5.67150031e-02      
H    8.46873551e-02      -8.49836417e-01     -5.37968818e-01     
H    9.50128854e-01      4.92034723e-01      6.62827254e-02      
H    -7.03418589e-01     6.52264557e-01      -3.06177176e-01     
C    -3.17317255e-01     -3.65154944e-01     1.44061860e+00      
H    4.19459074e-01      -1.05473453e+00     1.84199453e+00      
H    -3.41811316e-01     5.29415630e-01      2.05509913e+00      
C    -1.68251851e+00     -1.03069554e+00     1.41385057e+00      
O    -2.20575303e+00     -1.42911161e+00     3.88145295e-01      
O    -2.17412210e+00     -1.11124153e+00     2.63090790e+00      
H    -3.10514967e+00     -1.49819599e+00     2.58804190e+00      
O    -1.92180509e+00     1.80029569e+00      -3.98865339e-01     
H    -2.81444860e+00     1.63553613e+00      -4.49515883e-02     
H    -1.99857475e+00     2.54351838e+00      -9.98980196e-01     
O    1.93433221e-01      -2.52283918e+00     -1.09814958e+00     
H    -6.98971129e-01     -2.88501440e+00     -1.07617612e+00     
H    6.31263490e-01      -2.94836968e+00     -1.84035202e+00     
O    -4.35529729e+00     1.12132738e+00      6.88135106e-01      
H    -4.68401976e+00     1.31846695e+00      1.56682768e+00      
H    -4.74652684e+00     2.75232245e-01      4.38432645e-01      
O    -4.63330681e+00     -1.96694972e+00     2.52570688e+00      
H    -4.97491388e+00     -2.06894766e+00     1.62679967e+00      
H    -5.05614235e+00     -2.63410747e+00     3.07362246e+00      
O    -5.01818661e+00     -1.53551137e+00     -2.03789234e-01     
H    -5.64766488e+00     -1.80675947e+00     -8.76978148e-01     
H    -4.14589252e+00     -1.72775886e+00     -5.60891983e-01     
O    2.51482078e+00      1.26533488e+00      4.25802638e-01      
H    2.70588498e+00      2.20399462e+00      5.05516225e-01      
H    3.36835763e+00      8.42447548e-01      2.96106155e-01      
29
305.788596
N    3.47381231e-02      5.21785528e-03      5.67085630e-02      
H    8.81130332e-02      -8.47910966e-01     -5.38338600e-01     
H    9.48176537e-01      4.96754580e-01      6.73972243e-02      
H    -7.05220510e-01     6.51919607e-01      -3.06558467e-01     
C    -3.17538293e-01     -3.65150977e-01     1.44028285e+00      
H    4.19369260e-01      -1.05506589e+00     1.84086746e+00      
H    -3.41879519e-01     5.28891615e-01      2.05550060e+00      
C    -1.68274771e+00     -1.03077775e+00     1.41390339e+00      
O    -2.20657010e+00     -1.42937830e+00     3.88544546e-01      
O    -2.17375292e+00     -1.11095511e+00     2.63129617e+00      
H    -3.10465103e+00     -1.49812726e+00     2.58884330e+00      
O    -1.92031954e+00     1.79987246e+00      -3.98916109e-01     
H    -2.81331682e+00     1.63678434e+00      -4.50309336e-02     
H    -1.99565532e+00     2.54252731e+00      -9.99945288e-01     
O    1.94456201e-01      -2.52453047e+00     -1.09833377e+00     
H    -7.04451987e-01     -2.87400136e+00     -1.08301578e+00     
H    6.28509540e-01      -2.95120841e+00     -1.84225210e+00     
O    -4.35596831e+00     1.12109023e+00      6.88541096e-01      
H    -4.68661832e+00     1.31681995e+00      1.56685492e+00      
H    -4.74526863e+00     2.74470854e-01      4.37494326e-01      
O    -4.63347261e+00     -1.96712419e+00     2.52547588e+00      
H    -4.97491741e+00     -2.06802749e+00     1.62640164e+00      
H    -5.05781353e+00     -2.63372829e+00     3.07288671e+00      
O    -5.01781717e+00     -1.53525977e+00     -2.03682639e-01     
H    -5.64866912e+00     -1.80664569e+00     -8.75560724e-01     
H    -4.14629621e+00     -1.73065441e+00     -5.61013399e-01     
O    2.51399641e+00      1.26648441e+00      4.25957025e-01      
H    2.71787003e+00      2.20314325e+00      5.06900098e-01      
H    3.36212731e+00      8.32140900e-01      2.92585552e-01      
29
305.788596
N    3.44500762e-02      6.62682700e-03      5.67021228e-02      
H    9.15387114e-02      -8.45985515e-01     -5.38708382e-01     
H    9.46224219e-01      5.01474437e-01      6.85117233e-02      
H    -7.07022432e-01     6.51574657e-01      -3.06939757e-01     
C    -3.17759330e-01     -3.65147011e-01     1.43994711e+00      
H    4.19279445e-01      -1.05539724e+00     1.83974040e+00      
H    -3.41947722e-01     5.28367599e-01      2.05590206e+00      
C    -1.68297691e+00     -1.03085995e+00     1.41395621e+00      
O    -2.20738718e+00     -1.42964499e+00     3.88943797e-01      
O    -2.17338374e+00     -1.11066868e+00     2.63168443e+00      
H    -3.10415238e+00     -1.49805852e+00     2.58964469e+00      
O    -1.91883398e+00     1.79944922e+00      -3.98966879e-01     
H    -2.81218504e+00     1.63803255e+00      -4.51102789e-02     
H    -1.99273589e+00     2.54153624e+00      -1.00091038e+00     
O    1.95479182e-01      -2.52622177e+00     -1.09851796e+00     
H    -7.09932846e-01     -2.86298833e+00     -1.08985544e+00     
H    6.25755589e-01      -2.95404714e+00     -1.84415218e+00     
O    -4.35663933e+00     1.12085309e+00      6.88947085e-01      
H    -4.68921688e+00     1.31517295e+00      1.56688215e+00      
H    -4.74401042e+00     2.73709463e-01      4.36556006e-01      
O    -4.63363840e+00     -1.96729866e+00     2.52524489e+00      
H    -4.97492094e+00     -2.06710732e+00     1.62600360e+00      
H    -5.05948471e+00     -2.63334911e+00     3.07215096e+00      
O    -5.01744773e+00     -1.53500818e+00     -2.03576043e-01     
H    -5.64967336e+00     -1.80653191e+00     -8.74143300e-01     
H    -4.14669990e+00     -1.73354996e+00     -5.61134816e-01     
O    2.51317203e+00      1.26763395e+00      4.26111412e-01      
H    2.72985509e+00      2.20229188e+00      5.08283970e-01      
H    3.35589698e+00      8.21834252e-01      2.89064949e-01      
29
305.788596
N    3.38739823e-02      9.44477045e-03      5.66892425e-02      
H    9.83900678e-02      -8.42134613e-01     -5.39447945e-01     
H    9.42319585e-01      5.10914152e-01      7.07407211e-02      
H    -7.10626275e-01     6.50884758e-01      -3.07702338e-01     
C    -3.18201406e-01     -3.65139077e-01     1.43927562e+00      
H    4.19099816e-01      -1.05605995e+00     1.83748627e+00      
H    -3.42084127e-01     5.27319568e-01      2.05670500e+00      
C    -1.68343530e+00     -1.03102436e+00     1.41406185e+00      
O    -2.20902134e+00     -1.43017836e+00     3.89742300e-01      
O    -2.17264538e+00     -1.11009583e+00     2.63246096e+00      
H    -3.10315509e+00     -1.49792105e+00     2.59124747e+00      
O    -1.91586287e+00     1.79860276e+00      -3.99068419e-01     
H    -2.80992147e+00     1.64052897e+00      -4.52689695e-02     
H    -1.98689704e+00     2.53955410e+00      -1.00284057e+00     
O    1.97525143e-01      -2.52960435e+00     -1.09888633e+00     
H    -7.20894564e-01     -2.84096226e+00     -1.10353477e+00     
H    6.20247688e-01      -2.95972461e+00     -1.84795234e+00     
O    -4.35798137e+00     1.12037880e+00      6.89759063e-01      
H    -4.69441400e+00     1.31187895e+00      1.56693662e+00      
H    -4.74149399e+00     2.72186681e-01      4.34679367e-01      
O    -4.63397000e+00     -1.96764761e+00     2.52478290e+00      
H    -4.97492801e+00     -2.06526699e+00     1.62520754e+00      
H    -5.06282707e+00     -2.63259075e+00     3.07067946e+00      
O    -5.01670884e+00     -1.53450498e+00     -2.03362852e-01     
H    -5.65168184e+00     -1.80630434e+00     -8.71308452e-01     
H    -4.14750728e+00     -1.73934107e+00     -5.61377650e-01     
O    2.51152328e+00      1.26993302e+00      4.26420186e-01      
H    2.75382519e+00      2.20058914e+00      5.11051715e-01      
H    3.34343634e+00      8.01220955e-01      2.82023742e-01      
