29
275.314893
N    3.65948934e-02      -2.91495634e-03     4.94542492e-02      
H    7.04109856e-02      -8.59777240e-01     -5.42285310e-01     
H    9.58567595e-01      4.71637297e-01      5.22841530e-02      
H    -6.96365461e-01     6.52937729e-01      -3.10607242e-01     
C    -3.11574836e-01     -3.62578624e-01     1.43749664e+00      
H    4.26860808e-01      -1.04907909e+00     1.84125859e+00      
H    -3.33975277e-01     5.35901646e-01      2.04648182e+00      
C    -1.67737094e+00     -1.02857061e+00     1.41582590e+00      
O    -2.20052748e+00     -1.42531938e+00     3.89869080e-01      
O    -2.17127887e+00     -1.11529175e+00     2.63236083e+00      
H    -3.10477071e+00     -1.49476452e+00     2.58768595e+00      
O    -1.92181254e+00     1.80068228e+00      -3.99828075e-01     
H    -2.81194401e+00     1.63332235e+00      -4.07665492e-02     
H    -2.00678865e+00     2.53973837e+00      -1.00408732e+00     
O    1.88636840e-01      -2.51056776e+00     -1.09789536e+00     
H    -6.70026197e-01     -2.93691687e+00     -1.02746674e+00     
H    6.43008059e-01      -2.94829778e+00     -1.82265830e+00     
O    -4.35781842e+00     1.12145521e+00      6.87408761e-01      
H    -4.67656249e+00     1.28942696e+00      1.57664535e+00      
H    -4.74259028e+00     2.77289268e-01      4.20862656e-01      
O    -4.65904234e+00     -1.96233842e+00     2.53080730e+00      
H    -4.95159863e+00     -2.03490955e+00     1.60845959e+00      
H    -4.98843274e+00     -2.75828633e+00     2.99400616e+00      
O    -5.01214597e+00     -1.53425626e+00     -1.99861844e-01     
H    -5.68170383e+00     -1.83163312e+00     -8.26056786e-01     
H    -4.16002830e+00     -1.73987779e+00     -5.98908475e-01     
O    2.51907297e+00      1.26039476e+00      4.25416873e-01      
H    2.65332850e+00      2.20802955e+00      4.98672488e-01      
H    3.39667780e+00      8.88364884e-01      3.12462996e-01      
29
275.314893
N    3.64907595e-02      -2.64296809e-03     5.12758779e-02      
H    7.05543998e-02      -8.59217485e-01     -5.40836405e-01     
H    9.58410227e-01      4.72016796e-01      5.46692972e-02      
H    -6.96326822e-01     6.53114386e-01      -3.09118435e-01     
C    -3.12789402e-01     -3.63226671e-01     1.43861288e+00      
H    4.25100190e-01      -1.05016160e+00     1.84256963e+00      
H    -3.35866084e-01     5.34804158e-01      2.04823468e+00      
C    -1.67842864e+00     -1.02901964e+00     1.41527925e+00      
O    -2.20101679e+00     -1.42600075e+00     3.89038883e-01      
O    -2.17235886e+00     -1.11456562e+00     2.63160933e+00      
H    -3.10536410e+00     -1.49569113e+00     2.58697355e+00      
O    -1.92329623e+00     1.80100887e+00      -3.99536621e-01     
H    -2.81370194e+00     1.63262759e+00      -4.17334637e-02     
H    -2.00765460e+00     2.54167445e+00      -1.00184545e+00     
O    1.88812954e-01      -2.51194432e+00     -1.09777473e+00     
H    -6.71781571e-01     -2.93495429e+00     -1.03280442e+00     
H    6.42825868e-01      -2.94547702e+00     -1.82518165e+00     
O    -4.35651712e+00     1.12166040e+00      6.87184358e-01      
H    -4.67582824e+00     1.29833396e+00      1.57416370e+00      
H    -4.74483263e+00     2.77536403e-01      4.26193473e-01      
O    -4.65244266e+00     -1.96331677e+00     2.52976319e+00      
H    -4.95742391e+00     -2.04433924e+00     1.61344265e+00      
H    -5.00368896e+00     -2.72762079e+00     3.01464598e+00      
O    -5.01402558e+00     -1.53482164e+00     -2.00950287e-01     
H    -5.67218985e+00     -1.82552849e+00     -8.40204551e-01     
H    -4.15609067e+00     -1.73395250e+00     -5.89282935e-01     
O    2.51883430e+00      1.26048026e+00      4.25358927e-01      
H    2.65448257e+00      2.20787219e+00      4.98999550e-01      
H    3.39582808e+00      8.87192198e-01      3.11894389e-01      
29
275.314893
N    3.64386926e-02      -2.50697397e-03     5.21866922e-02      
H    7.06261069e-02      -8.58937607e-01     -5.40111953e-01     
H    9.58331543e-01      4.72206546e-01      5.58618693e-02      
H    -6.96307502e-01     6.53202714e-01      -3.08374032e-01     
C    -3.13396686e-01     -3.63550694e-01     1.43917099e+00      
H    4.24219880e-01      -1.05070285e+00     1.84322516e+00      
H    -3.36811488e-01     5.34255414e-01      2.04911111e+00      
C    -1.67895749e+00     -1.02924415e+00     1.41500593e+00      
O    -2.20126145e+00     -1.42634143e+00     3.88623784e-01      
O    -2.17289885e+00     -1.11420256e+00     2.63123359e+00      
H    -3.10566079e+00     -1.49615443e+00     2.58661734e+00      
O    -1.92403808e+00     1.80117216e+00      -3.99390894e-01     
H    -2.81458090e+00     1.63228021e+00      -4.22169210e-02     
H    -2.00808758e+00     2.54264248e+00      -1.00072451e+00     
O    1.88901012e-01      -2.51263260e+00     -1.09771442e+00     
H    -6.72659258e-01     -2.93397299e+00     -1.03547327e+00     
H    6.42734772e-01      -2.94406664e+00     -1.82644333e+00     
O    -4.35586647e+00     1.12176299e+00      6.87072157e-01      
H    -4.67546112e+00     1.30278746e+00      1.57292287e+00      
H    -4.74595381e+00     2.77659971e-01      4.28858881e-01      
O    -4.64914282e+00     -1.96380595e+00     2.52924114e+00      
H    -4.96033655e+00     -2.04905409e+00     1.61593417e+00      
H    -5.01131707e+00     -2.71228802e+00     3.02496590e+00      
O    -5.01496538e+00     -1.53510432e+00     -2.01494508e-01     
H    -5.66743286e+00     -1.82247617e+00     -8.47278433e-01     
H    -4.15412185e+00     -1.73098986e+00     -5.84470165e-01     
O    2.51871496e+00      1.26052300e+00      4.25329954e-01      
H    2.65505960e+00      2.20779351e+00      4.99163080e-01      
H    3.39540322e+00      8.86605855e-01      3.11610086e-01      
29
275.314893
N    3.63866256e-02      -2.37097984e-03     5.30975065e-02      
H    7.06978140e-02      -8.58657730e-01     -5.39387500e-01     
H    9.58252859e-01      4.72396295e-01      5.70544414e-02      
H    -6.96288182e-01     6.53291042e-01      -3.07629628e-01     
C    -3.14003969e-01     -3.63874718e-01     1.43972911e+00      
H    4.23339571e-01      -1.05124410e+00     1.84388068e+00      
H    -3.37756892e-01     5.33706669e-01      2.04998754e+00      
C    -1.67948633e+00     -1.02946867e+00     1.41473260e+00      
O    -2.20150610e+00     -1.42668212e+00     3.88208685e-01      
O    -2.17343885e+00     -1.11383950e+00     2.63085784e+00      
H    -3.10595748e+00     -1.49661773e+00     2.58626114e+00      
O    -1.92477993e+00     1.80133545e+00      -3.99245167e-01     
H    -2.81545987e+00     1.63193283e+00      -4.27003782e-02     
H    -2.00852056e+00     2.54361052e+00      -9.99603576e-01     
O    1.88989069e-01      -2.51332088e+00     -1.09765410e+00     
H    -6.73536945e-01     -2.93299170e+00     -1.03814211e+00     
H    6.42643676e-01      -2.94265626e+00     -1.82770501e+00     
O    -4.35521582e+00     1.12186558e+00      6.86959955e-01      
H    -4.67509400e+00     1.30724096e+00      1.57168205e+00      
H    -4.74707499e+00     2.77783538e-01      4.31524290e-01      
O    -4.64584298e+00     -1.96429513e+00     2.52871908e+00      
H    -4.96324919e+00     -2.05376893e+00     1.61842570e+00      
H    -5.01894519e+00     -2.69695525e+00     3.03528581e+00      
O    -5.01590518e+00     -1.53538701e+00     -2.02038730e-01     
H    -5.66267587e+00     -1.81942386e+00     -8.54352315e-01     
H    -4.15215303e+00     -1.72802721e+00     -5.79657395e-01     
O    2.51859563e+00      1.26056575e+00      4.25300981e-01      
H    2.65563664e+00      2.20771483e+00      4.99326611e-01      
H    3.39497836e+00      8.86019512e-01      3.11325782e-01      
29
275.314893
N    3.63345587e-02      -2.23498572e-03     5.40083208e-02      
H    7.07695211e-02      -8.58377852e-01     -5.38663048e-01     
H    9.58174174e-01      4.72586045e-01      5.82470135e-02      
H    -6.96268862e-01     6.53379371e-01      -3.06885225e-01     
C    -3.14611253e-01     -3.64198741e-01     1.44028723e+00      
H    4.22459261e-01      -1.05178535e+00     1.84453621e+00      
H    -3.38702295e-01     5.33157925e-01      2.05086397e+00      
C    -1.68001518e+00     -1.02969318e+00     1.41445928e+00      
O    -2.20175076e+00     -1.42702280e+00     3.87793586e-01      
O    -2.17397884e+00     -1.11347643e+00     2.63048209e+00      
H    -3.10625417e+00     -1.49708103e+00     2.58590494e+00      
O    -1.92552178e+00     1.80149874e+00      -3.99099440e-01     
H    -2.81633883e+00     1.63158545e+00      -4.31838355e-02     
H    -2.00895354e+00     2.54457855e+00      -9.98482639e-01     
O    1.89077127e-01      -2.51400917e+00     -1.09759379e+00     
H    -6.74414632e-01     -2.93201041e+00     -1.04081095e+00     
H    6.42552580e-01      -2.94124588e+00     -1.82896668e+00     
O    -4.35456516e+00     1.12196818e+00      6.86847754e-01      
H    -4.67472688e+00     1.31169445e+00      1.57044122e+00      
H    -4.74819617e+00     2.77907106e-01      4.34189698e-01      
O    -4.64254314e+00     -1.96478430e+00     2.52819703e+00      
H    -4.96616183e+00     -2.05848378e+00     1.62091722e+00      
H    -5.02657330e+00     -2.68162248e+00     3.04560572e+00      
O    -5.01684498e+00     -1.53566970e+00     -2.02582951e-01     
H    -5.65791888e+00     -1.81637154e+00     -8.61426198e-01     
H    -4.15018421e+00     -1.72506457e+00     -5.74844625e-01     
O    2.51847629e+00      1.26060850e+00      4.25272009e-01      
H    2.65621367e+00      2.20763615e+00      4.99490142e-01      
H    3.39455350e+00      8.85433170e-01      3.11041479e-01      
29
275.314893
N    3.62824917e-02      -2.09899159e-03     5.49191352e-02      
H    7.08412282e-02      -8.58097975e-01     -5.37938596e-01     
H    9.58095490e-01      4.72775795e-01      5.94395855e-02      
H    -6.96249543e-01     6.53467699e-01      -3.06140821e-01     
C    -3.15218536e-01     -3.64522764e-01     1.44084535e+00      
H    4.21578952e-01      -1.05232661e+00     1.84519173e+00      
H    -3.39647699e-01     5.32609181e-01      2.05174040e+00      
C    -1.68054403e+00     -1.02991769e+00     1.41418595e+00      
O    -2.20199541e+00     -1.42736348e+00     3.87378488e-01      
O    -2.17451884e+00     -1.11311337e+00     2.63010634e+00      
H    -3.10655087e+00     -1.49754434e+00     2.58554874e+00      
O    -1.92626362e+00     1.80166204e+00      -3.98953713e-01     
H    -2.81721780e+00     1.63123806e+00      -4.36672927e-02     
H    -2.00938651e+00     2.54554659e+00      -9.97361701e-01     
O    1.89165184e-01      -2.51469745e+00     -1.09753347e+00     
H    -6.75292319e-01     -2.93102912e+00     -1.04347979e+00     
H    6.42461484e-01      -2.93983550e+00     -1.83022836e+00     
O    -4.35391451e+00     1.12207077e+00      6.86735553e-01      
H    -4.67435975e+00     1.31614795e+00      1.56920039e+00      
H    -4.74931734e+00     2.78030674e-01      4.36855107e-01      
O    -4.63924330e+00     -1.96527348e+00     2.52767497e+00      
H    -4.96907447e+00     -2.06319863e+00     1.62340875e+00      
H    -5.03420141e+00     -2.66628972e+00     3.05592563e+00      
O    -5.01778479e+00     -1.53595239e+00     -2.03127173e-01     
H    -5.65316189e+00     -1.81331923e+00     -8.68500080e-01     
H    -4.14821540e+00     -1.72210193e+00     -5.70031855e-01     
O    2.51835695e+00      1.26065125e+00      4.25243036e-01      
H    2.65679070e+00      2.20755747e+00      4.99653673e-01      
H    3.39412863e+00      8.84846827e-01      3.10757175e-01      
29
275.314893
N    3.62564582e-02      -2.03099453e-03     5.53745423e-02      
H    7.08770818e-02      -8.57958036e-01     -5.37576370e-01     
H    9.58056148e-01      4.72870670e-01      6.00358716e-02      
H    -6.96239883e-01     6.53511863e-01      -3.05768619e-01     
C    -3.15522178e-01     -3.64684776e-01     1.44112440e+00      
H    4.21138797e-01      -1.05259723e+00     1.84551949e+00      
H    -3.40120401e-01     5.32334808e-01      2.05217862e+00      
C    -1.68080845e+00     -1.03002995e+00     1.41404929e+00      
O    -2.20211774e+00     -1.42753382e+00     3.87170938e-01      
O    -2.17478884e+00     -1.11293184e+00     2.62991846e+00      
H    -3.10669921e+00     -1.49777599e+00     2.58537064e+00      
O    -1.92663455e+00     1.80174368e+00      -3.98880849e-01     
H    -2.81765728e+00     1.63106437e+00      -4.39090213e-02     
H    -2.00960300e+00     2.54603061e+00      -9.96801233e-01     
O    1.89209213e-01      -2.51504159e+00     -1.09750331e+00     
H    -6.75731163e-01     -2.93053847e+00     -1.04481421e+00     
H    6.42415936e-01      -2.93913031e+00     -1.83085920e+00     
O    -4.35358919e+00     1.12212207e+00      6.86679452e-01      
H    -4.67417619e+00     1.31837470e+00      1.56857998e+00      
H    -4.74987793e+00     2.78092458e-01      4.38187811e-01      
O    -4.63759338e+00     -1.96551807e+00     2.52741394e+00      
H    -4.97053079e+00     -2.06555605e+00     1.62465451e+00      
H    -5.03801547e+00     -2.65862333e+00     3.06108559e+00      
O    -5.01825469e+00     -1.53609373e+00     -2.03399284e-01     
H    -5.65078340e+00     -1.81179307e+00     -8.72037021e-01     
H    -4.14723099e+00     -1.72062061e+00     -5.67625470e-01     
O    2.51829729e+00      1.26067262e+00      4.25228549e-01      
H    2.65707922e+00      2.20751813e+00      4.99735439e-01      
H    3.39391620e+00      8.84553655e-01      3.10615023e-01      
29
275.314893
N    3.62304248e-02      -1.96299747e-03     5.58299495e-02      
H    7.09129353e-02      -8.57818097e-01     -5.37214143e-01     
H    9.58016806e-01      4.72965544e-01      6.06321576e-02      
H    -6.96230223e-01     6.53556028e-01      -3.05396418e-01     
C    -3.15825820e-01     -3.64846788e-01     1.44140346e+00      
H    4.20698642e-01      -1.05286786e+00     1.84584726e+00      
H    -3.40593102e-01     5.32060436e-01      2.05261683e+00      
C    -1.68107287e+00     -1.03014221e+00     1.41391263e+00      
O    -2.20224007e+00     -1.42770417e+00     3.86963389e-01      
O    -2.17505883e+00     -1.11275030e+00     2.62973059e+00      
H    -3.10684756e+00     -1.49800764e+00     2.58519254e+00      
O    -1.92700547e+00     1.80182533e+00      -3.98807986e-01     
H    -2.81809676e+00     1.63089068e+00      -4.41507500e-02     
H    -2.00981949e+00     2.54651462e+00      -9.96240764e-01     
O    1.89253242e-01      -2.51538573e+00     -1.09747316e+00     
H    -6.76170006e-01     -2.93004782e+00     -1.04614863e+00     
H    6.42370388e-01      -2.93842512e+00     -1.83149003e+00     
O    -4.35326386e+00     1.12217337e+00      6.86623351e-01      
H    -4.67399263e+00     1.32060145e+00      1.56795957e+00      
H    -4.75043852e+00     2.78154241e-01      4.39520515e-01      
O    -4.63594346e+00     -1.96576265e+00     2.52715292e+00      
H    -4.97198711e+00     -2.06791347e+00     1.62590027e+00      
H    -5.04182953e+00     -2.65095695e+00     3.06624555e+00      
O    -5.01872459e+00     -1.53623507e+00     -2.03671394e-01     
H    -5.64840490e+00     -1.81026691e+00     -8.75573963e-01     
H    -4.14624658e+00     -1.71913928e+00     -5.65219085e-01     
O    2.51823762e+00      1.26069399e+00      4.25214063e-01      
H    2.65736774e+00      2.20747879e+00      4.99817204e-01      
H    3.39370377e+00      8.84260484e-01      3.10472872e-01      
29
275.314893
N    3.61262908e-02      -1.69100921e-03     5.76515781e-02      
H    7.10563495e-02      -8.57258343e-01     -5.35765239e-01     
H    9.57859438e-01      4.73345044e-01      6.30173018e-02      
H    -6.96191583e-01     6.53732684e-01      -3.03907610e-01     
C    -3.17040386e-01     -3.65494834e-01     1.44251970e+00      
H    4.18938024e-01      -1.05395036e+00     1.84715830e+00      
H    -3.42483910e-01     5.30962948e-01      2.05436969e+00      
C    -1.68213057e+00     -1.03059123e+00     1.41336597e+00      
O    -2.20272937e+00     -1.42838553e+00     3.86133191e-01      
O    -2.17613883e+00     -1.11202418e+00     2.62897909e+00      
H    -3.10744094e+00     -1.49893424e+00     2.58448014e+00      
O    -1.92848917e+00     1.80215191e+00      -3.98516532e-01     
H    -2.81985470e+00     1.63019592e+00      -4.51176644e-02     
H    -2.01068545e+00     2.54845070e+00      -9.93998890e-01     
O    1.89429356e-01      -2.51676229e+00     -1.09735252e+00     
H    -6.77925380e-01     -2.92808524e+00     -1.05148631e+00     
H    6.42188196e-01      -2.93560436e+00     -1.83401339e+00     
O    -4.35196256e+00     1.12237855e+00      6.86398949e-01      
H    -4.67325839e+00     1.32950845e+00      1.56547791e+00      
H    -4.75268088e+00     2.78401377e-01      4.44851333e-01      
O    -4.62934378e+00     -1.96674101e+00     2.52610880e+00      
H    -4.97781239e+00     -2.07734317e+00     1.63088333e+00      
H    -5.05708575e+00     -2.62029141e+00     3.08688537e+00      
O    -5.02060419e+00     -1.53680045e+00     -2.04759838e-01     
H    -5.63889092e+00     -1.80416229e+00     -8.89721727e-01     
H    -4.14230894e+00     -1.71321400e+00     -5.55593545e-01     
O    2.51799894e+00      1.26077949e+00      4.25156117e-01      
H    2.65852180e+00      2.20732143e+00      5.00144266e-01      
H    3.39285405e+00      8.83087798e-01      3.09904264e-01      
29
275.314893
N    3.61002574e-02      -1.62301215e-03     5.81069853e-02      
H    7.10922030e-02      -8.57118404e-01     -5.35403012e-01     
H    9.57820096e-01      4.73439918e-01      6.36135878e-02      
H    -6.96181923e-01     6.53776849e-01      -3.03535409e-01     
C    -3.17344028e-01     -3.65656846e-01     1.44279876e+00      
H    4.18497869e-01      -1.05422099e+00     1.84748607e+00      
H    -3.42956611e-01     5.30688576e-01      2.05480790e+00      
C    -1.68239499e+00     -1.03070349e+00     1.41322931e+00      
O    -2.20285170e+00     -1.42855588e+00     3.85925642e-01      
O    -2.17640882e+00     -1.11184264e+00     2.62879122e+00      
H    -3.10758929e+00     -1.49916589e+00     2.58430204e+00      
O    -1.92886009e+00     1.80223356e+00      -3.98443669e-01     
H    -2.82029418e+00     1.63002223e+00      -4.53593931e-02     
H    -2.01090194e+00     2.54893471e+00      -9.93438421e-01     
O    1.89473385e-01      -2.51710643e+00     -1.09732237e+00     
H    -6.78364223e-01     -2.92759459e+00     -1.05282073e+00     
H    6.42142648e-01      -2.93489917e+00     -1.83464422e+00     
O    -4.35163723e+00     1.12242985e+00      6.86342848e-01      
H    -4.67307483e+00     1.33173520e+00      1.56485750e+00      
H    -4.75324147e+00     2.78463160e-01      4.46184037e-01      
O    -4.62769386e+00     -1.96698559e+00     2.52584778e+00      
H    -4.97926871e+00     -2.07970059e+00     1.63212909e+00      
H    -5.06089981e+00     -2.61262503e+00     3.09204533e+00      
O    -5.02107409e+00     -1.53694179e+00     -2.05031948e-01     
H    -5.63651242e+00     -1.80263613e+00     -8.93258669e-01     
H    -4.14132453e+00     -1.71173267e+00     -5.53187160e-01     
O    2.51793927e+00      1.26080086e+00      4.25141631e-01      
H    2.65881032e+00      2.20728209e+00      5.00226031e-01      
H    3.39264162e+00      8.82794627e-01      3.09762113e-01      
29
275.314893
N    3.60742239e-02      -1.55501509e-03     5.85623924e-02      
H    7.11280566e-02      -8.56978465e-01     -5.35040786e-01     
H    9.57780754e-01      4.73534793e-01      6.42098739e-02      
H    -6.96172263e-01     6.53821013e-01      -3.03163207e-01     
C    -3.17647670e-01     -3.65818858e-01     1.44307781e+00      
H    4.18057714e-01      -1.05449161e+00     1.84781383e+00      
H    -3.43429313e-01     5.30414203e-01      2.05524612e+00      
C    -1.68265941e+00     -1.03081575e+00     1.41309265e+00      
O    -2.20297403e+00     -1.42872622e+00     3.85718092e-01      
O    -2.17667882e+00     -1.11166111e+00     2.62860334e+00      
H    -3.10773763e+00     -1.49939754e+00     2.58412394e+00      
O    -1.92923102e+00     1.80231520e+00      -3.98370805e-01     
H    -2.82073366e+00     1.62984854e+00      -4.56011217e-02     
H    -2.01111843e+00     2.54941873e+00      -9.92877953e-01     
O    1.89517414e-01      -2.51745057e+00     -1.09729221e+00     
H    -6.78803067e-01     -2.92710394e+00     -1.05415515e+00     
H    6.42097100e-01      -2.93419398e+00     -1.83527506e+00     
O    -4.35131191e+00     1.12248115e+00      6.86286747e-01      
H    -4.67289127e+00     1.33396195e+00      1.56423709e+00      
H    -4.75380206e+00     2.78524944e-01      4.47516741e-01      
O    -4.62604394e+00     -1.96723018e+00     2.52558675e+00      
H    -4.98072503e+00     -2.08205801e+00     1.63337485e+00      
H    -5.06471387e+00     -2.60495864e+00     3.09720529e+00      
O    -5.02154399e+00     -1.53708313e+00     -2.05304059e-01     
H    -5.63413393e+00     -1.80110997e+00     -8.96795610e-01     
H    -4.14034012e+00     -1.71025135e+00     -5.50780775e-01     
O    2.51787961e+00      1.26082223e+00      4.25127144e-01      
H    2.65909884e+00      2.20724275e+00      5.00307797e-01      
H    3.39242919e+00      8.82501455e-01      3.09619961e-01      
29
275.314893
N    3.60221569e-02      -1.41902096e-03     5.94732068e-02      
H    7.11997637e-02      -8.56698588e-01     -5.34316334e-01     
H    9.57702070e-01      4.73724543e-01      6.54024459e-02      
H    -6.96152944e-01     6.53909341e-01      -3.02418803e-01     
C    -3.18254953e-01     -3.66142881e-01     1.44363593e+00      
H    4.17177405e-01      -1.05503287e+00     1.84846935e+00      
H    -3.44374717e-01     5.29865459e-01      2.05612255e+00      
C    -1.68318826e+00     -1.03104026e+00     1.41281932e+00      
O    -2.20321868e+00     -1.42906690e+00     3.85302994e-01      
O    -2.17721882e+00     -1.11129805e+00     2.62822759e+00      
H    -3.10803433e+00     -1.49986085e+00     2.58376774e+00      
O    -1.92997286e+00     1.80247850e+00      -3.98225078e-01     
H    -2.82161263e+00     1.62950115e+00      -4.60845789e-02     
H    -2.01155140e+00     2.55038677e+00      -9.91757015e-01     
O    1.89605471e-01      -2.51813885e+00     -1.09723189e+00     
H    -6.79680754e-01     -2.92612265e+00     -1.05682399e+00     
H    6.42006004e-01      -2.93278360e+00     -1.83653674e+00     
O    -4.35066126e+00     1.12258374e+00      6.86174546e-01      
H    -4.67252414e+00     1.33841545e+00      1.56299626e+00      
H    -4.75492323e+00     2.78648512e-01      4.50182150e-01      
O    -4.62274410e+00     -1.96771936e+00     2.52506469e+00      
H    -4.98363767e+00     -2.08677286e+00     1.63586638e+00      
H    -5.07234198e+00     -2.58962588e+00     3.10752520e+00      
O    -5.02248380e+00     -1.53736582e+00     -2.05848281e-01     
H    -5.62937694e+00     -1.79805766e+00     -9.03869492e-01     
H    -4.13837131e+00     -1.70728871e+00     -5.45968005e-01     
O    2.51776027e+00      1.26086498e+00      4.25098171e-01      
H    2.65967587e+00      2.20716407e+00      5.00471328e-01      
H    3.39200432e+00      8.81915112e-01      3.09335657e-01      
29
275.314893
N    3.59700900e-02      -1.28302684e-03     6.03840211e-02      
H    7.12714708e-02      -8.56418710e-01     -5.33591882e-01     
H    9.57623385e-01      4.73914293e-01      6.65950180e-02      
H    -6.96133624e-01     6.53997670e-01      -3.01674400e-01     
C    -3.18862237e-01     -3.66466904e-01     1.44419405e+00      
H    4.16297095e-01      -1.05557412e+00     1.84912488e+00      
H    -3.45320120e-01     5.29316715e-01      2.05699898e+00      
C    -1.68371711e+00     -1.03126477e+00     1.41254600e+00      
O    -2.20346334e+00     -1.42940758e+00     3.84887895e-01      
O    -2.17775881e+00     -1.11093498e+00     2.62785184e+00      
H    -3.10833102e+00     -1.50032415e+00     2.58341154e+00      
O    -1.93071471e+00     1.80264179e+00      -3.98079351e-01     
H    -2.82249159e+00     1.62915377e+00      -4.65680362e-02     
H    -2.01198438e+00     2.55135480e+00      -9.90636078e-01     
O    1.89693529e-01      -2.51882714e+00     -1.09717158e+00     
H    -6.80558441e-01     -2.92514136e+00     -1.05949283e+00     
H    6.41914908e-01      -2.93137322e+00     -1.83779841e+00     
O    -4.35001060e+00     1.12268634e+00      6.86062345e-01      
H    -4.67215702e+00     1.34286894e+00      1.56175543e+00      
H    -4.75604441e+00     2.78772080e-01      4.52847558e-01      
O    -4.61944426e+00     -1.96820853e+00     2.52454264e+00      
H    -4.98655031e+00     -2.09148771e+00     1.63835790e+00      
H    -5.07997009e+00     -2.57429311e+00     3.11784511e+00      
O    -5.02342360e+00     -1.53764851e+00     -2.06392502e-01     
H    -5.62461995e+00     -1.79500534e+00     -9.10943375e-01     
H    -4.13640249e+00     -1.70432607e+00     -5.41155235e-01     
O    2.51764093e+00      1.26090773e+00      4.25069199e-01      
H    2.66025290e+00      2.20708539e+00      5.00634859e-01      
H    3.39157946e+00      8.81328770e-01      3.09051354e-01      
29
275.314893
N    3.59180230e-02      -1.14703271e-03     6.12948354e-02      
H    7.13431779e-02      -8.56138833e-01     -5.32867429e-01     
H    9.57544701e-01      4.74104042e-01      6.77875901e-02      
H    -6.96114304e-01     6.54085998e-01      -3.00929996e-01     
C    -3.19469520e-01     -3.66790928e-01     1.44475217e+00      
H    4.15416786e-01      -1.05611537e+00     1.84978040e+00      
H    -3.46265524e-01     5.28767970e-01      2.05787541e+00      
C    -1.68424595e+00     -1.03148929e+00     1.41227267e+00      
O    -2.20370799e+00     -1.42974827e+00     3.84472796e-01      
O    -2.17829881e+00     -1.11057192e+00     2.62747609e+00      
H    -3.10862771e+00     -1.50078745e+00     2.58305534e+00      
O    -1.93145656e+00     1.80280508e+00      -3.97933624e-01     
H    -2.82337056e+00     1.62880639e+00      -4.70514934e-02     
H    -2.01241736e+00     2.55232284e+00      -9.89515141e-01     
O    1.89781586e-01      -2.51951542e+00     -1.09711126e+00     
H    -6.81436128e-01     -2.92416007e+00     -1.06216167e+00     
H    6.41823812e-01      -2.92996284e+00     -1.83906009e+00     
O    -4.34935995e+00     1.12278893e+00      6.85950143e-01      
H    -4.67178990e+00     1.34732244e+00      1.56051461e+00      
H    -4.75716559e+00     2.78895647e-01      4.55512967e-01      
O    -4.61614442e+00     -1.96869771e+00     2.52402058e+00      
H    -4.98946295e+00     -2.09620255e+00     1.64084943e+00      
H    -5.08759821e+00     -2.55896034e+00     3.12816502e+00      
O    -5.02436340e+00     -1.53793120e+00     -2.06936724e-01     
H    -5.61986296e+00     -1.79195303e+00     -9.18017257e-01     
H    -4.13443367e+00     -1.70136342e+00     -5.36342465e-01     
O    2.51752160e+00      1.26095048e+00      4.25040226e-01      
H    2.66082994e+00      2.20700671e+00      5.00798390e-01      
H    3.39115460e+00      8.80742427e-01      3.08767050e-01      
29
275.314893
N    3.58659561e-02      -1.01103859e-03     6.22056497e-02      
H    7.14148850e-02      -8.55858955e-01     -5.32142977e-01     
H    9.57466017e-01      4.74293792e-01      6.89801622e-02      
H    -6.96094984e-01     6.54174326e-01      -3.00185593e-01     
C    -3.20076804e-01     -3.67114951e-01     1.44531028e+00      
H    4.14536476e-01      -1.05665662e+00     1.85043593e+00      
H    -3.47210928e-01     5.28219226e-01      2.05875184e+00      
C    -1.68477480e+00     -1.03171380e+00     1.41199935e+00      
O    -2.20395265e+00     -1.43008895e+00     3.84057697e-01      
O    -2.17883880e+00     -1.11020886e+00     2.62710035e+00      
H    -3.10892440e+00     -1.50125075e+00     2.58269913e+00      
O    -1.93219841e+00     1.80296837e+00      -3.97787897e-01     
H    -2.82424952e+00     1.62845901e+00      -4.75349507e-02     
H    -2.01285034e+00     2.55329087e+00      -9.88394204e-01     
O    1.89869644e-01      -2.52020370e+00     -1.09705095e+00     
H    -6.82313815e-01     -2.92317877e+00     -1.06483052e+00     
H    6.41732716e-01      -2.92855246e+00     -1.84032177e+00     
O    -4.34870930e+00     1.12289152e+00      6.85837942e-01      
H    -4.67142278e+00     1.35177594e+00      1.55927378e+00      
H    -4.75828677e+00     2.79019215e-01      4.58178375e-01      
O    -4.61284458e+00     -1.96918689e+00     2.52349853e+00      
H    -4.99237559e+00     -2.10091740e+00     1.64334095e+00      
H    -5.09522632e+00     -2.54362757e+00     3.13848494e+00      
O    -5.02530320e+00     -1.53821388e+00     -2.07480945e-01     
H    -5.61510597e+00     -1.78890071e+00     -9.25091139e-01     
H    -4.13246485e+00     -1.69840078e+00     -5.31529695e-01     
O    2.51740226e+00      1.26099322e+00      4.25011253e-01      
H    2.66140697e+00      2.20692803e+00      5.00961920e-01      
H    3.39072974e+00      8.80156084e-01      3.08482747e-01      
29
275.314893
N    3.57618222e-02      -7.39050338e-04     6.40272784e-02      
H    7.15582992e-02      -8.55299200e-01     -5.30694072e-01     
H    9.57308649e-01      4.74673291e-01      7.13653064e-02      
H    -6.96056345e-01     6.54350983e-01      -2.98696786e-01     
C    -3.21291370e-01     -3.67762998e-01     1.44642652e+00      
H    4.12775858e-01      -1.05773913e+00     1.85174697e+00      
H    -3.49101735e-01     5.27121738e-01      2.06050470e+00      
C    -1.68583250e+00     -1.03216283e+00     1.41145270e+00      
O    -2.20444196e+00     -1.43077032e+00     3.83227500e-01      
O    -2.17991879e+00     -1.10948273e+00     2.62634885e+00      
H    -3.10951779e+00     -1.50217736e+00     2.58198673e+00      
O    -1.93368210e+00     1.80329496e+00      -3.97496443e-01     
H    -2.82600745e+00     1.62776425e+00      -4.85018652e-02     
H    -2.01371629e+00     2.55522695e+00      -9.86152329e-01     
O    1.90045758e-01      -2.52158026e+00     -1.09693032e+00     
H    -6.84069189e-01     -2.92121619e+00     -1.07016820e+00     
H    6.41550525e-01      -2.92573170e+00     -1.84284512e+00     
O    -4.34740800e+00     1.12309671e+00      6.85613539e-01      
H    -4.67068853e+00     1.36068294e+00      1.55679213e+00      
H    -4.76052912e+00     2.79266350e-01      4.63509192e-01      
O    -4.60624490e+00     -1.97016524e+00     2.52245442e+00      
H    -4.99820087e+00     -2.11034709e+00     1.64832401e+00      
H    -5.11048254e+00     -2.51296203e+00     3.15912476e+00      
O    -5.02718281e+00     -1.53877926e+00     -2.08569388e-01     
H    -5.60559199e+00     -1.78279608e+00     -9.39238904e-01     
H    -4.12852722e+00     -1.69247549e+00     -5.21904155e-01     
O    2.51716359e+00      1.26107872e+00      4.24953307e-01      
H    2.66256104e+00      2.20677067e+00      5.01288982e-01      
H    3.38988002e+00      8.78983398e-01      3.07914140e-01      
