29
753.245053
N    3.51049441e-02      -2.21928734e-03     5.67559424e-02      
H    7.75553319e-02      -8.58619169e-01     -5.35400462e-01     
H    9.54519844e-01      4.77541732e-01      6.34649934e-02      
H    -6.97230778e-01     6.51523919e-01      -3.09210033e-01     
C    -3.16356712e-01     -3.65778966e-01     1.44211666e+00      
H    4.20295918e-01      -1.05403423e+00     1.84565078e+00      
H    -3.42507386e-01     5.30532449e-01      2.05382409e+00      
C    -1.68125044e+00     -1.03005355e+00     1.41428750e+00      
O    -2.20212097e+00     -1.42892281e+00     3.87049735e-01      
O    -2.17561920e+00     -1.11203223e+00     2.62835372e+00      
H    -3.10604291e+00     -1.50072363e+00     2.58491100e+00      
O    -1.92617815e+00     1.80629320e+00      -3.94312354e-01     
H    -2.84808254e+00     1.51347440e+00      -1.75945327e-01     
H    -2.02198184e+00     2.55026421e+00      -9.91489376e-01     
O    1.89318472e-01      -2.51614332e+00     -1.09736195e+00     
H    -6.77569503e-01     -2.92815113e+00     -1.04924204e+00     
H    6.41748323e-01      -2.93678082e+00     -1.83321962e+00     
O    -4.35137360e+00     1.12839966e+00      6.90975321e-01      
H    -4.71583034e+00     1.29562703e+00      1.56337683e+00      
H    -4.69127368e+00     2.61592149e-01      4.28101448e-01      
O    -4.63261303e+00     -1.96615907e+00     2.52682142e+00      
H    -4.97400680e+00     -2.06998276e+00     1.62801275e+00      
H    -5.05123485e+00     -2.63692621e+00     3.07369494e+00      
O    -5.02151077e+00     -1.53707424e+00     -2.03359706e-01     
H    -5.63733385e+00     -1.81536200e+00     -8.86473672e-01     
H    -4.14149081e+00     -1.68636191e+00     -5.64006848e-01     
O    2.51823635e+00      1.26066804e+00      4.25201169e-01      
H    2.65769770e+00      2.20745168e+00      4.99460208e-01      
H    3.39347573e+00      8.83843311e-01      3.10257657e-01      
29
753.245053
N    3.53732975e-02      -2.12121634e-03     5.67521478e-02      
H    7.59126595e-02      -8.58348932e-01     -5.35672769e-01     
H    9.55374414e-01      4.76445122e-01      6.30549275e-02      
H    -6.96975809e-01     6.52054028e-01      -3.08070528e-01     
C    -3.16375810e-01     -3.65626928e-01     1.44207789e+00      
H    4.20176522e-01      -1.05387795e+00     1.84586378e+00      
H    -3.42265166e-01     5.30777259e-01      2.05374138e+00      
C    -1.68133826e+00     -1.03013184e+00     1.41412545e+00      
O    -2.20221191e+00     -1.42870332e+00     3.86924373e-01      
O    -2.17561411e+00     -1.11212098e+00     2.62860400e+00      
H    -3.10631825e+00     -1.50016046e+00     2.58489234e+00      
O    -1.92657044e+00     1.80521705e+00      -3.95399830e-01     
H    -2.84080584e+00     1.54274163e+00      -1.43117547e-01     
H    -2.01904950e+00     2.54956882e+00      -9.92396989e-01     
O    1.89324179e-01      -2.51612599e+00     -1.09737468e+00     
H    -6.77439051e-01     -2.92837998e+00     -1.04913590e+00     
H    6.41881065e-01      -2.93683930e+00     -1.83310264e+00     
O    -4.35168350e+00     1.12686873e+00      6.89859278e-01      
H    -4.70527914e+00     1.30298401e+00      1.56421231e+00      
H    -4.70634518e+00     2.65763564e-01      4.31622567e-01      
O    -4.63262068e+00     -1.96618226e+00     2.52677378e+00      
H    -4.97423004e+00     -2.07064415e+00     1.62810751e+00      
H    -5.05079055e+00     -2.63660070e+00     3.07441257e+00      
O    -5.02104917e+00     -1.53693512e+00     -2.03573683e-01     
H    -5.63891237e+00     -1.81332515e+00     -8.85517215e-01     
H    -4.14218755e+00     -1.69381559e+00     -5.63106715e-01     
O    2.51820683e+00      1.26068522e+00      4.25197149e-01      
H    2.65775947e+00      2.20743879e+00      4.99590340e-01      
H    3.39342653e+00      8.83801019e-01      3.10240385e-01      
29
753.245053
N    3.55074743e-02      -2.07218084e-03     5.67502504e-02      
H    7.50913233e-02      -8.58213813e-01     -5.35808923e-01     
H    9.55801698e-01      4.75896818e-01      6.28498945e-02      
H    -6.96848325e-01     6.52319083e-01      -3.07500776e-01     
C    -3.16385359e-01     -3.65550908e-01     1.44205850e+00      
H    4.20116824e-01      -1.05379981e+00     1.84597028e+00      
H    -3.42144056e-01     5.30899665e-01      2.05370003e+00      
C    -1.68138217e+00     -1.03017099e+00     1.41404443e+00      
O    -2.20225738e+00     -1.42859357e+00     3.86861693e-01      
O    -2.17561156e+00     -1.11216536e+00     2.62872914e+00      
H    -3.10645592e+00     -1.49987887e+00     2.58488300e+00      
O    -1.92676659e+00     1.80467898e+00      -3.95943568e-01     
H    -2.83716748e+00     1.55737524e+00      -1.26703657e-01     
H    -2.01758333e+00     2.54922113e+00      -9.92850795e-01     
O    1.89327032e-01      -2.51611733e+00     -1.09738104e+00     
H    -6.77373825e-01     -2.92849440e+00     -1.04908283e+00     
H    6.41947436e-01      -2.93686854e+00     -1.83304415e+00     
O    -4.35183845e+00     1.12610327e+00      6.89301257e-01      
H    -4.70000353e+00     1.30666250e+00      1.56463005e+00      
H    -4.71388094e+00     2.67849272e-01      4.33383127e-01      
O    -4.63262450e+00     -1.96619386e+00     2.52674996e+00      
H    -4.97434166e+00     -2.07097485e+00     1.62815489e+00      
H    -5.05056840e+00     -2.63643795e+00     3.07477139e+00      
O    -5.02081838e+00     -1.53686556e+00     -2.03680672e-01     
H    -5.63970162e+00     -1.81230673e+00     -8.85038987e-01     
H    -4.14253592e+00     -1.69754243e+00     -5.62656648e-01     
O    2.51819208e+00      1.26069380e+00      4.25195139e-01      
H    2.65779035e+00      2.20743234e+00      4.99655406e-01      
H    3.39340192e+00      8.83779872e-01      3.10231749e-01      
29
753.245053
N    3.56416510e-02      -2.02314534e-03     5.67483531e-02      
H    7.42699872e-02      -8.58078695e-01     -5.35945076e-01     
H    9.56228983e-01      4.75348513e-01      6.26448616e-02      
H    -6.96720840e-01     6.52584137e-01      -3.06931023e-01     
C    -3.16394908e-01     -3.65474889e-01     1.44203912e+00      
H    4.20057125e-01      -1.05372167e+00     1.84607678e+00      
H    -3.42022946e-01     5.31022070e-01      2.05365868e+00      
C    -1.68142608e+00     -1.03021014e+00     1.41396340e+00      
O    -2.20230285e+00     -1.42848383e+00     3.86799012e-01      
O    -2.17560901e+00     -1.11220973e+00     2.62885428e+00      
H    -3.10659358e+00     -1.49959728e+00     2.58487367e+00      
O    -1.92696274e+00     1.80414091e+00      -3.96487306e-01     
H    -2.83352913e+00     1.57200885e+00      -1.10289767e-01     
H    -2.01611715e+00     2.54887343e+00      -9.93304601e-01     
O    1.89329886e-01      -2.51610867e+00     -1.09738740e+00     
H    -6.77308598e-01     -2.92860883e+00     -1.04902976e+00     
H    6.42013807e-01      -2.93689778e+00     -1.83298567e+00     
O    -4.35199340e+00     1.12533781e+00      6.88743235e-01      
H    -4.69472793e+00     1.31034099e+00      1.56504779e+00      
H    -4.72141669e+00     2.69934979e-01      4.35143686e-01      
O    -4.63262832e+00     -1.96620545e+00     2.52672614e+00      
H    -4.97445328e+00     -2.07130554e+00     1.62820228e+00      
H    -5.05034624e+00     -2.63627519e+00     3.07513020e+00      
O    -5.02058758e+00     -1.53679600e+00     -2.03787661e-01     
H    -5.64049088e+00     -1.81128830e+00     -8.84560759e-01     
H    -4.14288428e+00     -1.70126928e+00     -5.62206582e-01     
O    2.51817732e+00      1.26070239e+00      4.25193129e-01      
H    2.65782124e+00      2.20742590e+00      4.99720472e-01      
H    3.39337732e+00      8.83758726e-01      3.10223112e-01      
29
753.245053
N    3.57758277e-02      -1.97410984e-03     5.67464558e-02      
H    7.34486510e-02      -8.57943576e-01     -5.36081230e-01     
H    9.56656268e-01      4.74800208e-01      6.24398286e-02      
H    -6.96593356e-01     6.52849192e-01      -3.06361271e-01     
C    -3.16404456e-01     -3.65398869e-01     1.44201973e+00      
H    4.19997427e-01      -1.05364353e+00     1.84618328e+00      
H    -3.41901836e-01     5.31144476e-01      2.05361732e+00      
C    -1.68146999e+00     -1.03024928e+00     1.41388238e+00      
O    -2.20234831e+00     -1.42837408e+00     3.86736332e-01      
O    -2.17560647e+00     -1.11225411e+00     2.62897942e+00      
H    -3.10673125e+00     -1.49931570e+00     2.58486434e+00      
O    -1.92715888e+00     1.80360284e+00      -3.97031044e-01     
H    -2.82989078e+00     1.58664246e+00      -9.38758771e-02     
H    -2.01465098e+00     2.54852574e+00      -9.93758408e-01     
O    1.89332739e-01      -2.51610000e+00     -1.09739376e+00     
H    -6.77243372e-01     -2.92872325e+00     -1.04897668e+00     
H    6.42080178e-01      -2.93692702e+00     -1.83292718e+00     
O    -4.35214836e+00     1.12457235e+00      6.88185214e-01      
H    -4.68945232e+00     1.31401948e+00      1.56546553e+00      
H    -4.72895244e+00     2.72020687e-01      4.36904246e-01      
O    -4.63263215e+00     -1.96621705e+00     2.52670232e+00      
H    -4.97456489e+00     -2.07163624e+00     1.62824966e+00      
H    -5.05012409e+00     -2.63611244e+00     3.07548902e+00      
O    -5.02035678e+00     -1.53672644e+00     -2.03894650e-01     
H    -5.64128014e+00     -1.81026988e+00     -8.84082530e-01     
H    -4.14323265e+00     -1.70499612e+00     -5.61756515e-01     
O    2.51816256e+00      1.26071098e+00      4.25191119e-01      
H    2.65785212e+00      2.20741945e+00      4.99785538e-01      
H    3.39335272e+00      8.83737580e-01      3.10214476e-01      
29
753.245053
N    3.59100044e-02      -1.92507434e-03     5.67445585e-02      
H    7.26273148e-02      -8.57808457e-01     -5.36217384e-01     
H    9.57083553e-01      4.74251903e-01      6.22347956e-02      
H    -6.96465872e-01     6.53114247e-01      -3.05791519e-01     
C    -3.16414005e-01     -3.65322850e-01     1.44200035e+00      
H    4.19937729e-01      -1.05356539e+00     1.84628978e+00      
H    -3.41780726e-01     5.31266881e-01      2.05357597e+00      
C    -1.68151390e+00     -1.03028843e+00     1.41380135e+00      
O    -2.20239378e+00     -1.42826434e+00     3.86673651e-01      
O    -2.17560392e+00     -1.11229849e+00     2.62910456e+00      
H    -3.10686892e+00     -1.49903411e+00     2.58485501e+00      
O    -1.92735503e+00     1.80306476e+00      -3.97574783e-01     
H    -2.82625243e+00     1.60127608e+00      -7.74619871e-02     
H    -2.01318481e+00     2.54817805e+00      -9.94212214e-01     
O    1.89335592e-01      -2.51609134e+00     -1.09740012e+00     
H    -6.77178146e-01     -2.92883768e+00     -1.04892361e+00     
H    6.42146550e-01      -2.93695626e+00     -1.83286869e+00     
O    -4.35230331e+00     1.12380688e+00      6.87627193e-01      
H    -4.68417672e+00     1.31769797e+00      1.56588326e+00      
H    -4.73648819e+00     2.74106394e-01      4.38664805e-01      
O    -4.63263597e+00     -1.96622864e+00     2.52667850e+00      
H    -4.97467651e+00     -2.07196693e+00     1.62829704e+00      
H    -5.04990194e+00     -2.63594969e+00     3.07584783e+00      
O    -5.02012598e+00     -1.53665688e+00     -2.04001638e-01     
H    -5.64206940e+00     -1.80925145e+00     -8.83604302e-01     
H    -4.14358102e+00     -1.70872296e+00     -5.61306448e-01     
O    2.51814780e+00      1.26071957e+00      4.25189110e-01      
H    2.65788300e+00      2.20741300e+00      4.99850603e-01      
H    3.39332812e+00      8.83716434e-01      3.10205840e-01      
29
753.245053
N    3.59770927e-02      -1.90055659e-03     5.67436098e-02      
H    7.22166467e-02      -8.57740898e-01     -5.36285460e-01     
H    9.57297195e-01      4.73977751e-01      6.21322792e-02      
H    -6.96402130e-01     6.53246774e-01      -3.05506642e-01     
C    -3.16418780e-01     -3.65284840e-01     1.44199066e+00      
H    4.19907880e-01      -1.05352632e+00     1.84634303e+00      
H    -3.41720171e-01     5.31328084e-01      2.05355529e+00      
C    -1.68153585e+00     -1.03030800e+00     1.41376084e+00      
O    -2.20241652e+00     -1.42820947e+00     3.86642311e-01      
O    -2.17560265e+00     -1.11232068e+00     2.62916713e+00      
H    -3.10693775e+00     -1.49889332e+00     2.58485034e+00      
O    -1.92745310e+00     1.80279573e+00      -3.97846652e-01     
H    -2.82443326e+00     1.60859288e+00      -6.92550421e-02     
H    -2.01245173e+00     2.54800420e+00      -9.94439117e-01     
O    1.89337019e-01      -2.51608701e+00     -1.09740330e+00     
H    -6.77145532e-01     -2.92889489e+00     -1.04889708e+00     
H    6.42179735e-01      -2.93697088e+00     -1.83283944e+00     
O    -4.35238078e+00     1.12342415e+00      6.87348182e-01      
H    -4.68153892e+00     1.31953722e+00      1.56609213e+00      
H    -4.74025607e+00     2.75149248e-01      4.39545085e-01      
O    -4.63263788e+00     -1.96623444e+00     2.52666659e+00      
H    -4.97473232e+00     -2.07213228e+00     1.62832073e+00      
H    -5.04979087e+00     -2.63586831e+00     3.07602724e+00      
O    -5.02001059e+00     -1.53662210e+00     -2.04055133e-01     
H    -5.64246402e+00     -1.80874224e+00     -8.83365188e-01     
H    -4.14375521e+00     -1.71058638e+00     -5.61081415e-01     
O    2.51814042e+00      1.26072386e+00      4.25188105e-01      
H    2.65789844e+00      2.20740978e+00      4.99883136e-01      
H    3.39331581e+00      8.83705860e-01      3.10201522e-01      
29
753.245053
N    3.60441811e-02      -1.87603884e-03     5.67426611e-02      
H    7.18059786e-02      -8.57673339e-01     -5.36353537e-01     
H    9.57510837e-01      4.73703599e-01      6.20297627e-02      
H    -6.96338387e-01     6.53379301e-01      -3.05221766e-01     
C    -3.16423554e-01     -3.65246830e-01     1.44198096e+00      
H    4.19878031e-01      -1.05348725e+00     1.84639628e+00      
H    -3.41659616e-01     5.31389287e-01      2.05353461e+00      
C    -1.68155781e+00     -1.03032757e+00     1.41372033e+00      
O    -2.20243925e+00     -1.42815459e+00     3.86610971e-01      
O    -2.17560138e+00     -1.11234286e+00     2.62922970e+00      
H    -3.10700658e+00     -1.49875253e+00     2.58484567e+00      
O    -1.92755117e+00     1.80252669e+00      -3.98118521e-01     
H    -2.82261408e+00     1.61590969e+00      -6.10480972e-02     
H    -2.01171864e+00     2.54783035e+00      -9.94666021e-01     
O    1.89338446e-01      -2.51608267e+00     -1.09740648e+00     
H    -6.77112919e-01     -2.92895210e+00     -1.04887054e+00     
H    6.42212921e-01      -2.93698550e+00     -1.83281020e+00     
O    -4.35245826e+00     1.12304142e+00      6.87069171e-01      
H    -4.67890111e+00     1.32137646e+00      1.56630100e+00      
H    -4.74402395e+00     2.76192102e-01      4.40425365e-01      
O    -4.63263980e+00     -1.96624024e+00     2.52665468e+00      
H    -4.97478813e+00     -2.07229763e+00     1.62834442e+00      
H    -5.04967979e+00     -2.63578693e+00     3.07620665e+00      
O    -5.01989519e+00     -1.53658732e+00     -2.04108627e-01     
H    -5.64285865e+00     -1.80823303e+00     -8.83126073e-01     
H    -4.14392939e+00     -1.71244980e+00     -5.60856382e-01     
O    2.51813304e+00      1.26072815e+00      4.25187100e-01      
H    2.65791389e+00      2.20740656e+00      4.99915669e-01      
H    3.39330351e+00      8.83695287e-01      3.10197204e-01      
29
753.245053
N    3.63125345e-02      -1.77796784e-03     5.67388665e-02      
H    7.01633062e-02      -8.57403101e-01     -5.36625845e-01     
H    9.58365407e-01      4.72606989e-01      6.16196967e-02      
H    -6.96083419e-01     6.53909411e-01      -3.04082262e-01     
C    -3.16442652e-01     -3.65094792e-01     1.44194220e+00      
H    4.19758635e-01      -1.05333097e+00     1.84660928e+00      
H    -3.41417396e-01     5.31634097e-01      2.05345191e+00      
C    -1.68164563e+00     -1.03040587e+00     1.41355827e+00      
O    -2.20253019e+00     -1.42793511e+00     3.86485609e-01      
O    -2.17559628e+00     -1.11243162e+00     2.62947998e+00      
H    -3.10728192e+00     -1.49818935e+00     2.58482701e+00      
O    -1.92794347e+00     1.80145055e+00      -3.99205997e-01     
H    -2.81533738e+00     1.64517691e+00      -2.82203172e-02     
H    -2.00878630e+00     2.54713497e+00      -9.95573633e-01     
O    1.89344152e-01      -2.51606535e+00     -1.09741920e+00     
H    -6.76982467e-01     -2.92918096e+00     -1.04876440e+00     
H    6.42345663e-01      -2.93704398e+00     -1.83269322e+00     
O    -4.35276816e+00     1.12151050e+00      6.85953129e-01      
H    -4.66834991e+00     1.32873344e+00      1.56713648e+00      
H    -4.75909545e+00     2.80363516e-01      4.43946483e-01      
O    -4.63264744e+00     -1.96626342e+00     2.52660704e+00      
H    -4.97501137e+00     -2.07295901e+00     1.62843918e+00      
H    -5.04923549e+00     -2.63546143e+00     3.07692427e+00      
O    -5.01943359e+00     -1.53644820e+00     -2.04322605e-01     
H    -5.64443717e+00     -1.80619617e+00     -8.82169617e-01     
H    -4.14462613e+00     -1.71990348e+00     -5.59956248e-01     
O    2.51810352e+00      1.26074533e+00      4.25183080e-01      
H    2.65797565e+00      2.20739366e+00      5.00045801e-01      
H    3.39325431e+00      8.83652995e-01      3.10179932e-01      
29
753.245053
N    3.63796229e-02      -1.75345009e-03     5.67379178e-02      
H    6.97526381e-02      -8.57335542e-01     -5.36693922e-01     
H    9.58579049e-01      4.72332837e-01      6.15171802e-02      
H    -6.96019676e-01     6.54041938e-01      -3.03797386e-01     
C    -3.16447426e-01     -3.65056782e-01     1.44193250e+00      
H    4.19728786e-01      -1.05329190e+00     1.84666253e+00      
H    -3.41356841e-01     5.31695300e-01      2.05343123e+00      
C    -1.68166759e+00     -1.03042544e+00     1.41351776e+00      
O    -2.20255292e+00     -1.42788023e+00     3.86454269e-01      
O    -2.17559501e+00     -1.11245380e+00     2.62954255e+00      
H    -3.10735075e+00     -1.49804856e+00     2.58482234e+00      
O    -1.92804154e+00     1.80118151e+00      -3.99477866e-01     
H    -2.81351820e+00     1.65249372e+00      -2.00133723e-02     
H    -2.00805321e+00     2.54696112e+00      -9.95800537e-01     
O    1.89345579e-01      -2.51606101e+00     -1.09742238e+00     
H    -6.76949854e-01     -2.92923817e+00     -1.04873786e+00     
H    6.42378849e-01      -2.93705860e+00     -1.83266398e+00     
O    -4.35284564e+00     1.12112777e+00      6.85674118e-01      
H    -4.66571210e+00     1.33057268e+00      1.56734535e+00      
H    -4.76286333e+00     2.81406370e-01      4.44826763e-01      
O    -4.63264936e+00     -1.96626922e+00     2.52659513e+00      
H    -4.97506718e+00     -2.07312436e+00     1.62846287e+00      
H    -5.04912441e+00     -2.63538005e+00     3.07710368e+00      
O    -5.01931819e+00     -1.53641342e+00     -2.04376099e-01     
H    -5.64483180e+00     -1.80568696e+00     -8.81930502e-01     
H    -4.14480031e+00     -1.72176690e+00     -5.59731215e-01     
O    2.51809614e+00      1.26074962e+00      4.25182075e-01      
H    2.65799110e+00      2.20739044e+00      5.00078334e-01      
H    3.39324201e+00      8.83642422e-01      3.10175614e-01      
29
753.245053
N    3.64467112e-02      -1.72893234e-03     5.67369691e-02      
H    6.93419700e-02      -8.57267983e-01     -5.36761998e-01     
H    9.58792691e-01      4.72058685e-01      6.14146638e-02      
H    -6.95955934e-01     6.54174465e-01      -3.03512509e-01     
C    -3.16452201e-01     -3.65018772e-01     1.44192281e+00      
H    4.19698937e-01      -1.05325283e+00     1.84671578e+00      
H    -3.41296286e-01     5.31756503e-01      2.05341055e+00      
C    -1.68168954e+00     -1.03044501e+00     1.41347725e+00      
O    -2.20257566e+00     -1.42782536e+00     3.86422929e-01      
O    -2.17559374e+00     -1.11247599e+00     2.62960512e+00      
H    -3.10741958e+00     -1.49790777e+00     2.58481767e+00      
O    -1.92813961e+00     1.80091248e+00      -3.99749735e-01     
H    -2.81169903e+00     1.65981052e+00      -1.18064273e-02     
H    -2.00732013e+00     2.54678727e+00      -9.96027440e-01     
O    1.89347006e-01      -2.51605668e+00     -1.09742556e+00     
H    -6.76917240e-01     -2.92929538e+00     -1.04871133e+00     
H    6.42412034e-01      -2.93707322e+00     -1.83263473e+00     
O    -4.35292311e+00     1.12074504e+00      6.85395107e-01      
H    -4.66307430e+00     1.33241193e+00      1.56755422e+00      
H    -4.76663121e+00     2.82449224e-01      4.45707043e-01      
O    -4.63265127e+00     -1.96627502e+00     2.52658322e+00      
H    -4.97512299e+00     -2.07328971e+00     1.62848656e+00      
H    -5.04901334e+00     -2.63529867e+00     3.07728309e+00      
O    -5.01920280e+00     -1.53637864e+00     -2.04429594e-01     
H    -5.64522642e+00     -1.80517775e+00     -8.81691388e-01     
H    -4.14497450e+00     -1.72363032e+00     -5.59506182e-01     
O    2.51808876e+00      1.26075391e+00      4.25181070e-01      
H    2.65800654e+00      2.20738722e+00      5.00110867e-01      
H    3.39322970e+00      8.83631848e-01      3.10171296e-01      
29
753.245053
N    3.65808879e-02      -1.67989684e-03     5.67350718e-02      
H    6.85206338e-02      -8.57132864e-01     -5.36898152e-01     
H    9.59219976e-01      4.71510380e-01      6.12096308e-02      
H    -6.95828450e-01     6.54439520e-01      -3.02942757e-01     
C    -3.16461750e-01     -3.64942753e-01     1.44190343e+00      
H    4.19639239e-01      -1.05317469e+00     1.84682228e+00      
H    -3.41175176e-01     5.31878908e-01      2.05336920e+00      
C    -1.68173345e+00     -1.03048416e+00     1.41339622e+00      
O    -2.20262113e+00     -1.42771562e+00     3.86360248e-01      
O    -2.17559119e+00     -1.11252037e+00     2.62973026e+00      
H    -3.10755725e+00     -1.49762618e+00     2.58480834e+00      
O    -1.92833576e+00     1.80037440e+00      -4.00293474e-01     
H    -2.80806068e+00     1.67444414e+00      4.60746269e-03      
H    -2.00585396e+00     2.54643958e+00      -9.96481246e-01     
O    1.89349859e-01      -2.51604802e+00     -1.09743192e+00     
H    -6.76852014e-01     -2.92940981e+00     -1.04865826e+00     
H    6.42478406e-01      -2.93710246e+00     -1.83257624e+00     
O    -4.35307806e+00     1.11997957e+00      6.84837086e-01      
H    -4.65779870e+00     1.33609042e+00      1.56797195e+00      
H    -4.77416696e+00     2.84534931e-01      4.47467602e-01      
O    -4.63265509e+00     -1.96628661e+00     2.52655940e+00      
H    -4.97523461e+00     -2.07362040e+00     1.62853394e+00      
H    -5.04879119e+00     -2.63513592e+00     3.07764190e+00      
O    -5.01897200e+00     -1.53630908e+00     -2.04536582e-01     
H    -5.64601568e+00     -1.80415932e+00     -8.81213160e-01     
H    -4.14532287e+00     -1.72735716e+00     -5.59056115e-01     
O    2.51807400e+00      1.26076250e+00      4.25179061e-01      
H    2.65803742e+00      2.20738077e+00      5.00175932e-01      
H    3.39320510e+00      8.83610702e-01      3.10162660e-01      
29
753.245053
N    3.67150646e-02      -1.63086134e-03     5.67331745e-02      
H    6.76992976e-02      -8.56997745e-01     -5.37034306e-01     
H    9.59647261e-01      4.70962075e-01      6.10045978e-02      
H    -6.95700966e-01     6.54704575e-01      -3.02373005e-01     
C    -3.16471298e-01     -3.64866733e-01     1.44188404e+00      
H    4.19579541e-01      -1.05309655e+00     1.84692878e+00      
H    -3.41054066e-01     5.32001314e-01      2.05332784e+00      
C    -1.68177736e+00     -1.03052330e+00     1.41331520e+00      
O    -2.20266659e+00     -1.42760587e+00     3.86297568e-01      
O    -2.17558865e+00     -1.11256475e+00     2.62985540e+00      
H    -3.10769492e+00     -1.49734460e+00     2.58479901e+00      
O    -1.92853190e+00     1.79983633e+00      -4.00837212e-01     
H    -2.80442233e+00     1.68907775e+00      2.10213526e-02      
H    -2.00438779e+00     2.54609189e+00      -9.96935053e-01     
O    1.89352712e-01      -2.51603935e+00     -1.09743828e+00     
H    -6.76786788e-01     -2.92952423e+00     -1.04860518e+00     
H    6.42544777e-01      -2.93713170e+00     -1.83251775e+00     
O    -4.35323302e+00     1.11921411e+00      6.84279065e-01      
H    -4.65252309e+00     1.33976891e+00      1.56838969e+00      
H    -4.78170271e+00     2.86620639e-01      4.49228162e-01      
O    -4.63265892e+00     -1.96629821e+00     2.52653558e+00      
H    -4.97534622e+00     -2.07395110e+00     1.62858132e+00      
H    -5.04856904e+00     -2.63497317e+00     3.07800072e+00      
O    -5.01874120e+00     -1.53623952e+00     -2.04643571e-01     
H    -5.64680494e+00     -1.80314090e+00     -8.80734931e-01     
H    -4.14567124e+00     -1.73108400e+00     -5.58606048e-01     
O    2.51805924e+00      1.26077109e+00      4.25177051e-01      
H    2.65806830e+00      2.20737432e+00      5.00240998e-01      
H    3.39318050e+00      8.83589556e-01      3.10154024e-01      
29
753.245053
N    3.68492413e-02      -1.58182584e-03     5.67312772e-02      
H    6.68779615e-02      -8.56862627e-01     -5.37170459e-01     
H    9.60074546e-01      4.70413770e-01      6.07995649e-02      
H    -6.95573481e-01     6.54969629e-01      -3.01803252e-01     
C    -3.16480847e-01     -3.64790714e-01     1.44186466e+00      
H    4.19519842e-01      -1.05301841e+00     1.84703528e+00      
H    -3.40932956e-01     5.32123719e-01      2.05328649e+00      
C    -1.68182127e+00     -1.03056245e+00     1.41323417e+00      
O    -2.20271206e+00     -1.42749613e+00     3.86234887e-01      
O    -2.17558610e+00     -1.11260912e+00     2.62998054e+00      
H    -3.10783258e+00     -1.49706301e+00     2.58478968e+00      
O    -1.92872805e+00     1.79929826e+00      -4.01380950e-01     
H    -2.80078398e+00     1.70371136e+00      3.74352426e-02      
H    -2.00292161e+00     2.54574419e+00      -9.97388859e-01     
O    1.89355566e-01      -2.51603069e+00     -1.09744464e+00     
H    -6.76721561e-01     -2.92963866e+00     -1.04855211e+00     
H    6.42611148e-01      -2.93716094e+00     -1.83245927e+00     
O    -4.35338797e+00     1.11844865e+00      6.83721043e-01      
H    -4.64724749e+00     1.34344740e+00      1.56880743e+00      
H    -4.78923846e+00     2.88706346e-01      4.50988721e-01      
O    -4.63266274e+00     -1.96630980e+00     2.52651176e+00      
H    -4.97545784e+00     -2.07428179e+00     1.62862871e+00      
H    -5.04834688e+00     -2.63481041e+00     3.07835953e+00      
O    -5.01851040e+00     -1.53616996e+00     -2.04750560e-01     
H    -5.64759420e+00     -1.80212247e+00     -8.80256703e-01     
H    -4.14601960e+00     -1.73481085e+00     -5.58155982e-01     
O    2.51804448e+00      1.26077968e+00      4.25175041e-01      
H    2.65809919e+00      2.20736788e+00      5.00306064e-01      
H    3.39315590e+00      8.83568410e-01      3.10145387e-01      
29
753.245053
N    3.69834181e-02      -1.53279034e-03     5.67293798e-02      
H    6.60566253e-02      -8.56727508e-01     -5.37306613e-01     
H    9.60501830e-01      4.69865466e-01      6.05945319e-02      
H    -6.95445997e-01     6.55234684e-01      -3.01233500e-01     
C    -3.16490396e-01     -3.64714694e-01     1.44184527e+00      
H    4.19460144e-01      -1.05294027e+00     1.84714178e+00      
H    -3.40811846e-01     5.32246125e-01      2.05324514e+00      
C    -1.68186518e+00     -1.03060160e+00     1.41315315e+00      
O    -2.20275753e+00     -1.42738638e+00     3.86172207e-01      
O    -2.17558355e+00     -1.11265350e+00     2.63010568e+00      
H    -3.10797025e+00     -1.49678142e+00     2.58478034e+00      
O    -1.92892420e+00     1.79876019e+00      -4.01924688e-01     
H    -2.79714562e+00     1.71834497e+00      5.38491326e-02      
H    -2.00145544e+00     2.54539650e+00      -9.97842665e-01     
O    1.89358419e-01      -2.51602203e+00     -1.09745100e+00     
H    -6.76656335e-01     -2.92975308e+00     -1.04849904e+00     
H    6.42677519e-01      -2.93719018e+00     -1.83240078e+00     
O    -4.35354292e+00     1.11768319e+00      6.83163022e-01      
H    -4.64197188e+00     1.34712589e+00      1.56922517e+00      
H    -4.79677422e+00     2.90792054e-01      4.52749281e-01      
O    -4.63266656e+00     -1.96632140e+00     2.52648794e+00      
H    -4.97556946e+00     -2.07461249e+00     1.62867609e+00      
H    -5.04812473e+00     -2.63464766e+00     3.07871835e+00      
O    -5.01827961e+00     -1.53610040e+00     -2.04857549e-01     
H    -5.64838345e+00     -1.80110405e+00     -8.79778475e-01     
H    -4.14636797e+00     -1.73853769e+00     -5.57705915e-01     
O    2.51802973e+00      1.26078826e+00      4.25173031e-01      
H    2.65813007e+00      2.20736143e+00      5.00371130e-01      
H    3.39313129e+00      8.83547263e-01      3.10136751e-01      
29
753.245053
N    3.72517715e-02      -1.43471934e-03     5.67255852e-02      
H    6.44139529e-02      -8.56457271e-01     -5.37578920e-01     
H    9.61356400e-01      4.68768856e-01      6.01844660e-02      
H    -6.95191028e-01     6.55764793e-01      -3.00093995e-01     
C    -3.16509494e-01     -3.64562656e-01     1.44180650e+00      
H    4.19340748e-01      -1.05278399e+00     1.84735478e+00      
H    -3.40569626e-01     5.32490935e-01      2.05316243e+00      
C    -1.68195300e+00     -1.03067989e+00     1.41299110e+00      
O    -2.20284847e+00     -1.42716689e+00     3.86046845e-01      
O    -2.17557846e+00     -1.11274225e+00     2.63035596e+00      
H    -3.10824559e+00     -1.49621825e+00     2.58476168e+00      
O    -1.92931649e+00     1.79768404e+00      -4.03012164e-01     
H    -2.78986892e+00     1.74761220e+00      8.66769125e-02      
H    -1.99852310e+00     2.54470111e+00      -9.98750278e-01     
O    1.89364126e-01      -2.51600470e+00     -1.09746373e+00     
H    -6.76525883e-01     -2.92998193e+00     -1.04839290e+00     
H    6.42810261e-01      -2.93724866e+00     -1.83228380e+00     
O    -4.35385282e+00     1.11615226e+00      6.82046979e-01      
H    -4.63142068e+00     1.35448287e+00      1.57006065e+00      
H    -4.81184572e+00     2.94963469e-01      4.56270400e-01      
O    -4.63267421e+00     -1.96634459e+00     2.52644030e+00      
H    -4.97579270e+00     -2.07527388e+00     1.62877085e+00      
H    -5.04768043e+00     -2.63432215e+00     3.07943598e+00      
O    -5.01781801e+00     -1.53596128e+00     -2.05071526e-01     
H    -5.64996197e+00     -1.79906720e+00     -8.78822018e-01     
H    -4.14706471e+00     -1.74599137e+00     -5.56805782e-01     
O    2.51800021e+00      1.26080544e+00      4.25169011e-01      
H    2.65819184e+00      2.20734854e+00      5.00501262e-01      
H    3.39308209e+00      8.83504971e-01      3.10119479e-01      
