29
603.403003
N    3.58084161e-02      -2.18875704e-03     5.65428972e-02      
H    7.10203475e-02      -8.58350508e-01     -5.36175084e-01     
H    9.57436368e-01      4.73126229e-01      6.08404045e-02      
H    -6.96468103e-01     6.53232646e-01      -3.05065004e-01     
C    -3.16092737e-01     -3.63964819e-01     1.44206791e+00      
H    4.16115009e-01      -1.05753660e+00     1.84464874e+00      
H    -3.35415826e-01     5.31234390e-01      2.05586409e+00      
C    -1.68288744e+00     -1.02779365e+00     1.41374106e+00      
O    -2.20089951e+00     -1.42948328e+00     3.86445438e-01      
O    -2.17698974e+00     -1.11296943e+00     2.62839878e+00      
H    -3.10512940e+00     -1.50785391e+00     2.58786340e+00      
O    -1.92713494e+00     1.80023029e+00      -4.00997606e-01     
H    -2.80389180e+00     1.66347887e+00      7.33712438e-03      
H    -2.01906978e+00     2.55011406e+00      -9.90584494e-01     
O    1.89693775e-01      -2.51604528e+00     -1.09752546e+00     
H    -6.77797710e-01     -2.92672281e+00     -1.04755123e+00     
H    6.40225413e-01      -2.93928233e+00     -1.83305708e+00     
O    -4.35644629e+00     1.12427811e+00      6.82639644e-01      
H    -4.67713432e+00     1.31810675e+00      1.56541986e+00      
H    -4.62620336e+00     2.00120485e-01      5.04574191e-01      
O    -4.63105709e+00     -1.96624567e+00     2.52938076e+00      
H    -4.97423935e+00     -2.03968281e+00     1.62704672e+00      
H    -5.06532908e+00     -2.64568011e+00     3.05372985e+00      
O    -5.02719184e+00     -1.53600932e+00     -2.05556479e-01     
H    -5.61811081e+00     -1.85417037e+00     -8.95252810e-01     
H    -4.13264919e+00     -1.64869906e+00     -5.49942524e-01     
O    2.51823872e+00      1.26076277e+00      4.25153910e-01      
H    2.65790274e+00      2.20741899e+00      5.00519289e-01      
H    3.39355390e+00      8.83939693e-01      3.10458192e-01      
29
603.403003
N    3.59009015e-02      -2.09831862e-03     5.65923639e-02      
H    7.10114212e-02      -8.58147436e-01     -5.36253736e-01     
H    9.57561807e-01      4.73133495e-01      6.10864858e-02      
H    -6.96403803e-01     6.53335574e-01      -3.04961757e-01     
C    -3.16177829e-01     -3.64266317e-01     1.44204133e+00      
H    4.17040840e-01      -1.05650473e+00     1.84511225e+00      
H    -3.36946496e-01     5.31303716e-01      2.05527138e+00      
C    -1.68256601e+00     -1.02843692e+00     1.41371562e+00      
O    -2.20129581e+00     -1.42912367e+00     3.86471151e-01      
O    -2.17664201e+00     -1.11282388e+00     2.62863779e+00      
H    -3.10563312e+00     -1.50550816e+00     2.58710664e+00      
O    -1.92728804e+00     1.80066987e+00      -4.00413769e-01     
H    -2.80766278e+00     1.65524498e+00      -5.65570851e-03     
H    -2.01686545e+00     2.54945621e+00      -9.91718327e-01     
O    1.89605656e-01      -2.51605247e+00     -1.09749731e+00     
H    -6.77610206e-01     -2.92730874e+00     -1.04786779e+00     
H    6.40738883e-01      -2.93871543e+00     -1.83298074e+00     
O    -4.35548802e+00     1.12377757e+00      6.83607521e-01      
H    -4.67625711e+00     1.31984380e+00      1.56574458e+00      
H    -4.65754244e+00     2.19659816e-01      4.88977124e-01      
O    -4.63145372e+00     -1.96624721e+00     2.52869328e+00      
H    -4.97440445e+00     -2.04791919e+00     1.62738299e+00      
H    -5.06136122e+00     -2.64316613e+00     3.05943875e+00      
O    -5.02530998e+00     -1.53613643e+00     -2.05221263e-01     
H    -5.62449509e+00     -1.84243142e+00     -8.92101569e-01     
H    -4.13555633e+00     -1.66556846e+00     -5.52558472e-01     
O    2.51820861e+00      1.26075626e+00      4.25161705e-01      
H    2.65791325e+00      2.20741427e+00      5.00384650e-01      
H    3.39348515e+00      8.83873305e-01      3.10390786e-01      
29
603.403003
N    3.59471442e-02      -2.05309940e-03     5.66170972e-02      
H    7.10069581e-02      -8.58045900e-01     -5.36293062e-01     
H    9.57624526e-01      4.73137129e-01      6.12095264e-02      
H    -6.96371653e-01     6.53387037e-01      -3.04910133e-01     
C    -3.16220374e-01     -3.64417066e-01     1.44202804e+00      
H    4.17503756e-01      -1.05598879e+00     1.84534400e+00      
H    -3.37711831e-01     5.31338378e-01      2.05497503e+00      
C    -1.68240530e+00     -1.02875855e+00     1.41370290e+00      
O    -2.20149396e+00     -1.42894387e+00     3.86484007e-01      
O    -2.17646815e+00     -1.11275111e+00     2.62875730e+00      
H    -3.10588497e+00     -1.50433529e+00     2.58672826e+00      
O    -1.92736459e+00     1.80088967e+00      -4.00121851e-01     
H    -2.80954828e+00     1.65112803e+00      -1.21521250e-02     
H    -2.01576329e+00     2.54912729e+00      -9.92285244e-01     
O    1.89561596e-01      -2.51605606e+00     -1.09748323e+00     
H    -6.77516454e-01     -2.92760170e+00     -1.04802607e+00     
H    6.40995618e-01      -2.93843198e+00     -1.83294256e+00     
O    -4.35500889e+00     1.12352730e+00      6.84091459e-01      
H    -4.67581851e+00     1.32071232e+00      1.56590694e+00      
H    -4.67321199e+00     2.29429482e-01      4.81178591e-01      
O    -4.63165204e+00     -1.96624798e+00     2.52834955e+00      
H    -4.97448700e+00     -2.05203738e+00     1.62755113e+00      
H    -5.05937729e+00     -2.64190914e+00     3.06229320e+00      
O    -5.02436905e+00     -1.53619998e+00     -2.05053655e-01     
H    -5.62768723e+00     -1.83656195e+00     -8.90525948e-01     
H    -4.13700991e+00     -1.67400315e+00     -5.53866446e-01     
O    2.51819355e+00      1.26075301e+00      4.25165603e-01      
H    2.65791850e+00      2.20741191e+00      5.00317331e-01      
H    3.39345078e+00      8.83840111e-01      3.10357083e-01      
29
603.403003
N    3.59933869e-02      -2.00788019e-03     5.66418305e-02      
H    7.10024950e-02      -8.57944364e-01     -5.36332388e-01     
H    9.57687245e-01      4.73140762e-01      6.13325671e-02      
H    -6.96339503e-01     6.53438501e-01      -3.04858509e-01     
C    -3.16262920e-01     -3.64567815e-01     1.44201475e+00      
H    4.17966671e-01      -1.05547286e+00     1.84557576e+00      
H    -3.38477166e-01     5.31373041e-01      2.05467867e+00      
C    -1.68224458e+00     -1.02908018e+00     1.41369018e+00      
O    -2.20169211e+00     -1.42876406e+00     3.86496864e-01      
O    -2.17629428e+00     -1.11267834e+00     2.62887681e+00      
H    -3.10613683e+00     -1.50316242e+00     2.58634987e+00      
O    -1.92744113e+00     1.80110946e+00      -3.99829932e-01     
H    -2.81143377e+00     1.64701108e+00      -1.86485414e-02     
H    -2.01466113e+00     2.54879836e+00      -9.92852160e-01     
O    1.89517537e-01      -2.51605965e+00     -1.09746915e+00     
H    -6.77422702e-01     -2.92789467e+00     -1.04818435e+00     
H    6.41252353e-01      -2.93814853e+00     -1.83290439e+00     
O    -4.35452975e+00     1.12327704e+00      6.84575397e-01      
H    -4.67537991e+00     1.32158085e+00      1.56606930e+00      
H    -4.68888153e+00     2.39199147e-01      4.73380057e-01      
O    -4.63185036e+00     -1.96624875e+00     2.52800581e+00      
H    -4.97456955e+00     -2.05615557e+00     1.62771926e+00      
H    -5.05739336e+00     -2.64065215e+00     3.06514766e+00      
O    -5.02342812e+00     -1.53626354e+00     -2.04886047e-01     
H    -5.63087936e+00     -1.83069248e+00     -8.88950327e-01     
H    -4.13846348e+00     -1.68243785e+00     -5.55174419e-01     
O    2.51817850e+00      1.26074976e+00      4.25169500e-01      
H    2.65792376e+00      2.20740955e+00      5.00250012e-01      
H    3.39341640e+00      8.83806917e-01      3.10323380e-01      
29
603.403003
N    3.60396296e-02      -1.96266098e-03     5.66665638e-02      
H    7.09980318e-02      -8.57842828e-01     -5.36371713e-01     
H    9.57749964e-01      4.73144395e-01      6.14556077e-02      
H    -6.96307353e-01     6.53489965e-01      -3.04806885e-01     
C    -3.16305466e-01     -3.64718564e-01     1.44200145e+00      
H    4.18429587e-01      -1.05495692e+00     1.84580751e+00      
H    -3.39242501e-01     5.31407704e-01      2.05438232e+00      
C    -1.68208387e+00     -1.02940182e+00     1.41367746e+00      
O    -2.20189027e+00     -1.42858426e+00     3.86509720e-01      
O    -2.17612042e+00     -1.11260556e+00     2.62899632e+00      
H    -3.10638868e+00     -1.50198955e+00     2.58597149e+00      
O    -1.92751768e+00     1.80132925e+00      -3.99538014e-01     
H    -2.81331926e+00     1.64289414e+00      -2.51449579e-02     
H    -2.01355896e+00     2.54846944e+00      -9.93419077e-01     
O    1.89473477e-01      -2.51606324e+00     -1.09745507e+00     
H    -6.77328949e-01     -2.92818763e+00     -1.04834263e+00     
H    6.41509087e-01      -2.93786509e+00     -1.83286622e+00     
O    -4.35405062e+00     1.12302677e+00      6.85059335e-01      
H    -4.67494131e+00     1.32244937e+00      1.56623166e+00      
H    -4.70455107e+00     2.48968813e-01      4.65581524e-01      
O    -4.63204867e+00     -1.96624952e+00     2.52766207e+00      
H    -4.97465210e+00     -2.06027375e+00     1.62788740e+00      
H    -5.05540943e+00     -2.63939515e+00     3.06800211e+00      
O    -5.02248718e+00     -1.53632709e+00     -2.04718440e-01     
H    -5.63407150e+00     -1.82482301e+00     -8.87374707e-01     
H    -4.13991705e+00     -1.69087255e+00     -5.56482393e-01     
O    2.51816344e+00      1.26074650e+00      4.25173398e-01      
H    2.65792901e+00      2.20740719e+00      5.00182693e-01      
H    3.39338203e+00      8.83773723e-01      3.10289677e-01      
29
603.403003
N    3.60858724e-02      -1.91744177e-03     5.66912972e-02      
H    7.09935687e-02      -8.57741292e-01     -5.36411039e-01     
H    9.57812684e-01      4.73148028e-01      6.15786484e-02      
H    -6.96275203e-01     6.53541429e-01      -3.04755262e-01     
C    -3.16348012e-01     -3.64869313e-01     1.44198816e+00      
H    4.18892502e-01      -1.05444098e+00     1.84603927e+00      
H    -3.40007836e-01     5.31442367e-01      2.05408597e+00      
C    -1.68192315e+00     -1.02972345e+00     1.41366474e+00      
O    -2.20208842e+00     -1.42840446e+00     3.86522577e-01      
O    -2.17594656e+00     -1.11253279e+00     2.62911582e+00      
H    -3.10664054e+00     -1.50081668e+00     2.58559311e+00      
O    -1.92759423e+00     1.80154904e+00      -3.99246096e-01     
H    -2.81520475e+00     1.63877719e+00      -3.16413743e-02     
H    -2.01245680e+00     2.54814051e+00      -9.93985994e-01     
O    1.89429418e-01      -2.51606683e+00     -1.09744100e+00     
H    -6.77235197e-01     -2.92848060e+00     -1.04850091e+00     
H    6.41765822e-01      -2.93758164e+00     -1.83282805e+00     
O    -4.35357148e+00     1.12277650e+00      6.85543274e-01      
H    -4.67450271e+00     1.32331790e+00      1.56639402e+00      
H    -4.72022061e+00     2.58738478e-01      4.57782991e-01      
O    -4.63224699e+00     -1.96625029e+00     2.52731833e+00      
H    -4.97473465e+00     -2.06439194e+00     1.62805553e+00      
H    -5.05342550e+00     -2.63813816e+00     3.07085656e+00      
O    -5.02154625e+00     -1.53639065e+00     -2.04550832e-01     
H    -5.63726364e+00     -1.81895354e+00     -8.85799086e-01     
H    -4.14137062e+00     -1.69930725e+00     -5.57790367e-01     
O    2.51814839e+00      1.26074325e+00      4.25177295e-01      
H    2.65793426e+00      2.20740483e+00      5.00115373e-01      
H    3.39334766e+00      8.83740529e-01      3.10255974e-01      
29
603.403003
N    3.61089937e-02      -1.89483216e-03     5.67036638e-02      
H    7.09913371e-02      -8.57690524e-01     -5.36430702e-01     
H    9.57844043e-01      4.73149844e-01      6.16401687e-02      
H    -6.96259128e-01     6.53567160e-01      -3.04729450e-01     
C    -3.16369284e-01     -3.64944687e-01     1.44198152e+00      
H    4.19123960e-01      -1.05418301e+00     1.84615515e+00      
H    -3.40390503e-01     5.31459698e-01      2.05393779e+00      
C    -1.68184279e+00     -1.02988427e+00     1.41365838e+00      
O    -2.20218749e+00     -1.42831455e+00     3.86529005e-01      
O    -2.17585963e+00     -1.11249640e+00     2.62917558e+00      
H    -3.10676647e+00     -1.50023025e+00     2.58540391e+00      
O    -1.92763250e+00     1.80165893e+00      -3.99100136e-01     
H    -2.81614749e+00     1.63671872e+00      -3.48895825e-02     
H    -2.01190572e+00     2.54797605e+00      -9.94269452e-01     
O    1.89407388e-01      -2.51606862e+00     -1.09743396e+00     
H    -6.77188321e-01     -2.92862708e+00     -1.04858005e+00     
H    6.41894190e-01      -2.93743991e+00     -1.83280897e+00     
O    -4.35333191e+00     1.12265136e+00      6.85785243e-01      
H    -4.67428341e+00     1.32375216e+00      1.56647520e+00      
H    -4.72805539e+00     2.63623311e-01      4.53883724e-01      
O    -4.63234615e+00     -1.96625068e+00     2.52714647e+00      
H    -4.97477592e+00     -2.06645104e+00     1.62813960e+00      
H    -5.05243353e+00     -2.63750967e+00     3.07228378e+00      
O    -5.02107579e+00     -1.53642243e+00     -2.04467028e-01     
H    -5.63885970e+00     -1.81601881e+00     -8.85011276e-01     
H    -4.14209740e+00     -1.70352459e+00     -5.58444354e-01     
O    2.51814086e+00      1.26074162e+00      4.25179244e-01      
H    2.65793689e+00      2.20740365e+00      5.00081714e-01      
H    3.39333047e+00      8.83723932e-01      3.10239122e-01      
29
603.403003
N    3.61321151e-02      -1.87222255e-03     5.67160305e-02      
H    7.09891055e-02      -8.57639756e-01     -5.36450365e-01     
H    9.57875403e-01      4.73151661e-01      6.17016890e-02      
H    -6.96243053e-01     6.53592892e-01      -3.04703638e-01     
C    -3.16390557e-01     -3.65020062e-01     1.44197487e+00      
H    4.19355418e-01      -1.05392505e+00     1.84627102e+00      
H    -3.40773171e-01     5.31477029e-01      2.05378961e+00      
C    -1.68176244e+00     -1.03004509e+00     1.41365202e+00      
O    -2.20228657e+00     -1.42822465e+00     3.86535433e-01      
O    -2.17577269e+00     -1.11246001e+00     2.62923533e+00      
H    -3.10689239e+00     -1.49964381e+00     2.58521472e+00      
O    -1.92767077e+00     1.80176883e+00      -3.98954177e-01     
H    -2.81709024e+00     1.63466025e+00      -3.81377908e-02     
H    -2.01135463e+00     2.54781159e+00      -9.94552910e-01     
O    1.89385358e-01      -2.51607042e+00     -1.09742692e+00     
H    -6.77141445e-01     -2.92877356e+00     -1.04865919e+00     
H    6.42022557e-01      -2.93729819e+00     -1.83278988e+00     
O    -4.35309235e+00     1.12252623e+00      6.86027212e-01      
H    -4.67406411e+00     1.32418642e+00      1.56655638e+00      
H    -4.73589016e+00     2.68508144e-01      4.49984457e-01      
O    -4.63244530e+00     -1.96625106e+00     2.52697460e+00      
H    -4.97481720e+00     -2.06851013e+00     1.62822367e+00      
H    -5.05144157e+00     -2.63688117e+00     3.07371101e+00      
O    -5.02060532e+00     -1.53645420e+00     -2.04383224e-01     
H    -5.64045577e+00     -1.81308407e+00     -8.84223466e-01     
H    -4.14282419e+00     -1.70774194e+00     -5.59098341e-01     
O    2.51813333e+00      1.26073999e+00      4.25181193e-01      
H    2.65793952e+00      2.20740247e+00      5.00048054e-01      
H    3.39331328e+00      8.83707335e-01      3.10222271e-01      
29
603.403003
N    3.62246005e-02      -1.78178413e-03     5.67654971e-02      
H    7.09801793e-02      -8.57436684e-01     -5.36529017e-01     
H    9.58000841e-01      4.73158927e-01      6.19477704e-02      
H    -6.96178753e-01     6.53695820e-01      -3.04600390e-01     
C    -3.16475649e-01     -3.65321560e-01     1.44194829e+00      
H    4.20281248e-01      -1.05289317e+00     1.84673454e+00      
H    -3.42303841e-01     5.31546355e-01      2.05319691e+00      
C    -1.68144100e+00     -1.03068835e+00     1.41362658e+00      
O    -2.20268287e+00     -1.42786505e+00     3.86561147e-01      
O    -2.17542497e+00     -1.11231447e+00     2.62947435e+00      
H    -3.10739611e+00     -1.49729807e+00     2.58445796e+00      
O    -1.92782387e+00     1.80220841e+00      -3.98370341e-01     
H    -2.82086122e+00     1.62642635e+00      -5.11306236e-02     
H    -2.00915031e+00     2.54715373e+00      -9.95686744e-01     
O    1.89297240e-01      -2.51607760e+00     -1.09739876e+00     
H    -6.76953941e-01     -2.92935950e+00     -1.04897575e+00     
H    6.42536027e-01      -2.93673129e+00     -1.83271354e+00     
O    -4.35213407e+00     1.12202569e+00      6.86995088e-01      
H    -4.67318691e+00     1.32592348e+00      1.56688110e+00      
H    -4.76722924e+00     2.88047474e-01      4.34387391e-01      
O    -4.63284194e+00     -1.96625260e+00     2.52628712e+00      
H    -4.97498230e+00     -2.07674651e+00     1.62855993e+00      
H    -5.04747371e+00     -2.63436719e+00     3.07941991e+00      
O    -5.01872346e+00     -1.53658132e+00     -2.04048008e-01     
H    -5.64684005e+00     -1.80134513e+00     -8.81072224e-01     
H    -4.14573133e+00     -1.72461134e+00     -5.61714289e-01     
O    2.51810323e+00      1.26073349e+00      4.25188987e-01      
H    2.65795002e+00      2.20739775e+00      4.99913416e-01      
H    3.39324454e+00      8.83640947e-01      3.10154865e-01      
29
603.403003
N    3.62477219e-02      -1.75917452e-03     5.67778638e-02      
H    7.09779477e-02      -8.57385916e-01     -5.36548680e-01     
H    9.58032201e-01      4.73160744e-01      6.20092907e-02      
H    -6.96162678e-01     6.53721552e-01      -3.04574578e-01     
C    -3.16496922e-01     -3.65396935e-01     1.44194164e+00      
H    4.20512706e-01      -1.05263521e+00     1.84685041e+00      
H    -3.42686509e-01     5.31563686e-01      2.05304873e+00      
C    -1.68136065e+00     -1.03084917e+00     1.41362022e+00      
O    -2.20278195e+00     -1.42777515e+00     3.86567575e-01      
O    -2.17533803e+00     -1.11227808e+00     2.62953410e+00      
H    -3.10752203e+00     -1.49671163e+00     2.58426877e+00      
O    -1.92786214e+00     1.80231831e+00      -3.98224382e-01     
H    -2.82180397e+00     1.62436788e+00      -5.43788319e-02     
H    -2.00859922e+00     2.54698927e+00      -9.95970202e-01     
O    1.89275210e-01      -2.51607940e+00     -1.09739172e+00     
H    -6.76907065e-01     -2.92950598e+00     -1.04905489e+00     
H    6.42664394e-01      -2.93658957e+00     -1.83269445e+00     
O    -4.35189451e+00     1.12190056e+00      6.87237057e-01      
H    -4.67296761e+00     1.32635774e+00      1.56696228e+00      
H    -4.77506401e+00     2.92932307e-01      4.30488124e-01      
O    -4.63294109e+00     -1.96625298e+00     2.52611525e+00      
H    -4.97502358e+00     -2.07880560e+00     1.62864400e+00      
H    -5.04648175e+00     -2.63373869e+00     3.08084714e+00      
O    -5.01825299e+00     -1.53661309e+00     -2.03964204e-01     
H    -5.64843612e+00     -1.79841039e+00     -8.80284414e-01     
H    -4.14645812e+00     -1.72882869e+00     -5.62368276e-01     
O    2.51809570e+00      1.26073186e+00      4.25190936e-01      
H    2.65795265e+00      2.20739657e+00      4.99879756e-01      
H    3.39322735e+00      8.83624350e-01      3.10138014e-01      
29
603.403003
N    3.62708432e-02      -1.73656491e-03     5.67902304e-02      
H    7.09757161e-02      -8.57335148e-01     -5.36568343e-01     
H    9.58063560e-01      4.73162560e-01      6.20708110e-02      
H    -6.96146603e-01     6.53747283e-01      -3.04548766e-01     
C    -3.16518194e-01     -3.65472309e-01     1.44193500e+00      
H    4.20744164e-01      -1.05237724e+00     1.84696629e+00      
H    -3.43069176e-01     5.31581017e-01      2.05290055e+00      
C    -1.68128029e+00     -1.03100999e+00     1.41361386e+00      
O    -2.20288102e+00     -1.42768524e+00     3.86574003e-01      
O    -2.17525110e+00     -1.11224169e+00     2.62959386e+00      
H    -3.10764796e+00     -1.49612520e+00     2.58407957e+00      
O    -1.92790041e+00     1.80242820e+00      -3.98078422e-01     
H    -2.82274671e+00     1.62230941e+00      -5.76270401e-02     
H    -2.00804814e+00     2.54682481e+00      -9.96253660e-01     
O    1.89253180e-01      -2.51608119e+00     -1.09738468e+00     
H    -6.76860189e-01     -2.92965246e+00     -1.04913403e+00     
H    6.42792762e-01      -2.93644784e+00     -1.83267537e+00     
O    -4.35165494e+00     1.12177542e+00      6.87479026e-01      
H    -4.67274831e+00     1.32679200e+00      1.56704346e+00      
H    -4.78289879e+00     2.97817140e-01      4.26588857e-01      
O    -4.63304025e+00     -1.96625337e+00     2.52594339e+00      
H    -4.97506485e+00     -2.08086470e+00     1.62872807e+00      
H    -5.04548978e+00     -2.63311020e+00     3.08227436e+00      
O    -5.01778253e+00     -1.53664487e+00     -2.03880400e-01     
H    -5.65003218e+00     -1.79547566e+00     -8.79496604e-01     
H    -4.14718490e+00     -1.73304603e+00     -5.63022263e-01     
O    2.51808817e+00      1.26073023e+00      4.25192885e-01      
H    2.65795528e+00      2.20739539e+00      4.99846097e-01      
H    3.39321016e+00      8.83607753e-01      3.10121162e-01      
29
603.403003
N    3.63170860e-02      -1.69134570e-03     5.68149638e-02      
H    7.09712530e-02      -8.57233612e-01     -5.36607669e-01     
H    9.58126280e-01      4.73166193e-01      6.21938517e-02      
H    -6.96114453e-01     6.53798747e-01      -3.04497143e-01     
C    -3.16560740e-01     -3.65623058e-01     1.44192171e+00      
H    4.21207079e-01      -1.05186130e+00     1.84719805e+00      
H    -3.43834511e-01     5.31615680e-01      2.05260420e+00      
C    -1.68111957e+00     -1.03133162e+00     1.41360114e+00      
O    -2.20307917e+00     -1.42750544e+00     3.86586860e-01      
O    -2.17507724e+00     -1.11216892e+00     2.62971336e+00      
H    -3.10789982e+00     -1.49495233e+00     2.58370119e+00      
O    -1.92797696e+00     1.80264799e+00      -3.97786504e-01     
H    -2.82463220e+00     1.61819246e+00      -6.41234565e-02     
H    -2.00694598e+00     2.54649588e+00      -9.96820577e-01     
O    1.89209121e-01      -2.51608478e+00     -1.09737061e+00     
H    -6.76766437e-01     -2.92994543e+00     -1.04929231e+00     
H    6.43049497e-01      -2.93616439e+00     -1.83263720e+00     
O    -4.35117580e+00     1.12152515e+00      6.87962965e-01      
H    -4.67230971e+00     1.32766053e+00      1.56720582e+00      
H    -4.79856833e+00     3.07586805e-01      4.18790324e-01      
O    -4.63323857e+00     -1.96625414e+00     2.52559965e+00      
H    -4.97514740e+00     -2.08498289e+00     1.62889620e+00      
H    -5.04350585e+00     -2.63185321e+00     3.08512881e+00      
O    -5.01684160e+00     -1.53670843e+00     -2.03712792e-01     
H    -5.65322432e+00     -1.78960619e+00     -8.77920983e-01     
H    -4.14863847e+00     -1.74148073e+00     -5.64330237e-01     
O    2.51807312e+00      1.26072698e+00      4.25196782e-01      
H    2.65796053e+00      2.20739303e+00      4.99778777e-01      
H    3.39317579e+00      8.83574559e-01      3.10087459e-01      
29
603.403003
N    3.63633287e-02      -1.64612649e-03     5.68396971e-02      
H    7.09667898e-02      -8.57132076e-01     -5.36646994e-01     
H    9.58188999e-01      4.73169826e-01      6.23168923e-02      
H    -6.96082303e-01     6.53850211e-01      -3.04445519e-01     
C    -3.16603286e-01     -3.65773807e-01     1.44190841e+00      
H    4.21669995e-01      -1.05134536e+00     1.84742980e+00      
H    -3.44599846e-01     5.31650343e-01      2.05230785e+00      
C    -1.68095886e+00     -1.03165326e+00     1.41358842e+00      
O    -2.20327733e+00     -1.42732564e+00     3.86599716e-01      
O    -2.17490338e+00     -1.11209614e+00     2.62983287e+00      
H    -3.10815167e+00     -1.49377946e+00     2.58332281e+00      
O    -1.92805351e+00     1.80286778e+00      -3.97494586e-01     
H    -2.82651769e+00     1.61407552e+00      -7.06198730e-02     
H    -2.00584381e+00     2.54616696e+00      -9.97387494e-01     
O    1.89165061e-01      -2.51608837e+00     -1.09735653e+00     
H    -6.76672684e-01     -2.93023839e+00     -1.04945059e+00     
H    6.43306231e-01      -2.93588095e+00     -1.83259903e+00     
O    -4.35069667e+00     1.12127488e+00      6.88446903e-01      
H    -4.67187111e+00     1.32852905e+00      1.56736818e+00      
H    -4.81423787e+00     3.17356471e-01      4.10991791e-01      
O    -4.63343688e+00     -1.96625491e+00     2.52525591e+00      
H    -4.97522995e+00     -2.08910107e+00     1.62906434e+00      
H    -5.04152192e+00     -2.63059621e+00     3.08798326e+00      
O    -5.01590066e+00     -1.53677198e+00     -2.03545185e-01     
H    -5.65641646e+00     -1.78373672e+00     -8.76345363e-01     
H    -4.15009204e+00     -1.74991543e+00     -5.65638211e-01     
O    2.51805806e+00      1.26072372e+00      4.25200680e-01      
H    2.65796578e+00      2.20739067e+00      4.99711458e-01      
H    3.39314142e+00      8.83541365e-01      3.10053756e-01      
29
603.403003
N    3.64095714e-02      -1.60090728e-03     5.68644304e-02      
H    7.09623267e-02      -8.57030540e-01     -5.36686320e-01     
H    9.58251718e-01      4.73173459e-01      6.24399330e-02      
H    -6.96050153e-01     6.53901675e-01      -3.04393895e-01     
C    -3.16645832e-01     -3.65924556e-01     1.44189512e+00      
H    4.22132910e-01      -1.05082943e+00     1.84766156e+00      
H    -3.45365181e-01     5.31685006e-01      2.05201149e+00      
C    -1.68079814e+00     -1.03197489e+00     1.41357570e+00      
O    -2.20347548e+00     -1.42714583e+00     3.86612573e-01      
O    -2.17472951e+00     -1.11202337e+00     2.62995238e+00      
H    -3.10840353e+00     -1.49260659e+00     2.58294442e+00      
O    -1.92813005e+00     1.80308757e+00      -3.97202667e-01     
H    -2.82840318e+00     1.60995857e+00      -7.71162894e-02     
H    -2.00474165e+00     2.54583803e+00      -9.97954410e-01     
O    1.89121002e-01      -2.51609196e+00     -1.09734245e+00     
H    -6.76578932e-01     -2.93053136e+00     -1.04960887e+00     
H    6.43562966e-01      -2.93559750e+00     -1.83256086e+00     
O    -4.35021753e+00     1.12102462e+00      6.88930841e-01      
H    -4.67143251e+00     1.32939758e+00      1.56753054e+00      
H    -4.82990741e+00     3.27126136e-01      4.03193257e-01      
O    -4.63363520e+00     -1.96625568e+00     2.52491217e+00      
H    -4.97531250e+00     -2.09321926e+00     1.62923247e+00      
H    -5.03953799e+00     -2.62933922e+00     3.09083772e+00      
O    -5.01495973e+00     -1.53683554e+00     -2.03377577e-01     
H    -5.65960859e+00     -1.77786725e+00     -8.74769742e-01     
H    -4.15154561e+00     -1.75835013e+00     -5.66946184e-01     
O    2.51804301e+00      1.26072047e+00      4.25204577e-01      
H    2.65797104e+00      2.20738831e+00      4.99644139e-01      
H    3.39310704e+00      8.83508171e-01      3.10020053e-01      
29
603.403003
N    3.64558141e-02      -1.55568806e-03     5.68891637e-02      
H    7.09578636e-02      -8.56929004e-01     -5.36725646e-01     
H    9.58314437e-01      4.73177093e-01      6.25629736e-02      
H    -6.96018003e-01     6.53953138e-01      -3.04342271e-01     
C    -3.16688377e-01     -3.66075305e-01     1.44188183e+00      
H    4.22595826e-01      -1.05031349e+00     1.84789331e+00      
H    -3.46130516e-01     5.31719668e-01      2.05171514e+00      
C    -1.68063743e+00     -1.03229652e+00     1.41356298e+00      
O    -2.20367363e+00     -1.42696603e+00     3.86625429e-01      
O    -2.17455565e+00     -1.11195060e+00     2.63007189e+00      
H    -3.10865538e+00     -1.49143372e+00     2.58256604e+00      
O    -1.92820660e+00     1.80330737e+00      -3.96910749e-01     
H    -2.83028868e+00     1.60584162e+00      -8.36127059e-02     
H    -2.00363949e+00     2.54550911e+00      -9.98521327e-01     
O    1.89076942e-01      -2.51609555e+00     -1.09732837e+00     
H    -6.76485180e-01     -2.93082432e+00     -1.04976715e+00     
H    6.43819701e-01      -2.93531405e+00     -1.83252268e+00     
O    -4.34973840e+00     1.12077435e+00      6.89414779e-01      
H    -4.67099391e+00     1.33026610e+00      1.56769290e+00      
H    -4.84557696e+00     3.36895802e-01      3.95394724e-01      
O    -4.63383352e+00     -1.96625645e+00     2.52456844e+00      
H    -4.97539505e+00     -2.09733745e+00     1.62940061e+00      
H    -5.03755406e+00     -2.62808223e+00     3.09369217e+00      
O    -5.01401880e+00     -1.53689909e+00     -2.03209969e-01     
H    -5.66280073e+00     -1.77199778e+00     -8.73194121e-01     
H    -4.15299919e+00     -1.76678482e+00     -5.68254158e-01     
O    2.51802795e+00      1.26071722e+00      4.25208475e-01      
H    2.65797629e+00      2.20738595e+00      4.99576820e-01      
H    3.39307267e+00      8.83474977e-01      3.09986350e-01      
29
603.403003
N    3.65482995e-02      -1.46524964e-03     5.69386304e-02      
H    7.09489373e-02      -8.56725932e-01     -5.36804298e-01     
H    9.58439876e-01      4.73184359e-01      6.28090549e-02      
H    -6.95953703e-01     6.54056066e-01      -3.04239024e-01     
C    -3.16773469e-01     -3.66376803e-01     1.44185525e+00      
H    4.23521657e-01      -1.04928162e+00     1.84835682e+00      
H    -3.47661186e-01     5.31788994e-01      2.05112243e+00      
C    -1.68031600e+00     -1.03293979e+00     1.41353754e+00      
O    -2.20406993e+00     -1.42660642e+00     3.86651142e-01      
O    -2.17420792e+00     -1.11180505e+00     2.63031090e+00      
H    -3.10915910e+00     -1.48908797e+00     2.58180928e+00      
O    -1.92835970e+00     1.80374695e+00      -3.96326912e-01     
H    -2.83405966e+00     1.59760773e+00      -9.66055388e-02     
H    -2.00143516e+00     2.54485126e+00      -9.99655160e-01     
O    1.88988823e-01      -2.51610274e+00     -1.09730022e+00     
H    -6.76297676e-01     -2.93141025e+00     -1.05008371e+00     
H    6.44333171e-01      -2.93474715e+00     -1.83244634e+00     
O    -4.34878013e+00     1.12027381e+00      6.90382656e-01      
H    -4.67011670e+00     1.33200315e+00      1.56801762e+00      
H    -4.87691604e+00     3.56435133e-01      3.79797657e-01      
O    -4.63423015e+00     -1.96625799e+00     2.52388096e+00      
H    -4.97556015e+00     -2.10557383e+00     1.62973688e+00      
H    -5.03358620e+00     -2.62556825e+00     3.09940107e+00      
O    -5.01213694e+00     -1.53702620e+00     -2.02874753e-01     
H    -5.66918501e+00     -1.76025883e+00     -8.70042880e-01     
H    -4.15590633e+00     -1.78365422e+00     -5.70870106e-01     
O    2.51799784e+00      1.26071071e+00      4.25216270e-01      
H    2.65798680e+00      2.20738123e+00      4.99442181e-01      
H    3.39300392e+00      8.83408589e-01      3.09918944e-01      
