29
586.589462
N    3.07298547e-02      -1.38131574e-02     6.46480856e-02      
H    4.16144763e-03      -8.66891147e-01     -5.36032114e-01     
H    9.82525192e-01      4.02369925e-01      6.41709768e-02      
H    -6.61224566e-01     6.92507731e-01      -2.86589900e-01     
C    -3.35640367e-01     -3.62406811e-01     1.44219561e+00      
H    3.45260269e-01      -1.12675101e+00     1.82117073e+00      
H    -2.82164648e-01     5.15908427e-01      2.08181444e+00      
C    -1.70604455e+00     -9.89149117e-01     1.40406397e+00      
O    -2.18556319e+00     -1.43993493e+00     3.75591234e-01      
O    -2.15113528e+00     -1.11694736e+00     2.63791948e+00      
H    -3.08081652e+00     -1.50869801e+00     2.61777274e+00      
O    -1.92946236e+00     1.80104094e+00      -3.97682766e-01     
H    -2.82473883e+00     1.63024826e+00      -5.38910067e-02     
H    -2.00480425e+00     2.54191967e+00      -1.00100266e+00     
O    1.92309031e-01      -2.51515120e+00     -1.09759087e+00     
H    -6.84111345e-01     -2.90792400e+00     -1.05035981e+00     
H    6.37242974e-01      -2.95056009e+00     -1.82950493e+00     
O    -4.35263809e+00     1.12313306e+00      6.86532736e-01      
H    -4.67259771e+00     1.32173324e+00      1.56814467e+00      
H    -4.75192911e+00     2.79743952e-01      4.39624771e-01      
O    -4.63793062e+00     -1.96455691e+00     2.52437276e+00      
H    -4.95039735e+00     -2.11144619e+00     1.61979892e+00      
H    -5.04014237e+00     -2.63905960e+00     3.07964229e+00      
O    -5.02133617e+00     -1.53505981e+00     -2.03542475e-01     
H    -5.63666325e+00     -1.80644849e+00     -8.89842553e-01     
H    -4.14304500e+00     -1.73240317e+00     -5.44104548e-01     
O    2.51729012e+00      1.26394220e+00      4.25685936e-01      
H    2.67460211e+00      2.20747860e+00      5.04189425e-01      
H    3.38517344e+00      8.71688332e-01      3.03638659e-01      
29
586.589462
N    3.20919805e-02      -1.08166189e-02     6.26712552e-02      
H    2.08672463e-02      -8.64552915e-01     -5.36146508e-01     
H    9.76378424e-01      4.20066268e-01      6.35844150e-02      
H    -6.69971150e-01     6.82791888e-01      -2.91105428e-01     
C    -3.30838551e-01     -3.63097811e-01     1.44213710e+00      
H    3.63899785e-01      -1.10841554e+00     1.82750374e+00      
H    -2.97008113e-01     5.19809243e-01      2.07473415e+00      
C    -1.69993384e+00     -9.99453517e-01     1.40645780e+00      
O    -2.18979357e+00     -1.43696241e+00     3.78330498e-01      
O    -2.15725117e+00     -1.11580733e+00     2.63577832e+00      
H    -3.08739845e+00     -1.50614124e+00     2.60953864e+00      
O    -1.92903360e+00     1.80127786e+00      -3.97927639e-01     
H    -2.82329806e+00     1.63032202e+00      -5.15768068e-02     
H    -2.00616631e+00     2.54331042e+00      -9.99531952e-01     
O    1.91567098e-01      -2.51538190e+00     -1.09754636e+00     
H    -6.82345432e-01     -2.91320963e+00     -1.04997423e+00     
H    6.38502054e-01      -2.94717375e+00     -1.83031663e+00     
O    -4.35263187e+00     1.12291879e+00      6.86527340e-01      
H    -4.67285466e+00     1.32256367e+00      1.56778819e+00      
H    -4.75183675e+00     2.79377417e-01      4.40265060e-01      
O    -4.63660887e+00     -1.96498064e+00     2.52493728e+00      
H    -4.95652295e+00     -2.10174172e+00     1.62194714e+00      
H    -5.04247118e+00     -2.63820075e+00     3.07887308e+00      
O    -5.02091822e+00     -1.53542429e+00     -2.03710760e-01     
H    -5.63840942e+00     -1.80664002e+00     -8.88043876e-01     
H    -4.14335319e+00     -1.72834654e+00     -5.48179989e-01     
O    2.51749716e+00      1.26314084e+00      4.25560725e-01      
H    2.67043778e+00      2.20745898e+00      5.03137253e-01      
H    3.38719980e+00      8.74684784e-01      3.05276136e-01      
29
586.589462
N    3.27730434e-02      -9.31834962e-03     6.16828399e-02      
H    2.92201457e-02      -8.63383800e-01     -5.36203705e-01     
H    9.73305040e-01      4.28914439e-01      6.32911341e-02      
H    -6.74344443e-01     6.77933966e-01      -2.93363193e-01     
C    -3.28437643e-01     -3.63443311e-01     1.44210785e+00      
H    3.73219543e-01      -1.09924780e+00     1.83067025e+00      
H    -3.04429845e-01     5.21759651e-01      2.07119400e+00      
C    -1.69687849e+00     -1.00460572e+00     1.40765472e+00      
O    -2.19190876e+00     -1.43547615e+00     3.79700130e-01      
O    -2.16030911e+00     -1.11523731e+00     2.63470774e+00      
H    -3.09068942e+00     -1.50486286e+00     2.60542159e+00      
O    -1.92881922e+00     1.80139632e+00      -3.98050076e-01     
H    -2.82257767e+00     1.63035890e+00      -5.04197069e-02     
H    -2.00684733e+00     2.54400579e+00      -9.98796598e-01     
O    1.91196131e-01      -2.51549725e+00     -1.09752411e+00     
H    -6.81462476e-01     -2.91585245e+00     -1.04978143e+00     
H    6.39131593e-01      -2.94548058e+00     -1.83072247e+00     
O    -4.35262876e+00     1.12281165e+00      6.86524641e-01      
H    -4.67298313e+00     1.32297888e+00      1.56760995e+00      
H    -4.75179058e+00     2.79194149e-01      4.40585204e-01      
O    -4.63594799e+00     -1.96519251e+00     2.52521955e+00      
H    -4.95958575e+00     -2.09688949e+00     1.62302125e+00      
H    -5.04363559e+00     -2.63777132e+00     3.07848848e+00      
O    -5.02070925e+00     -1.53560654e+00     -2.03794903e-01     
H    -5.63928250e+00     -1.80673578e+00     -8.87144537e-01     
H    -4.14350728e+00     -1.72631822e+00     -5.50217710e-01     
O    2.51760068e+00      1.26274016e+00      4.25498119e-01      
H    2.66835561e+00      2.20744917e+00      5.02611166e-01      
H    3.38821299e+00      8.76183010e-01      3.06094875e-01      
29
586.589462
N    3.34541063e-02      -7.82008037e-03     6.06944247e-02      
H    3.75730450e-02      -8.62214684e-01     -5.36260903e-01     
H    9.70231657e-01      4.37762610e-01      6.29978533e-02      
H    -6.78717735e-01     6.73076044e-01      -2.95620957e-01     
C    -3.26036735e-01     -3.63788811e-01     1.44207859e+00      
H    3.82539301e-01      -1.09008006e+00     1.83383675e+00      
H    -3.11851577e-01     5.23710059e-01      2.06765385e+00      
C    -1.69382313e+00     -1.00975792e+00     1.40885164e+00      
O    -2.19402395e+00     -1.43398989e+00     3.81069762e-01      
O    -2.16336705e+00     -1.11466730e+00     2.63363716e+00      
H    -3.09398038e+00     -1.50358448e+00     2.60130454e+00      
O    -1.92860484e+00     1.80151478e+00      -3.98172512e-01     
H    -2.82185728e+00     1.63039578e+00      -4.92626069e-02     
H    -2.00752836e+00     2.54470116e+00      -9.98061243e-01     
O    1.90825165e-01      -2.51561260e+00     -1.09750186e+00     
H    -6.80579519e-01     -2.91849526e+00     -1.04958864e+00     
H    6.39761133e-01      -2.94378742e+00     -1.83112832e+00     
O    -4.35262565e+00     1.12270451e+00      6.86521943e-01      
H    -4.67311161e+00     1.32339409e+00      1.56743170e+00      
H    -4.75174440e+00     2.79010881e-01      4.40905348e-01      
O    -4.63528712e+00     -1.96540437e+00     2.52550181e+00      
H    -4.96264855e+00     -2.09203726e+00     1.62409536e+00      
H    -5.04480000e+00     -2.63734189e+00     3.07810387e+00      
O    -5.02050028e+00     -1.53578878e+00     -2.03879046e-01     
H    -5.64015558e+00     -1.80683155e+00     -8.86245199e-01     
H    -4.14366138e+00     -1.72428991e+00     -5.52255431e-01     
O    2.51770420e+00      1.26233947e+00      4.25435513e-01      
H    2.66627344e+00      2.20743935e+00      5.02085080e-01      
H    3.38922617e+00      8.77681236e-01      3.06913613e-01      
29
586.589462
N    3.41351691e-02      -6.32181111e-03     5.97060095e-02      
H    4.59259444e-02      -8.61045568e-01     -5.36318100e-01     
H    9.67158273e-01      4.46610781e-01      6.27045724e-02      
H    -6.83091027e-01     6.68218122e-01      -2.97878721e-01     
C    -3.23635827e-01     -3.64134311e-01     1.44204934e+00      
H    3.91859059e-01      -1.08091232e+00     1.83700326e+00      
H    -3.19273309e-01     5.25660468e-01      2.06411370e+00      
C    -1.69076778e+00     -1.01491012e+00     1.41004855e+00      
O    -2.19613914e+00     -1.43250363e+00     3.82439394e-01      
O    -2.16642500e+00     -1.11409728e+00     2.63256658e+00      
H    -3.09727135e+00     -1.50230609e+00     2.59718749e+00      
O    -1.92839046e+00     1.80163324e+00      -3.98294949e-01     
H    -2.82113689e+00     1.63043266e+00      -4.81055070e-02     
H    -2.00820939e+00     2.54539654e+00      -9.97325889e-01     
O    1.90454198e-01      -2.51572796e+00     -1.09747960e+00     
H    -6.79696563e-01     -2.92113808e+00     -1.04939585e+00     
H    6.40390673e-01      -2.94209425e+00     -1.83153417e+00     
O    -4.35262254e+00     1.12259737e+00      6.86519245e-01      
H    -4.67324008e+00     1.32380931e+00      1.56725346e+00      
H    -4.75169823e+00     2.78827613e-01      4.41225492e-01      
O    -4.63462624e+00     -1.96561624e+00     2.52578407e+00      
H    -4.96571135e+00     -2.08718502e+00     1.62516947e+00      
H    -5.04596441e+00     -2.63691246e+00     3.07771927e+00      
O    -5.02029131e+00     -1.53597103e+00     -2.03963188e-01     
H    -5.64102866e+00     -1.80692731e+00     -8.85345860e-01     
H    -4.14381547e+00     -1.72226159e+00     -5.54293152e-01     
O    2.51780772e+00      1.26193879e+00      4.25372907e-01      
H    2.66419127e+00      2.20742954e+00      5.01558994e-01      
H    3.39023936e+00      8.79179463e-01      3.07732352e-01      
29
586.589462
N    3.48162320e-02      -4.82354185e-03     5.87175943e-02      
H    5.42788437e-02      -8.59876452e-01     -5.36375297e-01     
H    9.64084889e-01      4.55458952e-01      6.24112915e-02      
H    -6.87464319e-01     6.63360200e-01      -3.00136485e-01     
C    -3.21234919e-01     -3.64479811e-01     1.44202009e+00      
H    4.01178817e-01      -1.07174459e+00     1.84016977e+00      
H    -3.26695042e-01     5.27610876e-01      2.06057356e+00      
C    -1.68771243e+00     -1.02006232e+00     1.41124547e+00      
O    -2.19825434e+00     -1.43101737e+00     3.83809026e-01      
O    -2.16948294e+00     -1.11352727e+00     2.63149600e+00      
H    -3.10056232e+00     -1.50102771e+00     2.59307044e+00      
O    -1.92817608e+00     1.80175170e+00      -3.98417386e-01     
H    -2.82041651e+00     1.63046954e+00      -4.69484071e-02     
H    -2.00889042e+00     2.54609191e+00      -9.96590535e-01     
O    1.90083232e-01      -2.51584331e+00     -1.09745735e+00     
H    -6.78813606e-01     -2.92378090e+00     -1.04920306e+00     
H    6.41020213e-01      -2.94040108e+00     -1.83194002e+00     
O    -4.35261943e+00     1.12249024e+00      6.86516547e-01      
H    -4.67336856e+00     1.32422452e+00      1.56707522e+00      
H    -4.75165205e+00     2.78644345e-01      4.41545636e-01      
O    -4.63396537e+00     -1.96582810e+00     2.52606633e+00      
H    -4.96877415e+00     -2.08233279e+00     1.62624358e+00      
H    -5.04712882e+00     -2.63648304e+00     3.07733467e+00      
O    -5.02008233e+00     -1.53615327e+00     -2.04047331e-01     
H    -5.64190175e+00     -1.80702307e+00     -8.84446522e-01     
H    -4.14396957e+00     -1.72023327e+00     -5.56330873e-01     
O    2.51791124e+00      1.26153811e+00      4.25310302e-01      
H    2.66210911e+00      2.20741973e+00      5.01032908e-01      
H    3.39125254e+00      8.80677689e-01      3.08551091e-01      
29
586.589462
N    3.51567635e-02      -4.07440722e-03     5.82233866e-02      
H    5.84552934e-02      -8.59291894e-01     -5.36403895e-01     
H    9.62548198e-01      4.59883037e-01      6.22646510e-02      
H    -6.89650965e-01     6.60931239e-01      -3.01265368e-01     
C    -3.20034465e-01     -3.64652561e-01     1.44200546e+00      
H    4.05838696e-01      -1.06716072e+00     1.84175302e+00      
H    -3.30405908e-01     5.28586080e-01      2.05880348e+00      
C    -1.68618475e+00     -1.02263842e+00     1.41184393e+00      
O    -2.19931193e+00     -1.43027424e+00     3.84493842e-01      
O    -2.17101191e+00     -1.11324226e+00     2.63096071e+00      
H    -3.10220780e+00     -1.50038852e+00     2.59101191e+00      
O    -1.92806889e+00     1.80181093e+00      -3.98478604e-01     
H    -2.82005631e+00     1.63048798e+00      -4.63698571e-02     
H    -2.00923093e+00     2.54643960e+00      -9.96222858e-01     
O    1.89897749e-01      -2.51590098e+00     -1.09744622e+00     
H    -6.78372128e-01     -2.92510231e+00     -1.04910666e+00     
H    6.41334982e-01      -2.93955449e+00     -1.83214294e+00     
O    -4.35261788e+00     1.12243667e+00      6.86515197e-01      
H    -4.67343280e+00     1.32443213e+00      1.56698610e+00      
H    -4.75162896e+00     2.78552711e-01      4.41705708e-01      
O    -4.63363493e+00     -1.96593403e+00     2.52620747e+00      
H    -4.97030555e+00     -2.07990667e+00     1.62678064e+00      
H    -5.04771103e+00     -2.63626832e+00     3.07714237e+00      
O    -5.01997785e+00     -1.53624439e+00     -2.04089402e-01     
H    -5.64233829e+00     -1.80707095e+00     -8.83996853e-01     
H    -4.14404662e+00     -1.71921911e+00     -5.57349734e-01     
O    2.51796300e+00      1.26133776e+00      4.25278999e-01      
H    2.66106802e+00      2.20741483e+00      5.00769864e-01      
H    3.39175913e+00      8.81426802e-01      3.08960460e-01      
29
586.589462
N    3.54972949e-02      -3.32527260e-03     5.77291790e-02      
H    6.26317431e-02      -8.58707336e-01     -5.36432494e-01     
H    9.61011506e-01      4.64307123e-01      6.21180106e-02      
H    -6.91837611e-01     6.58502278e-01      -3.02394250e-01     
C    -3.18834011e-01     -3.64825311e-01     1.44199083e+00      
H    4.10498575e-01      -1.06257685e+00     1.84333627e+00      
H    -3.34116774e-01     5.29561284e-01      2.05703341e+00      
C    -1.68465707e+00     -1.02521452e+00     1.41244238e+00      
O    -2.20036953e+00     -1.42953111e+00     3.85178658e-01      
O    -2.17254089e+00     -1.11295725e+00     2.63042542e+00      
H    -3.10385328e+00     -1.49974932e+00     2.58895339e+00      
O    -1.92796170e+00     1.80187016e+00      -3.98539822e-01     
H    -2.81969612e+00     1.63050642e+00      -4.57913071e-02     
H    -2.00957144e+00     2.54678729e+00      -9.95855181e-01     
O    1.89712265e-01      -2.51595866e+00     -1.09743509e+00     
H    -6.77930650e-01     -2.92642371e+00     -1.04901026e+00     
H    6.41649752e-01      -2.93870791e+00     -1.83234586e+00     
O    -4.35261632e+00     1.12238310e+00      6.86513848e-01      
H    -4.67349703e+00     1.32463974e+00      1.56689698e+00      
H    -4.75160588e+00     2.78461077e-01      4.41865780e-01      
O    -4.63330449e+00     -1.96603997e+00     2.52634860e+00      
H    -4.97183695e+00     -2.07748055e+00     1.62731769e+00      
H    -5.04829323e+00     -2.63605361e+00     3.07695006e+00      
O    -5.01987336e+00     -1.53633552e+00     -2.04131473e-01     
H    -5.64277483e+00     -1.80711884e+00     -8.83547183e-01     
H    -4.14412366e+00     -1.71820496e+00     -5.58368594e-01     
O    2.51801476e+00      1.26113742e+00      4.25247696e-01      
H    2.66002694e+00      2.20740992e+00      5.00506821e-01      
H    3.39226573e+00      8.82175915e-01      3.09369829e-01      
29
586.589462
N    3.68594207e-02      -3.28734084e-04     5.57523486e-02      
H    7.93375417e-02      -8.56369104e-01     -5.36546888e-01     
H    9.54864738e-01      4.82003465e-01      6.15314488e-02      
H    -7.00584195e-01     6.48786434e-01      -3.06909778e-01     
C    -3.14032195e-01     -3.65516311e-01     1.44193233e+00      
H    4.29138091e-01      -1.04424137e+00     1.84966929e+00      
H    -3.48960238e-01     5.33462100e-01      2.04995311e+00      
C    -1.67854637e+00     -1.03551892e+00     1.41483622e+00      
O    -2.20459991e+00     -1.42655859e+00     3.87917922e-01      
O    -2.17865677e+00     -1.11181723e+00     2.62828426e+00      
H    -3.11043522e+00     -1.49719256e+00     2.58071929e+00      
O    -1.92753294e+00     1.80210708e+00      -3.98784696e-01     
H    -2.81825534e+00     1.63058018e+00      -4.34771073e-02     
H    -2.01093350e+00     2.54817803e+00      -9.94384473e-01     
O    1.88970333e-01      -2.51618936e+00     -1.09739059e+00     
H    -6.76164736e-01     -2.93170935e+00     -1.04862468e+00     
H    6.42908832e-01      -2.93532157e+00     -1.83315756e+00     
O    -4.35261010e+00     1.12216882e+00      6.86508452e-01      
H    -4.67375399e+00     1.32547016e+00      1.56654050e+00      
H    -4.75151352e+00     2.78094541e-01      4.42506068e-01      
O    -4.63198275e+00     -1.96646369e+00     2.52691312e+00      
H    -4.97796255e+00     -2.06777609e+00     1.62946591e+00      
H    -5.05062205e+00     -2.63519475e+00     3.07618086e+00      
O    -5.01945542e+00     -1.53670000e+00     -2.04299759e-01     
H    -5.64452099e+00     -1.80731036e+00     -8.81748507e-01     
H    -4.14443186e+00     -1.71414832e+00     -5.62444036e-01     
O    2.51822180e+00      1.26033606e+00      4.25122484e-01      
H    2.65586260e+00      2.20739030e+00      4.99454649e-01      
H    3.39429209e+00      8.85172367e-01      3.11007307e-01      
29
586.589462
N    3.71999521e-02      4.20400544e-04      5.52581410e-02      
H    8.35139914e-02      -8.55784546e-01     -5.36575487e-01     
H    9.53328046e-01      4.86427551e-01      6.13848084e-02      
H    -7.02770841e-01     6.46357473e-01      -3.08038660e-01     
C    -3.12831741e-01     -3.65689061e-01     1.44191770e+00      
H    4.33797970e-01      -1.03965750e+00     1.85125254e+00      
H    -3.52671104e-01     5.34437304e-01      2.04818304e+00      
C    -1.67701869e+00     -1.03809502e+00     1.41543467e+00      
O    -2.20565751e+00     -1.42581546e+00     3.88602738e-01      
O    -2.18018575e+00     -1.11153222e+00     2.62774897e+00      
H    -3.11208070e+00     -1.49655336e+00     2.57866077e+00      
O    -1.92742575e+00     1.80216631e+00      -3.98845914e-01     
H    -2.81789515e+00     1.63059862e+00      -4.28985573e-02     
H    -2.01127401e+00     2.54852572e+00      -9.94016796e-01     
O    1.88784849e-01      -2.51624704e+00     -1.09737946e+00     
H    -6.75723258e-01     -2.93303075e+00     -1.04852828e+00     
H    6.43223602e-01      -2.93447499e+00     -1.83336048e+00     
O    -4.35260854e+00     1.12211525e+00      6.86507103e-01      
H    -4.67381822e+00     1.32567777e+00      1.56645138e+00      
H    -4.75149044e+00     2.78002907e-01      4.42666140e-01      
O    -4.63165231e+00     -1.96656963e+00     2.52705425e+00      
H    -4.97949395e+00     -2.06534997e+00     1.63000296e+00      
H    -5.05120425e+00     -2.63498004e+00     3.07598855e+00      
O    -5.01935093e+00     -1.53679113e+00     -2.04341830e-01     
H    -5.64495753e+00     -1.80735825e+00     -8.81298837e-01     
H    -4.14450890e+00     -1.71313417e+00     -5.63462896e-01     
O    2.51827356e+00      1.26013572e+00      4.25091181e-01      
H    2.65482152e+00      2.20738539e+00      4.99191606e-01      
H    3.39479869e+00      8.85921480e-01      3.11416676e-01      
29
586.589462
N    3.75404836e-02      1.16953517e-03      5.47639333e-02      
H    8.76904411e-02      -8.55199988e-01     -5.36604085e-01     
H    9.51791355e-01      4.90851636e-01      6.12381679e-02      
H    -7.04957487e-01     6.43928512e-01      -3.09167543e-01     
C    -3.11631287e-01     -3.65861811e-01     1.44190307e+00      
H    4.38457849e-01      -1.03507363e+00     1.85283579e+00      
H    -3.56381970e-01     5.35412508e-01      2.04641296e+00      
C    -1.67549101e+00     -1.04067112e+00     1.41603313e+00      
O    -2.20671510e+00     -1.42507233e+00     3.89287554e-01      
O    -2.18171472e+00     -1.11124721e+00     2.62721368e+00      
H    -3.11372618e+00     -1.49591417e+00     2.57660224e+00      
O    -1.92731856e+00     1.80222554e+00      -3.98907132e-01     
H    -2.81753495e+00     1.63061706e+00      -4.23200073e-02     
H    -2.01161452e+00     2.54887341e+00      -9.93649119e-01     
O    1.88599366e-01      -2.51630471e+00     -1.09736833e+00     
H    -6.75281780e-01     -2.93435216e+00     -1.04843188e+00     
H    6.43538371e-01      -2.93362840e+00     -1.83356340e+00     
O    -4.35260699e+00     1.12206168e+00      6.86505753e-01      
H    -4.67388246e+00     1.32588538e+00      1.56636226e+00      
H    -4.75146735e+00     2.77911273e-01      4.42826212e-01      
O    -4.63132187e+00     -1.96667556e+00     2.52719539e+00      
H    -4.98102535e+00     -2.06292385e+00     1.63054002e+00      
H    -5.05178646e+00     -2.63476532e+00     3.07579625e+00      
O    -5.01924645e+00     -1.53688225e+00     -2.04383901e-01     
H    -5.64539407e+00     -1.80740613e+00     -8.80849168e-01     
H    -4.14458595e+00     -1.71212001e+00     -5.64481757e-01     
O    2.51832532e+00      1.25993537e+00      4.25059878e-01      
H    2.65378043e+00      2.20738049e+00      4.98928562e-01      
H    3.39530528e+00      8.86670593e-01      3.11826045e-01      
29
586.589462
N    3.82215465e-02      2.66780443e-03      5.37755181e-02      
H    9.60433404e-02      -8.54030872e-01     -5.36661282e-01     
H    9.48717971e-01      4.99699807e-01      6.09448870e-02      
H    -7.09330779e-01     6.39070590e-01      -3.11425307e-01     
C    -3.09230379e-01     -3.66207311e-01     1.44187382e+00      
H    4.47777607e-01      -1.02590590e+00     1.85600230e+00      
H    -3.63803703e-01     5.37362916e-01      2.04287282e+00      
C    -1.67243566e+00     -1.04582332e+00     1.41723005e+00      
O    -2.20883030e+00     -1.42358607e+00     3.90657186e-01      
O    -2.18477266e+00     -1.11067720e+00     2.62614310e+00      
H    -3.11701715e+00     -1.49463579e+00     2.57248519e+00      
O    -1.92710418e+00     1.80234400e+00      -3.99029569e-01     
H    -2.81681457e+00     1.63065394e+00      -4.11629074e-02     
H    -2.01229555e+00     2.54956878e+00      -9.92913765e-01     
O    1.88228400e-01      -2.51642006e+00     -1.09734608e+00     
H    -6.74398823e-01     -2.93699498e+00     -1.04823909e+00     
H    6.44167911e-01      -2.93193523e+00     -1.83396925e+00     
O    -4.35260388e+00     1.12195455e+00      6.86503055e-01      
H    -4.67401094e+00     1.32630059e+00      1.56618402e+00      
H    -4.75142117e+00     2.77728005e-01      4.43146356e-01      
O    -4.63066100e+00     -1.96688742e+00     2.52747765e+00      
H    -4.98408815e+00     -2.05807162e+00     1.63161413e+00      
H    -5.05295087e+00     -2.63433590e+00     3.07541165e+00      
O    -5.01903747e+00     -1.53706449e+00     -2.04468044e-01     
H    -5.64626716e+00     -1.80750189e+00     -8.79949830e-01     
H    -4.14474005e+00     -1.71009169e+00     -5.66519478e-01     
O    2.51842884e+00      1.25953469e+00      4.24997273e-01      
H    2.65169827e+00      2.20737068e+00      4.98402476e-01      
H    3.39631846e+00      8.88168819e-01      3.12644784e-01      
29
586.589462
N    3.89026093e-02      4.16607369e-03      5.27871029e-02      
H    1.04396240e-01      -8.52861756e-01     -5.36718479e-01     
H    9.45644587e-01      5.08547978e-01      6.06516061e-02      
H    -7.13704071e-01     6.34212668e-01      -3.13683071e-01     
C    -3.06829471e-01     -3.66552811e-01     1.44184457e+00      
H    4.57097365e-01      -1.01673816e+00     1.85916881e+00      
H    -3.71225435e-01     5.39313325e-01      2.03933267e+00      
C    -1.66938031e+00     -1.05097552e+00     1.41842696e+00      
O    -2.21094549e+00     -1.42209981e+00     3.92026818e-01      
O    -2.18783061e+00     -1.11010718e+00     2.62507252e+00      
H    -3.12030812e+00     -1.49335740e+00     2.56836814e+00      
O    -1.92688980e+00     1.80246246e+00      -3.99152006e-01     
H    -2.81609418e+00     1.63069082e+00      -4.00058075e-02     
H    -2.01297658e+00     2.55026416e+00      -9.92178411e-01     
O    1.87857433e-01      -2.51653542e+00     -1.09732382e+00     
H    -6.73515867e-01     -2.93963780e+00     -1.04804630e+00     
H    6.44797451e-01      -2.93024206e+00     -1.83437510e+00     
O    -4.35260077e+00     1.12184741e+00      6.86500357e-01      
H    -4.67413941e+00     1.32671581e+00      1.56600578e+00      
H    -4.75137500e+00     2.77544737e-01      4.43466500e-01      
O    -4.63000012e+00     -1.96709929e+00     2.52775991e+00      
H    -4.98715095e+00     -2.05321938e+00     1.63268824e+00      
H    -5.05411528e+00     -2.63390647e+00     3.07502705e+00      
O    -5.01882850e+00     -1.53724674e+00     -2.04552186e-01     
H    -5.64714024e+00     -1.80759765e+00     -8.79050491e-01     
H    -4.14489414e+00     -1.70806337e+00     -5.68557199e-01     
O    2.51853236e+00      1.25913401e+00      4.24934667e-01      
H    2.64961610e+00      2.20736087e+00      4.97876390e-01      
H    3.39733165e+00      8.89667046e-01      3.13463523e-01      
29
586.589462
N    3.95836722e-02      5.66434294e-03      5.17986877e-02      
H    1.12749139e-01      -8.51692640e-01     -5.36775677e-01     
H    9.42571204e-01      5.17396149e-01      6.03583253e-02      
H    -7.18077363e-01     6.29354746e-01      -3.15940835e-01     
C    -3.04428563e-01     -3.66898311e-01     1.44181531e+00      
H    4.66417123e-01      -1.00757042e+00     1.86233531e+00      
H    -3.78647167e-01     5.41263733e-01      2.03579252e+00      
C    -1.66632495e+00     -1.05612772e+00     1.41962388e+00      
O    -2.21306068e+00     -1.42061355e+00     3.93396450e-01      
O    -2.19088855e+00     -1.10953717e+00     2.62400194e+00      
H    -3.12359908e+00     -1.49207902e+00     2.56425109e+00      
O    -1.92667542e+00     1.80258092e+00      -3.99274442e-01     
H    -2.81537379e+00     1.63072770e+00      -3.88487075e-02     
H    -2.01365761e+00     2.55095953e+00      -9.91443056e-01     
O    1.87486467e-01      -2.51665077e+00     -1.09730157e+00     
H    -6.72632910e-01     -2.94228061e+00     -1.04785351e+00     
H    6.45426991e-01      -2.92854890e+00     -1.83478095e+00     
O    -4.35259766e+00     1.12174027e+00      6.86497659e-01      
H    -4.67426789e+00     1.32713102e+00      1.56582753e+00      
H    -4.75132882e+00     2.77361469e-01      4.43786644e-01      
O    -4.62933925e+00     -1.96731115e+00     2.52804217e+00      
H    -4.99021375e+00     -2.04836715e+00     1.63376235e+00      
H    -5.05527969e+00     -2.63347704e+00     3.07464244e+00      
O    -5.01861953e+00     -1.53742898e+00     -2.04636329e-01     
H    -5.64801332e+00     -1.80769342e+00     -8.78151153e-01     
H    -4.14504824e+00     -1.70603506e+00     -5.70594920e-01     
O    2.51863588e+00      1.25873332e+00      4.24872061e-01      
H    2.64753393e+00      2.20735105e+00      4.97350304e-01      
H    3.39834483e+00      8.91165272e-01      3.14282261e-01      
29
586.589462
N    4.02647351e-02      7.16261220e-03      5.08102724e-02      
H    1.21102038e-01      -8.50523525e-01     -5.36832874e-01     
H    9.39497820e-01      5.26244320e-01      6.00650444e-02      
H    -7.22450656e-01     6.24496824e-01      -3.18198600e-01     
C    -3.02027655e-01     -3.67243811e-01     1.44178606e+00      
H    4.75736881e-01      -9.98402684e-01     1.86550182e+00      
H    -3.86068899e-01     5.43214141e-01      2.03225237e+00      
C    -1.66326960e+00     -1.06127992e+00     1.42082080e+00      
O    -2.21517587e+00     -1.41912729e+00     3.94766082e-01      
O    -2.19394649e+00     -1.10896715e+00     2.62293136e+00      
H    -3.12689005e+00     -1.49080064e+00     2.56013404e+00      
O    -1.92646104e+00     1.80269938e+00      -3.99396879e-01     
H    -2.81465340e+00     1.63076458e+00      -3.76916076e-02     
H    -2.01433863e+00     2.55165490e+00      -9.90707702e-01     
O    1.87115500e-01      -2.51676612e+00     -1.09727932e+00     
H    -6.71749954e-01     -2.94492343e+00     -1.04766071e+00     
H    6.46056530e-01      -2.92685573e+00     -1.83518679e+00     
O    -4.35259455e+00     1.12163313e+00      6.86494960e-01      
H    -4.67439636e+00     1.32754623e+00      1.56564929e+00      
H    -4.75128265e+00     2.77178201e-01      4.44106788e-01      
O    -4.62867837e+00     -1.96752302e+00     2.52832444e+00      
H    -4.99327655e+00     -2.04351492e+00     1.63483646e+00      
H    -5.05644410e+00     -2.63304761e+00     3.07425784e+00      
O    -5.01841056e+00     -1.53761123e+00     -2.04720472e-01     
H    -5.64888640e+00     -1.80778918e+00     -8.77251814e-01     
H    -4.14520233e+00     -1.70400674e+00     -5.72632641e-01     
O    2.51873940e+00      1.25833264e+00      4.24809455e-01      
H    2.64545176e+00      2.20734124e+00      4.96824217e-01      
H    3.39935802e+00      8.92663498e-01      3.15101000e-01      
29
586.589462
N    4.16268609e-02      1.01591507e-02      4.88334420e-02      
H    1.37807837e-01      -8.48185293e-01     -5.36947268e-01     
H    9.33351052e-01      5.43940663e-01      5.94784826e-02      
H    -7.31197240e-01     6.14780981e-01      -3.22714128e-01     
C    -2.97225839e-01     -3.67934811e-01     1.44172755e+00      
H    4.94376397e-01      -9.80067208e-01     1.87183483e+00      
H    -4.00912364e-01     5.47114957e-01      2.02517208e+00      
C    -1.65715889e+00     -1.07158432e+00     1.42321463e+00      
O    -2.21940625e+00     -1.41615477e+00     3.97505346e-01      
O    -2.20006238e+00     -1.10782712e+00     2.62079020e+00      
H    -3.13347198e+00     -1.48824387e+00     2.55189994e+00      
O    -1.92603228e+00     1.80293630e+00      -3.99641752e-01     
H    -2.81321263e+00     1.63083834e+00      -3.53774077e-02     
H    -2.01570069e+00     2.55304565e+00      -9.89236994e-01     
O    1.86373567e-01      -2.51699682e+00     -1.09723481e+00     
H    -6.69984041e-01     -2.95020906e+00     -1.04727513e+00     
H    6.47315610e-01      -2.92346939e+00     -1.83599849e+00     
O    -4.35258833e+00     1.12141886e+00      6.86489564e-01      
H    -4.67465331e+00     1.32837666e+00      1.56529281e+00      
H    -4.75119029e+00     2.76811666e-01      4.44747077e-01      
O    -4.62735662e+00     -1.96794675e+00     2.52888896e+00      
H    -4.99940215e+00     -2.03381045e+00     1.63698468e+00      
H    -5.05877291e+00     -2.63218876e+00     3.07348863e+00      
O    -5.01799261e+00     -1.53797571e+00     -2.04888757e-01     
H    -5.65063257e+00     -1.80798071e+00     -8.75453137e-01     
H    -4.14551052e+00     -1.69995011e+00     -5.76708082e-01     
O    2.51894644e+00      1.25753128e+00      4.24684244e-01      
H    2.64128743e+00      2.20732162e+00      4.95772045e-01      
H    3.40138438e+00      8.95659950e-01      3.16738477e-01      
