29
1045.469752
N    3.70341406e-02      -2.42593314e-03     5.41246649e-02      
H    7.24300188e-02      -8.51423781e-01     -5.47784958e-01     
H    9.56142814e-01      4.77675763e-01      5.70671790e-02      
H    -6.97930491e-01     6.55548127e-01      -2.99572323e-01     
C    -3.15451586e-01     -3.68372100e-01     1.44576355e+00      
H    4.22361597e-01      -1.05123951e+00     1.85638682e+00      
H    -3.47565353e-01     5.31751483e-01      2.05243101e+00      
C    -1.68154821e+00     -1.03181849e+00     1.41266321e+00      
O    -2.20352685e+00     -1.42631555e+00     3.84927556e-01      
O    -2.17985231e+00     -1.10305161e+00     2.63102662e+00      
H    -3.03025282e+00     -1.68024377e+00     2.59405260e+00      
O    -1.92782310e+00     1.80206210e+00      -3.98818512e-01     
H    -2.81910071e+00     1.63099938e+00      -4.40755615e-02     
H    -2.00969170e+00     2.54773147e+00      -9.94992941e-01     
O    1.89296532e-01      -2.51594113e+00     -1.09726792e+00     
H    -6.76405039e-01     -2.93027158e+00     -1.04810871e+00     
H    6.41749588e-01      -2.93703501e+00     -1.83294023e+00     
O    -4.35222940e+00     1.12199982e+00      6.86635050e-01      
H    -4.67858174e+00     1.32624442e+00      1.56467986e+00      
H    -4.75599375e+00     2.80149386e-01      4.42914256e-01      
O    -4.63409360e+00     -1.96208512e+00     2.52560385e+00      
H    -4.97598383e+00     -2.08327450e+00     1.62864974e+00      
H    -5.03597406e+00     -2.63837423e+00     3.08059264e+00      
O    -5.01942931e+00     -1.53616864e+00     -2.03988982e-01     
H    -5.64308326e+00     -1.80697407e+00     -8.82701919e-01     
H    -4.14473664e+00     -1.72025466e+00     -5.59017928e-01     
O    2.51811050e+00      1.26067597e+00      4.25189202e-01      
H    2.65791292e+00      2.20735924e+00      4.99948391e-01      
H    3.39336589e+00      8.83751712e-01      3.10383704e-01      
29
1045.469752
N    3.68201949e-02      -2.27620069e-03     5.47786896e-02      
H    7.20686747e-02      -8.52952391e-01     -5.44961141e-01     
H    9.56591641e-01      4.76545646e-01      5.82565666e-02      
H    -6.97500594e-01     6.55072184e-01      -3.00842246e-01     
C    -3.15696965e-01     -3.67571778e-01     1.44481306e+00      
H    4.21725781e-01      -1.05178191e+00     1.85391581e+00      
H    -3.46058641e-01     5.31691536e-01      2.05269657e+00      
C    -1.68156159e+00     -1.03145555e+00     1.41290723e+00      
O    -2.20326632e+00     -1.42674787e+00     3.85332739e-01      
O    -2.17878894e+00     -1.10538552e+00     2.63060867e+00      
H    -3.04947568e+00     -1.63480057e+00     2.59174853e+00      
O    -1.92780416e+00     1.80204373e+00      -3.98779449e-01     
H    -2.81906946e+00     1.63088536e+00      -4.42152229e-02     
H    -2.00983189e+00     2.54766927e+00      -9.95024662e-01     
O    1.89307723e-01      -2.51597435e+00     -1.09730415e+00     
H    -6.76565702e-01     -2.92997032e+00     -1.04828590e+00     
H    6.41882014e-01      -2.93702994e+00     -1.83289310e+00     
O    -4.35232535e+00     1.12206886e+00      6.86604075e-01      
H    -4.67734268e+00     1.32594705e+00      1.56518958e+00      
H    -4.75488524e+00     2.79681492e-01      4.42732173e-01      
O    -4.63373110e+00     -1.96312680e+00     2.52586060e+00      
H    -4.97571281e+00     -2.08061295e+00     1.62858525e+00      
H    -5.03934496e+00     -2.63768672e+00     3.07958584e+00      
O    -5.01948808e+00     -1.53625592e+00     -2.04045641e-01     
H    -5.64322442e+00     -1.80703420e+00     -8.82688400e-01     
H    -4.14462192e+00     -1.71923515e+00     -5.59365024e-01     
O    2.51811245e+00      1.26069117e+00      4.25188174e-01      
H    2.65792088e+00      2.20736946e+00      4.99956477e-01      
H    3.39334415e+00      8.83732319e-01      3.10334920e-01      
29
1045.469752
N    3.67132220e-02      -2.20133446e-03     5.51057020e-02      
H    7.18880026e-02      -8.53716696e-01     -5.43549233e-01     
H    9.56816054e-01      4.75980587e-01      5.88512605e-02      
H    -6.97285646e-01     6.54834213e-01      -3.01477207e-01     
C    -3.15819655e-01     -3.67171617e-01     1.44433781e+00      
H    4.21407873e-01      -1.05205311e+00     1.85268031e+00      
H    -3.45305285e-01     5.31661562e-01      2.05282935e+00      
C    -1.68156828e+00     -1.03127408e+00     1.41302924e+00      
O    -2.20313605e+00     -1.42696404e+00     3.85535331e-01      
O    -2.17825725e+00     -1.10655247e+00     2.63039970e+00      
H    -3.05908711e+00     -1.61207896e+00     2.59059650e+00      
O    -1.92779469e+00     1.80203454e+00      -3.98759917e-01     
H    -2.81905384e+00     1.63082835e+00      -4.42850537e-02     
H    -2.00990199e+00     2.54763817e+00      -9.95040523e-01     
O    1.89313319e-01      -2.51599096e+00     -1.09732226e+00     
H    -6.76646034e-01     -2.92981969e+00     -1.04837450e+00     
H    6.41948227e-01      -2.93702741e+00     -1.83286954e+00     
O    -4.35237333e+00     1.12210337e+00      6.86588587e-01      
H    -4.67672315e+00     1.32579837e+00      1.56544444e+00      
H    -4.75433098e+00     2.79447545e-01      4.42641132e-01      
O    -4.63354986e+00     -1.96364764e+00     2.52598898e+00      
H    -4.97557730e+00     -2.07928218e+00     1.62855301e+00      
H    -5.04103040e+00     -2.63734296e+00     3.07908244e+00      
O    -5.01951746e+00     -1.53629956e+00     -2.04073970e-01     
H    -5.64329500e+00     -1.80706427e+00     -8.82681641e-01     
H    -4.14456456e+00     -1.71872540e+00     -5.59538573e-01     
O    2.51811342e+00      1.26069876e+00      4.25187660e-01      
H    2.65792486e+00      2.20737457e+00      4.99960520e-01      
H    3.39333328e+00      8.83722623e-01      3.10310528e-01      
29
1045.469752
N    3.66062492e-02      -2.12646824e-03     5.54327143e-02      
H    7.17073306e-02      -8.54481001e-01     -5.42137324e-01     
H    9.57040468e-01      4.75415528e-01      5.94459543e-02      
H    -6.97070697e-01     6.54596242e-01      -3.02112169e-01     
C    -3.15942344e-01     -3.66771455e-01     1.44386257e+00      
H    4.21089965e-01      -1.05232431e+00     1.85144480e+00      
H    -3.44551930e-01     5.31631588e-01      2.05296213e+00      
C    -1.68157496e+00     -1.03109261e+00     1.41315125e+00      
O    -2.20300578e+00     -1.42718020e+00     3.85737923e-01      
O    -2.17772557e+00     -1.10771942e+00     2.63019073e+00      
H    -3.06869853e+00     -1.58935736e+00     2.58944447e+00      
O    -1.92778521e+00     1.80202536e+00      -3.98740386e-01     
H    -2.81903822e+00     1.63077134e+00      -4.43548844e-02     
H    -2.00997209e+00     2.54760707e+00      -9.95056384e-01     
O    1.89318915e-01      -2.51600757e+00     -1.09734038e+00     
H    -6.76726366e-01     -2.92966906e+00     -1.04846309e+00     
H    6.42014440e-01      -2.93702487e+00     -1.83284597e+00     
O    -4.35242130e+00     1.12213789e+00      6.86573100e-01      
H    -4.67610363e+00     1.32564968e+00      1.56569930e+00      
H    -4.75377673e+00     2.79213598e-01      4.42550090e-01      
O    -4.63336861e+00     -1.96416847e+00     2.52611735e+00      
H    -4.97544179e+00     -2.07795141e+00     1.62852077e+00      
H    -5.04271585e+00     -2.63699921e+00     3.07857905e+00      
O    -5.01954685e+00     -1.53634320e+00     -2.04102299e-01     
H    -5.64336558e+00     -1.80709433e+00     -8.82674882e-01     
H    -4.14450720e+00     -1.71821565e+00     -5.59712121e-01     
O    2.51811439e+00      1.26070636e+00      4.25187146e-01      
H    2.65792884e+00      2.20737968e+00      4.99964563e-01      
H    3.39332240e+00      8.83712926e-01      3.10286136e-01      
29
1045.469752
N    3.64992763e-02      -2.05160201e-03     5.57597267e-02      
H    7.15266585e-02      -8.55245305e-01     -5.40725416e-01     
H    9.57264881e-01      4.74850470e-01      6.00406482e-02      
H    -6.96855749e-01     6.54358270e-01      -3.02747130e-01     
C    -3.16065034e-01     -3.66371294e-01     1.44338732e+00      
H    4.20772057e-01      -1.05259551e+00     1.85020930e+00      
H    -3.43798574e-01     5.31601614e-01      2.05309491e+00      
C    -1.68158165e+00     -1.03091114e+00     1.41327326e+00      
O    -2.20287552e+00     -1.42739636e+00     3.85940515e-01      
O    -2.17719388e+00     -1.10888638e+00     2.62998176e+00      
H    -3.07830996e+00     -1.56663575e+00     2.58829244e+00      
O    -1.92777574e+00     1.80201617e+00      -3.98720854e-01     
H    -2.81902260e+00     1.63071433e+00      -4.44247151e-02     
H    -2.01004218e+00     2.54757596e+00      -9.95072245e-01     
O    1.89324511e-01      -2.51602418e+00     -1.09735849e+00     
H    -6.76806698e-01     -2.92951842e+00     -1.04855169e+00     
H    6.42080653e-01      -2.93702234e+00     -1.83282241e+00     
O    -4.35246928e+00     1.12217241e+00      6.86557612e-01      
H    -4.67548410e+00     1.32550100e+00      1.56595416e+00      
H    -4.75322247e+00     2.78979651e-01      4.42459049e-01      
O    -4.63318736e+00     -1.96468931e+00     2.52624573e+00      
H    -4.97530628e+00     -2.07662064e+00     1.62848853e+00      
H    -5.04440130e+00     -2.63665545e+00     3.07807565e+00      
O    -5.01957623e+00     -1.53638684e+00     -2.04130628e-01     
H    -5.64343617e+00     -1.80712440e+00     -8.82668123e-01     
H    -4.14444984e+00     -1.71770590e+00     -5.59885670e-01     
O    2.51811536e+00      1.26071395e+00      4.25186632e-01      
H    2.65793282e+00      2.20738478e+00      4.99968606e-01      
H    3.39331153e+00      8.83703230e-01      3.10261744e-01      
29
1045.469752
N    3.63923035e-02      -1.97673579e-03     5.60867391e-02      
H    7.13459865e-02      -8.56009610e-01     -5.39313508e-01     
H    9.57489295e-01      4.74285411e-01      6.06353420e-02      
H    -6.96640800e-01     6.54120299e-01      -3.03382091e-01     
C    -3.16187724e-01     -3.65971133e-01     1.44291207e+00      
H    4.20454149e-01      -1.05286671e+00     1.84897379e+00      
H    -3.43045218e-01     5.31571640e-01      2.05322770e+00      
C    -1.68158834e+00     -1.03072966e+00     1.41339528e+00      
O    -2.20274525e+00     -1.42761252e+00     3.86143106e-01      
O    -2.17666220e+00     -1.11005333e+00     2.62977278e+00      
H    -3.08792139e+00     -1.54391415e+00     2.58714040e+00      
O    -1.92776627e+00     1.80200699e+00      -3.98701322e-01     
H    -2.81900697e+00     1.63065732e+00      -4.44945458e-02     
H    -2.01011228e+00     2.54754486e+00      -9.95088105e-01     
O    1.89330107e-01      -2.51604079e+00     -1.09737661e+00     
H    -6.76887029e-01     -2.92936779e+00     -1.04864028e+00     
H    6.42146866e-01      -2.93701981e+00     -1.83279884e+00     
O    -4.35251726e+00     1.12220693e+00      6.86542125e-01      
H    -4.67486457e+00     1.32535232e+00      1.56620902e+00      
H    -4.75266821e+00     2.78745703e-01      4.42368007e-01      
O    -4.63300611e+00     -1.96521015e+00     2.52637411e+00      
H    -4.97517077e+00     -2.07528986e+00     1.62845628e+00      
H    -5.04608675e+00     -2.63631169e+00     3.07757225e+00      
O    -5.01960562e+00     -1.53643048e+00     -2.04158958e-01     
H    -5.64350675e+00     -1.80715447e+00     -8.82661363e-01     
H    -4.14439248e+00     -1.71719614e+00     -5.60059218e-01     
O    2.51811634e+00      1.26072155e+00      4.25186118e-01      
H    2.65793681e+00      2.20738989e+00      4.99972649e-01      
H    3.39330066e+00      8.83693534e-01      3.10237352e-01      
29
1045.469752
N    3.63388171e-02      -1.93930268e-03     5.62502452e-02      
H    7.12556505e-02      -8.56391763e-01     -5.38607554e-01     
H    9.57601502e-01      4.74002882e-01      6.09326889e-02      
H    -6.96533326e-01     6.54001313e-01      -3.03699572e-01     
C    -3.16249069e-01     -3.65771053e-01     1.44267445e+00      
H    4.20295195e-01      -1.05300231e+00     1.84835604e+00      
H    -3.42668540e-01     5.31556653e-01      2.05329409e+00      
C    -1.68159169e+00     -1.03063893e+00     1.41345628e+00      
O    -2.20268012e+00     -1.42772061e+00     3.86244402e-01      
O    -2.17639636e+00     -1.11063681e+00     2.62966830e+00      
H    -3.09272711e+00     -1.53255335e+00     2.58656439e+00      
O    -1.92776153e+00     1.80200240e+00      -3.98691556e-01     
H    -2.81899916e+00     1.63062882e+00      -4.45294611e-02     
H    -2.01014733e+00     2.54752931e+00      -9.95096036e-01     
O    1.89332905e-01      -2.51604909e+00     -1.09738567e+00     
H    -6.76927195e-01     -2.92929248e+00     -1.04868458e+00     
H    6.42179973e-01      -2.93701854e+00     -1.83278706e+00     
O    -4.35254124e+00     1.12222418e+00      6.86534381e-01      
H    -4.67455480e+00     1.32527797e+00      1.56633645e+00      
H    -4.75239108e+00     2.78628730e-01      4.42322486e-01      
O    -4.63291549e+00     -1.96547057e+00     2.52643830e+00      
H    -4.97510301e+00     -2.07462448e+00     1.62844016e+00      
H    -5.04692947e+00     -2.63613981e+00     3.07732056e+00      
O    -5.01962031e+00     -1.53645230e+00     -2.04173122e-01     
H    -5.64354204e+00     -1.80716950e+00     -8.82657984e-01     
H    -4.14436380e+00     -1.71694127e+00     -5.60145992e-01     
O    2.51811682e+00      1.26072535e+00      4.25185861e-01      
H    2.65793880e+00      2.20739245e+00      4.99974670e-01      
H    3.39329522e+00      8.83688686e-01      3.10225156e-01      
29
1045.469752
N    3.62853306e-02      -1.90186956e-03     5.64137514e-02      
H    7.11653144e-02      -8.56773915e-01     -5.37901599e-01     
H    9.57713708e-01      4.73720353e-01      6.12300359e-02      
H    -6.96425852e-01     6.53882327e-01      -3.04017053e-01     
C    -3.16310413e-01     -3.65570972e-01     1.44243683e+00      
H    4.20136241e-01      -1.05313791e+00     1.84773829e+00      
H    -3.42291862e-01     5.31541666e-01      2.05336048e+00      
C    -1.68159503e+00     -1.03054819e+00     1.41351729e+00      
O    -2.20261499e+00     -1.42782869e+00     3.86345698e-01      
O    -2.17613051e+00     -1.11122029e+00     2.62956381e+00      
H    -3.09753282e+00     -1.52119254e+00     2.58598837e+00      
O    -1.92775679e+00     1.80199780e+00      -3.98681791e-01     
H    -2.81899135e+00     1.63060031e+00      -4.45643765e-02     
H    -2.01018237e+00     2.54751376e+00      -9.95103966e-01     
O    1.89335703e-01      -2.51605740e+00     -1.09739472e+00     
H    -6.76967361e-01     -2.92921716e+00     -1.04872888e+00     
H    6.42213079e-01      -2.93701727e+00     -1.83277528e+00     
O    -4.35256523e+00     1.12224144e+00      6.86526637e-01      
H    -4.67424504e+00     1.32520363e+00      1.56646388e+00      
H    -4.75211396e+00     2.78511756e-01      4.42276966e-01      
O    -4.63282487e+00     -1.96573099e+00     2.52650248e+00      
H    -4.97503526e+00     -2.07395909e+00     1.62842404e+00      
H    -5.04777219e+00     -2.63596794e+00     3.07706886e+00      
O    -5.01963500e+00     -1.53647412e+00     -2.04187287e-01     
H    -5.64357733e+00     -1.80718453e+00     -8.82654604e-01     
H    -4.14433512e+00     -1.71668639e+00     -5.60232767e-01     
O    2.51811731e+00      1.26072914e+00      4.25185604e-01      
H    2.65794079e+00      2.20739500e+00      4.99976692e-01      
H    3.39328978e+00      8.83683837e-01      3.10212960e-01      
29
1045.469752
N    3.60713850e-02      -1.75213712e-03     5.70677762e-02      
H    7.08039704e-02      -8.58302525e-01     -5.35077783e-01     
H    9.58162536e-01      4.72590235e-01      6.24194235e-02      
H    -6.95995954e-01     6.53406385e-01      -3.05286975e-01     
C    -3.16555793e-01     -3.64770650e-01     1.44148633e+00      
H    4.19500425e-01      -1.05368031e+00     1.84526727e+00      
H    -3.40785150e-01     5.31481718e-01      2.05362604e+00      
C    -1.68160841e+00     -1.03018525e+00     1.41376131e+00      
O    -2.20235445e+00     -1.42826101e+00     3.86750882e-01      
O    -2.17506715e+00     -1.11355419e+00     2.62914587e+00      
H    -3.11675568e+00     -1.47574934e+00     2.58368431e+00      
O    -1.92773785e+00     1.80197944e+00      -3.98642727e-01     
H    -2.81896011e+00     1.63048629e+00      -4.47040379e-02     
H    -2.01032257e+00     2.54745156e+00      -9.95135688e-01     
O    1.89346895e-01      -2.51609062e+00     -1.09743096e+00     
H    -6.77128025e-01     -2.92891590e+00     -1.04890606e+00     
H    6.42345505e-01      -2.93701221e+00     -1.83272814e+00     
O    -4.35266119e+00     1.12231048e+00      6.86495663e-01      
H    -4.67300598e+00     1.32490627e+00      1.56697360e+00      
H    -4.75100544e+00     2.78043862e-01      4.42094882e-01      
O    -4.63246237e+00     -1.96677267e+00     2.52675924e+00      
H    -4.97476424e+00     -2.07129755e+00     1.62835956e+00      
H    -5.05114309e+00     -2.63528042e+00     3.07606206e+00      
O    -5.01969378e+00     -1.53656140e+00     -2.04243945e-01     
H    -5.64371849e+00     -1.80724467e+00     -8.82641086e-01     
H    -4.14422040e+00     -1.71566689e+00     -5.60579863e-01     
O    2.51811925e+00      1.26074434e+00      4.25184576e-01      
H    2.65794875e+00      2.20740522e+00      4.99984778e-01      
H    3.39326804e+00      8.83664445e-01      3.10164176e-01      
29
1045.469752
N    3.60178985e-02      -1.71470400e-03     5.72312824e-02      
H    7.07136343e-02      -8.58684677e-01     -5.34371828e-01     
H    9.58274742e-01      4.72307706e-01      6.27167705e-02      
H    -6.95888480e-01     6.53287399e-01      -3.05604456e-01     
C    -3.16617137e-01     -3.64570569e-01     1.44124871e+00      
H    4.19341471e-01      -1.05381591e+00     1.84464952e+00      
H    -3.40408472e-01     5.31466731e-01      2.05369243e+00      
C    -1.68161175e+00     -1.03009451e+00     1.41382232e+00      
O    -2.20228932e+00     -1.42836909e+00     3.86852178e-01      
O    -2.17480130e+00     -1.11413767e+00     2.62904138e+00      
H    -3.12156139e+00     -1.46438853e+00     2.58310829e+00      
O    -1.92773311e+00     1.80197484e+00      -3.98632962e-01     
H    -2.81895230e+00     1.63045778e+00      -4.47389533e-02     
H    -2.01035761e+00     2.54743601e+00      -9.95143618e-01     
O    1.89349693e-01      -2.51609893e+00     -1.09744001e+00     
H    -6.77168191e-01     -2.92884058e+00     -1.04895036e+00     
H    6.42378611e-01      -2.93701094e+00     -1.83271636e+00     
O    -4.35268518e+00     1.12232774e+00      6.86487919e-01      
H    -4.67269622e+00     1.32483193e+00      1.56710103e+00      
H    -4.75072832e+00     2.77926888e-01      4.42049362e-01      
O    -4.63237175e+00     -1.96703309e+00     2.52682342e+00      
H    -4.97469649e+00     -2.07063216e+00     1.62834344e+00      
H    -5.05198581e+00     -2.63510855e+00     3.07581036e+00      
O    -5.01970847e+00     -1.53658322e+00     -2.04258110e-01     
H    -5.64375378e+00     -1.80725970e+00     -8.82637706e-01     
H    -4.14419172e+00     -1.71541201e+00     -5.60666638e-01     
O    2.51811974e+00      1.26074813e+00      4.25184319e-01      
H    2.65795074e+00      2.20740777e+00      4.99986800e-01      
H    3.39326260e+00      8.83659596e-01      3.10151980e-01      
29
1045.469752
N    3.59644121e-02      -1.67727089e-03     5.73947885e-02      
H    7.06232983e-02      -8.59066830e-01     -5.33665874e-01     
H    9.58386949e-01      4.72025177e-01      6.30141174e-02      
H    -6.95781006e-01     6.53168413e-01      -3.05921937e-01     
C    -3.16678482e-01     -3.64370489e-01     1.44101109e+00      
H    4.19182517e-01      -1.05395151e+00     1.84403177e+00      
H    -3.40031794e-01     5.31451744e-01      2.05375882e+00      
C    -1.68161510e+00     -1.03000378e+00     1.41388332e+00      
O    -2.20222419e+00     -1.42847718e+00     3.86953474e-01      
O    -2.17453546e+00     -1.11472115e+00     2.62893690e+00      
H    -3.12636711e+00     -1.45302773e+00     2.58253228e+00      
O    -1.92772837e+00     1.80197025e+00      -3.98623196e-01     
H    -2.81894449e+00     1.63042928e+00      -4.47738686e-02     
H    -2.01039266e+00     2.54742046e+00      -9.95151549e-01     
O    1.89352491e-01      -2.51610723e+00     -1.09744907e+00     
H    -6.77208357e-01     -2.92876527e+00     -1.04899466e+00     
H    6.42411718e-01      -2.93700967e+00     -1.83270458e+00     
O    -4.35270916e+00     1.12234499e+00      6.86480175e-01      
H    -4.67238645e+00     1.32475758e+00      1.56722846e+00      
H    -4.75045119e+00     2.77809915e-01      4.42003841e-01      
O    -4.63228113e+00     -1.96729351e+00     2.52688761e+00      
H    -4.97462873e+00     -2.06996678e+00     1.62832732e+00      
H    -5.05282853e+00     -2.63493667e+00     3.07555867e+00      
O    -5.01972316e+00     -1.53660504e+00     -2.04272274e-01     
H    -5.64378907e+00     -1.80727473e+00     -8.82634327e-01     
H    -4.14416304e+00     -1.71515714e+00     -5.60753412e-01     
O    2.51812022e+00      1.26075193e+00      4.25184062e-01      
H    2.65795273e+00      2.20741033e+00      4.99988821e-01      
H    3.39325716e+00      8.83654748e-01      3.10139784e-01      
29
1045.469752
N    3.58574393e-02      -1.60240467e-03     5.77218009e-02      
H    7.04426263e-02      -8.59831135e-01     -5.32253966e-01     
H    9.58611363e-01      4.71460118e-01      6.36088112e-02      
H    -6.95566057e-01     6.52930442e-01      -3.06556898e-01     
C    -3.16801172e-01     -3.63970328e-01     1.44053584e+00      
H    4.18864609e-01      -1.05422271e+00     1.84279626e+00      
H    -3.39278438e-01     5.31421770e-01      2.05389161e+00      
C    -1.68162179e+00     -1.02982230e+00     1.41400534e+00      
O    -2.20209392e+00     -1.42869334e+00     3.87156065e-01      
O    -2.17400378e+00     -1.11588810e+00     2.62872792e+00      
H    -3.13597854e+00     -1.43030613e+00     2.58138024e+00      
O    -1.92771890e+00     1.80196107e+00      -3.98603664e-01     
H    -2.81892886e+00     1.63037227e+00      -4.48436993e-02     
H    -2.01046276e+00     2.54738936e+00      -9.95167409e-01     
O    1.89358087e-01      -2.51612384e+00     -1.09746719e+00     
H    -6.77288688e-01     -2.92861464e+00     -1.04908325e+00     
H    6.42477931e-01      -2.93700714e+00     -1.83268101e+00     
O    -4.35275714e+00     1.12237951e+00      6.86464688e-01      
H    -4.67176692e+00     1.32460890e+00      1.56748332e+00      
H    -4.74989693e+00     2.77575967e-01      4.41912799e-01      
O    -4.63209988e+00     -1.96781435e+00     2.52701599e+00      
H    -4.97449322e+00     -2.06863600e+00     1.62829507e+00      
H    -5.05451398e+00     -2.63459291e+00     3.07505527e+00      
O    -5.01975255e+00     -1.53664868e+00     -2.04300604e-01     
H    -5.64385965e+00     -1.80730480e+00     -8.82627567e-01     
H    -4.14410568e+00     -1.71464738e+00     -5.60926960e-01     
O    2.51812120e+00      1.26075953e+00      4.25183548e-01      
H    2.65795672e+00      2.20741544e+00      4.99992864e-01      
H    3.39324629e+00      8.83645052e-01      3.10115392e-01      
29
1045.469752
N    3.57504664e-02      -1.52753844e-03     5.80488133e-02      
H    7.02619542e-02      -8.60595439e-01     -5.30842058e-01     
H    9.58835776e-01      4.70895060e-01      6.42035051e-02      
H    -6.95351109e-01     6.52692470e-01      -3.07191859e-01     
C    -3.16923862e-01     -3.63570167e-01     1.44006059e+00      
H    4.18546701e-01      -1.05449391e+00     1.84156076e+00      
H    -3.38525082e-01     5.31391796e-01      2.05402439e+00      
C    -1.68162848e+00     -1.02964083e+00     1.41412735e+00      
O    -2.20196366e+00     -1.42890950e+00     3.87358657e-01      
O    -2.17347209e+00     -1.11705506e+00     2.62851895e+00      
H    -3.14558997e+00     -1.40758452e+00     2.58022821e+00      
O    -1.92770943e+00     1.80195188e+00      -3.98584132e-01     
H    -2.81891324e+00     1.63031526e+00      -4.49135300e-02     
H    -2.01053285e+00     2.54735825e+00      -9.95183270e-01     
O    1.89363683e-01      -2.51614045e+00     -1.09748530e+00     
H    -6.77369020e-01     -2.92846400e+00     -1.04917185e+00     
H    6.42544144e-01      -2.93700461e+00     -1.83265745e+00     
O    -4.35280512e+00     1.12241403e+00      6.86449200e-01      
H    -4.67114739e+00     1.32446022e+00      1.56773818e+00      
H    -4.74934267e+00     2.77342020e-01      4.41821758e-01      
O    -4.63191863e+00     -1.96833519e+00     2.52714437e+00      
H    -4.97435771e+00     -2.06730523e+00     1.62826283e+00      
H    -5.05619943e+00     -2.63424915e+00     3.07455187e+00      
O    -5.01978193e+00     -1.53669232e+00     -2.04328933e-01     
H    -5.64393024e+00     -1.80733487e+00     -8.82620808e-01     
H    -4.14404832e+00     -1.71413763e+00     -5.61100509e-01     
O    2.51812217e+00      1.26076712e+00      4.25183034e-01      
H    2.65796070e+00      2.20742054e+00      4.99996907e-01      
H    3.39323542e+00      8.83635356e-01      3.10091000e-01      
29
1045.469752
N    3.56434936e-02      -1.45267222e-03     5.83758256e-02      
H    7.00812822e-02      -8.61359744e-01     -5.29430149e-01     
H    9.59060190e-01      4.70330001e-01      6.47981989e-02      
H    -6.95136160e-01     6.52454499e-01      -3.07826821e-01     
C    -3.17046551e-01     -3.63170005e-01     1.43958535e+00      
H    4.18228793e-01      -1.05476511e+00     1.84032525e+00      
H    -3.37771727e-01     5.31361822e-01      2.05415717e+00      
C    -1.68163516e+00     -1.02945936e+00     1.41424936e+00      
O    -2.20183339e+00     -1.42912566e+00     3.87561249e-01      
O    -2.17294041e+00     -1.11822201e+00     2.62830998e+00      
H    -3.15520139e+00     -1.38486292e+00     2.57907618e+00      
O    -1.92769995e+00     1.80194270e+00      -3.98564601e-01     
H    -2.81889762e+00     1.63025825e+00      -4.49833607e-02     
H    -2.01060295e+00     2.54732715e+00      -9.95199131e-01     
O    1.89369279e-01      -2.51615706e+00     -1.09750342e+00     
H    -6.77449352e-01     -2.92831337e+00     -1.04926044e+00     
H    6.42610357e-01      -2.93700207e+00     -1.83263388e+00     
O    -4.35285309e+00     1.12244855e+00      6.86433713e-01      
H    -4.67052787e+00     1.32431153e+00      1.56799304e+00      
H    -4.74878842e+00     2.77108073e-01      4.41730716e-01      
O    -4.63173738e+00     -1.96885602e+00     2.52727274e+00      
H    -4.97422220e+00     -2.06597446e+00     1.62823059e+00      
H    -5.05788488e+00     -2.63390540e+00     3.07404848e+00      
O    -5.01981132e+00     -1.53673596e+00     -2.04357262e-01     
H    -5.64400082e+00     -1.80736493e+00     -8.82614049e-01     
H    -4.14399096e+00     -1.71362788e+00     -5.61274057e-01     
O    2.51812314e+00      1.26077472e+00      4.25182520e-01      
H    2.65796468e+00      2.20742565e+00      5.00000950e-01      
H    3.39322454e+00      8.83625659e-01      3.10066608e-01      
29
1045.469752
N    3.55365207e-02      -1.37780599e-03     5.87028380e-02      
H    6.99006101e-02      -8.62124049e-01     -5.28018241e-01     
H    9.59284603e-01      4.69764942e-01      6.53928928e-02      
H    -6.94921212e-01     6.52216528e-01      -3.08461782e-01     
C    -3.17169241e-01     -3.62769844e-01     1.43911010e+00      
H    4.17910885e-01      -1.05503631e+00     1.83908975e+00      
H    -3.37018371e-01     5.31331848e-01      2.05428995e+00      
C    -1.68164185e+00     -1.02927789e+00     1.41437137e+00      
O    -2.20170312e+00     -1.42934183e+00     3.87763841e-01      
O    -2.17240872e+00     -1.11938896e+00     2.62810101e+00      
H    -3.16481282e+00     -1.36214131e+00     2.57792415e+00      
O    -1.92769048e+00     1.80193351e+00      -3.98545069e-01     
H    -2.81888200e+00     1.63020124e+00      -4.50531915e-02     
H    -2.01067305e+00     2.54729605e+00      -9.95214992e-01     
O    1.89374875e-01      -2.51617367e+00     -1.09752153e+00     
H    -6.77529684e-01     -2.92816274e+00     -1.04934904e+00     
H    6.42676570e-01      -2.93699954e+00     -1.83261032e+00     
O    -4.35290107e+00     1.12248306e+00      6.86418225e-01      
H    -4.66990834e+00     1.32416285e+00      1.56824790e+00      
H    -4.74823416e+00     2.76874126e-01      4.41639675e-01      
O    -4.63155614e+00     -1.96937686e+00     2.52740112e+00      
H    -4.97408669e+00     -2.06464369e+00     1.62819835e+00      
H    -5.05957032e+00     -2.63356164e+00     3.07354508e+00      
O    -5.01984070e+00     -1.53677960e+00     -2.04385591e-01     
H    -5.64407140e+00     -1.80739500e+00     -8.82607290e-01     
H    -4.14393360e+00     -1.71311813e+00     -5.61447606e-01     
O    2.51812411e+00      1.26078231e+00      4.25182006e-01      
H    2.65796866e+00      2.20743076e+00      5.00004993e-01      
H    3.39321367e+00      8.83615963e-01      3.10042216e-01      
29
1045.469752
N    3.53225750e-02      -1.22807354e-03     5.93568627e-02      
H    6.95392660e-02      -8.63652659e-01     -5.25194424e-01     
H    9.59733430e-01      4.68634825e-01      6.65822804e-02      
H    -6.94491315e-01     6.51740585e-01      -3.09731705e-01     
C    -3.17414620e-01     -3.61969522e-01     1.43815961e+00      
H    4.17275069e-01      -1.05557871e+00     1.83661874e+00      
H    -3.35511659e-01     5.31271901e-01      2.05455551e+00      
C    -1.68165523e+00     -1.02891495e+00     1.41461539e+00      
O    -2.20144259e+00     -1.42977415e+00     3.88169024e-01      
O    -2.17134535e+00     -1.12172287e+00     2.62768306e+00      
H    -3.18403568e+00     -1.31669811e+00     2.57562008e+00      
O    -1.92767154e+00     1.80191514e+00      -3.98506006e-01     
H    -2.81885075e+00     1.63008722e+00      -4.51928529e-02     
H    -2.01081324e+00     2.54723385e+00      -9.95246713e-01     
O    1.89386066e-01      -2.51620689e+00     -1.09755776e+00     
H    -6.77690347e-01     -2.92786148e+00     -1.04952623e+00     
H    6.42808996e-01      -2.93699447e+00     -1.83256319e+00     
O    -4.35299702e+00     1.12255210e+00      6.86387250e-01      
H    -4.66866928e+00     1.32386548e+00      1.56875762e+00      
H    -4.74712565e+00     2.76406232e-01      4.41457592e-01      
O    -4.63119364e+00     -1.97041854e+00     2.52765787e+00      
H    -4.97381567e+00     -2.06198214e+00     1.62813386e+00      
H    -5.06294122e+00     -2.63287413e+00     3.07253828e+00      
O    -5.01989947e+00     -1.53686688e+00     -2.04442250e-01     
H    -5.64421256e+00     -1.80745513e+00     -8.82593771e-01     
H    -4.14381888e+00     -1.71209862e+00     -5.61794702e-01     
O    2.51812606e+00      1.26079751e+00      4.25180978e-01      
H    2.65797662e+00      2.20744098e+00      5.00013079e-01      
H    3.39319193e+00      8.83596570e-01      3.09993432e-01      
