29
1175.314541
N    4.90698658e-02      -1.92502018e-03     6.78562823e-02      
H    1.37474590e-02      -8.49737083e-01     -5.39299165e-01     
H    9.46556444e-01      5.17970931e-01      -3.41126603e-02     
H    -7.52958772e-01     6.15896128e-01      -2.33896634e-01     
C    -3.19985309e-01     -3.57939661e-01     1.42330786e+00      
H    3.25633140e-01      -1.10418920e+00     1.89528858e+00      
H    -3.30218558e-01     5.37966920e-01      2.03430955e+00      
C    -1.67202979e+00     -1.03917592e+00     1.41338510e+00      
O    -2.20299248e+00     -1.42614780e+00     3.86802320e-01      
O    -2.17865661e+00     -1.11168337e+00     2.63405095e+00      
H    -3.11046685e+00     -1.49845704e+00     2.57164740e+00      
O    -1.92708976e+00     1.80309296e+00      -3.99602391e-01     
H    -2.81629792e+00     1.62308869e+00      -4.44929079e-02     
H    -2.01563793e+00     2.55009302e+00      -9.92724049e-01     
O    1.90217576e-01      -2.51573152e+00     -1.09724402e+00     
H    -6.77287700e-01     -2.92686474e+00     -1.05041171e+00     
H    6.38412353e-01      -2.94221039e+00     -1.83282334e+00     
O    -4.35256543e+00     1.12234598e+00      6.86526557e-01      
H    -4.67550737e+00     1.32437312e+00      1.56649783e+00      
H    -4.75200804e+00     2.78288135e-01      4.43252015e-01      
O    -4.63271240e+00     -1.96620951e+00     2.52704788e+00      
H    -4.97356344e+00     -2.07337484e+00     1.62830757e+00      
H    -5.05127298e+00     -2.63621381e+00     3.07529539e+00      
O    -5.01970849e+00     -1.53633815e+00     -2.03969797e-01     
H    -5.64146352e+00     -1.80840588e+00     -8.84552619e-01     
H    -4.14538971e+00     -1.71784344e+00     -5.61832370e-01     
O    2.51819057e+00      1.26015726e+00      4.25587665e-01      
H    2.65744331e+00      2.20711309e+00      5.00309988e-01      
H    3.39522165e+00      8.86581435e-01      3.11622416e-01      
29
1175.314541
N    4.58469888e-02      -1.90051597e-03     6.50774027e-02      
H    2.80567549e-02      -8.51687367e-01     -5.38596797e-01     
H    9.49401863e-01      5.06767022e-01      -1.01283128e-02     
H    -7.38771805e-01     6.25333185e-01      -2.51585479e-01     
C    -3.19097257e-01     -3.59747449e-01     1.42797129e+00      
H    3.49179438e-01      -1.09149418e+00     1.88309213e+00      
H    -3.33048545e-01     5.36353113e-01      2.03910548e+00      
C    -1.67442277e+00     -1.03697362e+00     1.41344865e+00      
O    -2.20286554e+00     -1.42662206e+00     3.86738812e-01      
O    -2.17789216e+00     -1.11185933e+00     2.63287693e+00      
H    -3.10963620e+00     -1.49846052e+00     2.57494464e+00      
O    -1.92725415e+00     1.80281688e+00      -3.99367358e-01     
H    -2.81696738e+00     1.62495235e+00      -4.45282328e-02     
H    -2.01429156e+00     2.54944043e+00      -9.93322994e-01     
O    1.89998506e-01      -2.51581714e+00     -1.09728623e+00     
H    -6.77227699e-01     -2.92741519e+00     -1.05001315e+00     
H    6.39379088e-01      -2.94091148e+00     -1.83280543e+00     
O    -4.35257738e+00     1.12232847e+00      6.86522705e-01      
H    -4.67503690e+00     1.32454358e+00      1.56655305e+00      
H    -4.75189596e+00     2.78285553e-01      4.42985492e-01      
O    -4.63269520e+00     -1.96622009e+00     2.52694362e+00      
H    -4.97389751e+00     -2.07318821e+00     1.62832863e+00      
H    -5.05081914e+00     -2.63606640e+00     3.07561291e+00      
O    -5.01969747e+00     -1.53638306e+00     -2.04031252e-01     
H    -5.64200962e+00     -1.80810806e+00     -8.84076425e-01     
H    -4.14511172e+00     -1.71742674e+00     -5.61475856e-01     
O    2.51817250e+00      1.26030213e+00      4.25487021e-01      
H    2.65756867e+00      2.20718484e+00      5.00227675e-01      
H    3.39473597e+00      8.85854611e-01      3.11263954e-01      
29
1175.314541
N    4.42355503e-02      -1.88826386e-03     6.36879629e-02      
H    3.52114028e-02      -8.52662509e-01     -5.38245612e-01     
H    9.50824573e-01      5.01165067e-01      1.86386094e-03      
H    -7.31678321e-01     6.30051714e-01      -2.60429902e-01     
C    -3.18653231e-01     -3.60651342e-01     1.43030301e+00      
H    3.60952587e-01      -1.08514667e+00     1.87699391e+00      
H    -3.34463538e-01     5.35546210e-01      2.04150344e+00      
C    -1.67561926e+00     -1.03587247e+00     1.41348043e+00      
O    -2.20280207e+00     -1.42685919e+00     3.86707059e-01      
O    -2.17750994e+00     -1.11194732e+00     2.63228991e+00      
H    -3.10922087e+00     -1.49846225e+00     2.57659325e+00      
O    -1.92733634e+00     1.80267883e+00      -3.99249842e-01     
H    -2.81730210e+00     1.62588417e+00      -4.45458952e-02     
H    -2.01361838e+00     2.54911413e+00      -9.93622466e-01     
O    1.89888972e-01      -2.51585995e+00     -1.09730733e+00     
H    -6.77197698e-01     -2.92769041e+00     -1.04981387e+00     
H    6.39862455e-01      -2.94026202e+00     -1.83279648e+00     
O    -4.35258335e+00     1.12231972e+00      6.86520779e-01      
H    -4.67480167e+00     1.32462881e+00      1.56658067e+00      
H    -4.75183991e+00     2.78284263e-01      4.42852231e-01      
O    -4.63268661e+00     -1.96622538e+00     2.52689149e+00      
H    -4.97406455e+00     -2.07309490e+00     1.62833916e+00      
H    -5.05059223e+00     -2.63599270e+00     3.07577167e+00      
O    -5.01969195e+00     -1.53640551e+00     -2.04061979e-01     
H    -5.64228267e+00     -1.80795915e+00     -8.83838329e-01     
H    -4.14497273e+00     -1.71721839e+00     -5.61297599e-01     
O    2.51816346e+00      1.26037456e+00      4.25436699e-01      
H    2.65763136e+00      2.20722072e+00      5.00186518e-01      
H    3.39449313e+00      8.85491200e-01      3.11084723e-01      
29
1175.314541
N    4.26241118e-02      -1.87601176e-03     6.22985231e-02      
H    4.23660507e-02      -8.53637651e-01     -5.37894428e-01     
H    9.52247283e-01      4.95563113e-01      1.38560347e-02      
H    -7.24584837e-01     6.34770242e-01      -2.69274324e-01     
C    -3.18209206e-01     -3.61555236e-01     1.43263472e+00      
H    3.72725736e-01      -1.07879915e+00     1.87089568e+00      
H    -3.35878532e-01     5.34739306e-01      2.04390140e+00      
C    -1.67681575e+00     -1.03477132e+00     1.41351220e+00      
O    -2.20273860e+00     -1.42709632e+00     3.86675305e-01      
O    -2.17712772e+00     -1.11203530e+00     2.63170290e+00      
H    -3.10880555e+00     -1.49846399e+00     2.57824187e+00      
O    -1.92741854e+00     1.80254079e+00      -3.99132325e-01     
H    -2.81763683e+00     1.62681600e+00      -4.45635576e-02     
H    -2.01294520e+00     2.54878784e+00      -9.93921938e-01     
O    1.89779437e-01      -2.51590276e+00     -1.09732843e+00     
H    -6.77167697e-01     -2.92796563e+00     -1.04961459e+00     
H    6.40345823e-01      -2.93961257e+00     -1.83278752e+00     
O    -4.35258932e+00     1.12231097e+00      6.86518854e-01      
H    -4.67456644e+00     1.32471404e+00      1.56660828e+00      
H    -4.75178387e+00     2.78282972e-01      4.42718969e-01      
O    -4.63267801e+00     -1.96623067e+00     2.52683937e+00      
H    -4.97423159e+00     -2.07300158e+00     1.62834968e+00      
H    -5.05036531e+00     -2.63591899e+00     3.07593043e+00      
O    -5.01968644e+00     -1.53642796e+00     -2.04092707e-01     
H    -5.64255572e+00     -1.80781024e+00     -8.83600232e-01     
H    -4.14483374e+00     -1.71701004e+00     -5.61119343e-01     
O    2.51815443e+00      1.26044700e+00      4.25386377e-01      
H    2.65769404e+00      2.20725660e+00      5.00145361e-01      
H    3.39425028e+00      8.85127788e-01      3.10905492e-01      
29
1175.314541
N    4.10126733e-02      -1.86375965e-03     6.09090832e-02      
H    4.95206986e-02      -8.54612794e-01     -5.37543244e-01     
H    9.53669993e-01      4.89961158e-01      2.58482084e-02      
H    -7.17491354e-01     6.39488771e-01      -2.78118747e-01     
C    -3.17765180e-01     -3.62459130e-01     1.43496644e+00      
H    3.84498885e-01      -1.07245164e+00     1.86479746e+00      
H    -3.37293525e-01     5.33932403e-01      2.04629937e+00      
C    -1.67801224e+00     -1.03367017e+00     1.41354398e+00      
O    -2.20267513e+00     -1.42733346e+00     3.86643551e-01      
O    -2.17674550e+00     -1.11212329e+00     2.63111588e+00      
H    -3.10839022e+00     -1.49846573e+00     2.57989049e+00      
O    -1.92750073e+00     1.80240275e+00      -3.99014809e-01     
H    -2.81797155e+00     1.62774782e+00      -4.45812200e-02     
H    -2.01227202e+00     2.54846154e+00      -9.94221410e-01     
O    1.89669903e-01      -2.51594558e+00     -1.09734953e+00     
H    -6.77137696e-01     -2.92824086e+00     -1.04941531e+00     
H    6.40829190e-01      -2.93896311e+00     -1.83277857e+00     
O    -4.35259529e+00     1.12230222e+00      6.86516928e-01      
H    -4.67433121e+00     1.32479926e+00      1.56663590e+00      
H    -4.75172783e+00     2.78281681e-01      4.42585708e-01      
O    -4.63266941e+00     -1.96623596e+00     2.52678724e+00      
H    -4.97439863e+00     -2.07290827e+00     1.62836021e+00      
H    -5.05013839e+00     -2.63584529e+00     3.07608919e+00      
O    -5.01968093e+00     -1.53645041e+00     -2.04123434e-01     
H    -5.64282876e+00     -1.80766133e+00     -8.83362135e-01     
H    -4.14469474e+00     -1.71680169e+00     -5.60941086e-01     
O    2.51814539e+00      1.26051943e+00      4.25336055e-01      
H    2.65775672e+00      2.20729248e+00      5.00104205e-01      
H    3.39400744e+00      8.84764376e-01      3.10726261e-01      
29
1175.314541
N    3.94012348e-02      -1.85150755e-03     5.95196434e-02      
H    5.66753466e-02      -8.55587936e-01     -5.37192060e-01     
H    9.55092702e-01      4.84359203e-01      3.78403822e-02      
H    -7.10397870e-01     6.44207299e-01      -2.86963169e-01     
C    -3.17321154e-01     -3.63363024e-01     1.43729815e+00      
H    3.96272035e-01      -1.06610413e+00     1.85869923e+00      
H    -3.38708519e-01     5.33125499e-01      2.04869733e+00      
C    -1.67920874e+00     -1.03256902e+00     1.41357575e+00      
O    -2.20261166e+00     -1.42757059e+00     3.86611797e-01      
O    -2.17636327e+00     -1.11221127e+00     2.63052887e+00      
H    -3.10797490e+00     -1.49846747e+00     2.58153911e+00      
O    -1.92758293e+00     1.80226471e+00      -3.98897292e-01     
H    -2.81830628e+00     1.62867965e+00      -4.45988824e-02     
H    -2.01159883e+00     2.54813525e+00      -9.94520883e-01     
O    1.89560368e-01      -2.51598839e+00     -1.09737064e+00     
H    -6.77107695e-01     -2.92851608e+00     -1.04921603e+00     
H    6.41312557e-01      -2.93831365e+00     -1.83276962e+00     
O    -4.35260127e+00     1.12229346e+00      6.86515002e-01      
H    -4.67409597e+00     1.32488449e+00      1.56666351e+00      
H    -4.75167179e+00     2.78280390e-01      4.42452447e-01      
O    -4.63266081e+00     -1.96624125e+00     2.52673511e+00      
H    -4.97456567e+00     -2.07281495e+00     1.62837074e+00      
H    -5.04991147e+00     -2.63577159e+00     3.07624794e+00      
O    -5.01967542e+00     -1.53647286e+00     -2.04154161e-01     
H    -5.64310181e+00     -1.80751242e+00     -8.83124038e-01     
H    -4.14455575e+00     -1.71659334e+00     -5.60762829e-01     
O    2.51813635e+00      1.26059187e+00      4.25285734e-01      
H    2.65781940e+00      2.20732835e+00      5.00063048e-01      
H    3.39376460e+00      8.84400964e-01      3.10547030e-01      
29
1175.314541
N    3.85955155e-02      -1.84538150e-03     5.88249235e-02      
H    6.02526705e-02      -8.56075507e-01     -5.37016467e-01     
H    9.55804057e-01      4.81558226e-01      4.38364691e-02      
H    -7.06851128e-01     6.46566563e-01      -2.91385380e-01     
C    -3.17099142e-01     -3.63814970e-01     1.43846401e+00      
H    4.02158609e-01      -1.06293038e+00     1.85565012e+00      
H    -3.39416016e-01     5.32722047e-01      2.04989631e+00      
C    -1.67980698e+00     -1.03201845e+00     1.41359164e+00      
O    -2.20257992e+00     -1.42768915e+00     3.86595921e-01      
O    -2.17617216e+00     -1.11225526e+00     2.63023536e+00      
H    -3.10776724e+00     -1.49846833e+00     2.58236341e+00      
O    -1.92762403e+00     1.80219568e+00      -3.98838534e-01     
H    -2.81847364e+00     1.62914556e+00      -4.46077136e-02     
H    -2.01126224e+00     2.54797210e+00      -9.94670619e-01     
O    1.89505601e-01      -2.51600979e+00     -1.09738119e+00     
H    -6.77092694e-01     -2.92865369e+00     -1.04911639e+00     
H    6.41554241e-01      -2.93798893e+00     -1.83276514e+00     
O    -4.35260425e+00     1.12228909e+00      6.86514039e-01      
H    -4.67397836e+00     1.32492711e+00      1.56667732e+00      
H    -4.75164376e+00     2.78279745e-01      4.42385816e-01      
O    -4.63265652e+00     -1.96624390e+00     2.52670905e+00      
H    -4.97464919e+00     -2.07276829e+00     1.62837601e+00      
H    -5.04979802e+00     -2.63573474e+00     3.07632732e+00      
O    -5.01967266e+00     -1.53648408e+00     -2.04169525e-01     
H    -5.64323834e+00     -1.80743797e+00     -8.83004990e-01     
H    -4.14448625e+00     -1.71648916e+00     -5.60673700e-01     
O    2.51813183e+00      1.26062809e+00      4.25260573e-01      
H    2.65785075e+00      2.20734629e+00      5.00042470e-01      
H    3.39364317e+00      8.84219259e-01      3.10457414e-01      
29
1175.314541
N    3.77897963e-02      -1.83925544e-03     5.81302036e-02      
H    6.38299945e-02      -8.56563078e-01     -5.36840875e-01     
H    9.56515412e-01      4.78757249e-01      4.98325559e-02      
H    -7.03304387e-01     6.48925828e-01      -2.95807592e-01     
C    -3.16877129e-01     -3.64266917e-01     1.43962987e+00      
H    4.08045184e-01      -1.05975662e+00     1.85260101e+00      
H    -3.40123512e-01     5.32318596e-01      2.05109530e+00      
C    -1.68040523e+00     -1.03146787e+00     1.41360753e+00      
O    -2.20254819e+00     -1.42780772e+00     3.86580044e-01      
O    -2.17598105e+00     -1.11229926e+00     2.62994185e+00      
H    -3.10755957e+00     -1.49846920e+00     2.58318772e+00      
O    -1.92766512e+00     1.80212666e+00      -3.98779776e-01     
H    -2.81864100e+00     1.62961147e+00      -4.46165448e-02     
H    -2.01092565e+00     2.54780895e+00      -9.94820355e-01     
O    1.89450834e-01      -2.51603120e+00     -1.09739174e+00     
H    -6.77077694e-01     -2.92879131e+00     -1.04901675e+00     
H    6.41795925e-01      -2.93766420e+00     -1.83276066e+00     
O    -4.35260724e+00     1.12228471e+00      6.86513076e-01      
H    -4.67386074e+00     1.32496972e+00      1.56669113e+00      
H    -4.75161574e+00     2.78279100e-01      4.42319185e-01      
O    -4.63265222e+00     -1.96624654e+00     2.52668299e+00      
H    -4.97473271e+00     -2.07272164e+00     1.62838127e+00      
H    -5.04968456e+00     -2.63569788e+00     3.07640670e+00      
O    -5.01966990e+00     -1.53649531e+00     -2.04184889e-01     
H    -5.64337486e+00     -1.80736351e+00     -8.82885942e-01     
H    -4.14441675e+00     -1.71638499e+00     -5.60584572e-01     
O    2.51812732e+00      1.26066430e+00      4.25235412e-01      
H    2.65788209e+00      2.20736423e+00      5.00021892e-01      
H    3.39352175e+00      8.84037553e-01      3.10367799e-01      
29
1175.314541
N    3.45669193e-02      -1.81475124e-03     5.53513240e-02      
H    7.81392903e-02      -8.58513362e-01     -5.36138507e-01     
H    9.59360832e-01      4.67553339e-01      7.38169035e-02      
H    -6.89117419e-01     6.58362884e-01      -3.13496436e-01     
C    -3.15989077e-01     -3.66074705e-01     1.44429329e+00      
H    4.31591482e-01      -1.04706160e+00     1.84040455e+00      
H    -3.42953500e-01     5.30704788e-01      2.05589122e+00      
C    -1.68279821e+00     -1.02926557e+00     1.41367107e+00      
O    -2.20242125e+00     -1.42828198e+00     3.86516536e-01      
O    -2.17521661e+00     -1.11247522e+00     2.62876783e+00      
H    -3.10672893e+00     -1.49847268e+00     2.58648496e+00      
O    -1.92782952e+00     1.80185058e+00      -3.98544742e-01     
H    -2.81931046e+00     1.63147513e+00      -4.46518696e-02     
H    -2.00957929e+00     2.54715637e+00      -9.95419299e-01     
O    1.89231764e-01      -2.51611682e+00     -1.09743394e+00     
H    -6.77017692e-01     -2.92934175e+00     -1.04861819e+00     
H    6.42762659e-01      -2.93636528e+00     -1.83274276e+00     
O    -4.35261918e+00     1.12226721e+00      6.86509224e-01      
H    -4.67339028e+00     1.32514018e+00      1.56674635e+00      
H    -4.75150366e+00     2.78276518e-01      4.42052663e-01      
O    -4.63263502e+00     -1.96625712e+00     2.52657873e+00      
H    -4.97506679e+00     -2.07253500e+00     1.62840233e+00      
H    -5.04923072e+00     -2.63555048e+00     3.07672422e+00      
O    -5.01965888e+00     -1.53654021e+00     -2.04246343e-01     
H    -5.64392096e+00     -1.80706569e+00     -8.82409748e-01     
H    -4.14413877e+00     -1.71596829e+00     -5.60228058e-01     
O    2.51810924e+00      1.26080918e+00      4.25134768e-01      
H    2.65800745e+00      2.20743599e+00      4.99939578e-01      
H    3.39303607e+00      8.83310729e-01      3.10009337e-01      
29
1175.314541
N    3.37612001e-02      -1.80862518e-03     5.46566041e-02      
H    8.17166143e-02      -8.59000933e-01     -5.35962915e-01     
H    9.60072187e-01      4.64752362e-01      7.98129903e-02      
H    -6.85570678e-01     6.60722149e-01      -3.17918648e-01     
C    -3.15767064e-01     -3.66526652e-01     1.44545915e+00      
H    4.37478057e-01      -1.04388784e+00     1.83735544e+00      
H    -3.43660996e-01     5.30301337e-01      2.05709021e+00      
C    -1.68339646e+00     -1.02871499e+00     1.41368696e+00      
O    -2.20238952e+00     -1.42840055e+00     3.86500659e-01      
O    -2.17502550e+00     -1.11251922e+00     2.62847432e+00      
H    -3.10652126e+00     -1.49847355e+00     2.58730927e+00      
O    -1.92787061e+00     1.80178156e+00      -3.98485984e-01     
H    -2.81947782e+00     1.63194104e+00      -4.46607008e-02     
H    -2.00924270e+00     2.54699322e+00      -9.95569035e-01     
O    1.89176997e-01      -2.51613823e+00     -1.09744449e+00     
H    -6.77002692e-01     -2.92947937e+00     -1.04851855e+00     
H    6.43004343e-01      -2.93604055e+00     -1.83273828e+00     
O    -4.35262217e+00     1.12226283e+00      6.86508261e-01      
H    -4.67327266e+00     1.32518279e+00      1.56676016e+00      
H    -4.75147564e+00     2.78275873e-01      4.41986032e-01      
O    -4.63263072e+00     -1.96625976e+00     2.52655267e+00      
H    -4.97515031e+00     -2.07248835e+00     1.62840759e+00      
H    -5.04911726e+00     -2.63551362e+00     3.07680360e+00      
O    -5.01965612e+00     -1.53655144e+00     -2.04261707e-01     
H    -5.64405748e+00     -1.80699123e+00     -8.82290700e-01     
H    -4.14406927e+00     -1.71586412e+00     -5.60138930e-01     
O    2.51810473e+00      1.26084539e+00      4.25109607e-01      
H    2.65803879e+00      2.20745393e+00      4.99919000e-01      
H    3.39291465e+00      8.83129023e-01      3.09919722e-01      
29
1175.314541
N    3.29554808e-02      -1.80249913e-03     5.39618842e-02      
H    8.52939382e-02      -8.59488504e-01     -5.35787322e-01     
H    9.60783542e-01      4.61951385e-01      8.58090772e-02      
H    -6.82023936e-01     6.63081413e-01      -3.22340859e-01     
C    -3.15545052e-01     -3.66978598e-01     1.44662501e+00      
H    4.43364631e-01      -1.04071409e+00     1.83430633e+00      
H    -3.44368493e-01     5.29897885e-01      2.05828919e+00      
C    -1.68399470e+00     -1.02816442e+00     1.41370285e+00      
O    -2.20235778e+00     -1.42851911e+00     3.86484783e-01      
O    -2.17483439e+00     -1.11256321e+00     2.62818081e+00      
H    -3.10631360e+00     -1.49847441e+00     2.58813357e+00      
O    -1.92791171e+00     1.80171253e+00      -3.98427226e-01     
H    -2.81964518e+00     1.63240695e+00      -4.46695320e-02     
H    -2.00890611e+00     2.54683007e+00      -9.95718771e-01     
O    1.89122230e-01      -2.51615963e+00     -1.09745504e+00     
H    -6.76987691e-01     -2.92961698e+00     -1.04841891e+00     
H    6.43246027e-01      -2.93571583e+00     -1.83273380e+00     
O    -4.35262515e+00     1.12225846e+00      6.86507298e-01      
H    -4.67315505e+00     1.32522541e+00      1.56677397e+00      
H    -4.75144761e+00     2.78275228e-01      4.41919401e-01      
O    -4.63262643e+00     -1.96626241e+00     2.52652661e+00      
H    -4.97523383e+00     -2.07244169e+00     1.62841286e+00      
H    -5.04900381e+00     -2.63547677e+00     3.07688298e+00      
O    -5.01965336e+00     -1.53656266e+00     -2.04277071e-01     
H    -5.64419401e+00     -1.80691678e+00     -8.82171652e-01     
H    -4.14399977e+00     -1.71575994e+00     -5.60049801e-01     
O    2.51810021e+00      1.26088161e+00      4.25084446e-01      
H    2.65807014e+00      2.20747187e+00      4.99898422e-01      
H    3.39279322e+00      8.82947318e-01      3.09830106e-01      
29
1175.314541
N    3.13440423e-02      -1.79024703e-03     5.25724444e-02      
H    9.24485862e-02      -8.60463646e-01     -5.35436138e-01     
H    9.62206251e-01      4.56349430e-01      9.78012510e-02      
H    -6.74930452e-01     6.67799941e-01      -3.31185281e-01     
C    -3.15101026e-01     -3.67882492e-01     1.44895672e+00      
H    4.55137781e-01      -1.03436658e+00     1.82820810e+00      
H    -3.45783487e-01     5.29090981e-01      2.06068715e+00      
C    -1.68519120e+00     -1.02706327e+00     1.41373462e+00      
O    -2.20229431e+00     -1.42875624e+00     3.86453029e-01      
O    -2.17445216e+00     -1.11265119e+00     2.62759380e+00      
H    -3.10589828e+00     -1.49847615e+00     2.58978219e+00      
O    -1.92799391e+00     1.80157449e+00      -3.98309709e-01     
H    -2.81997991e+00     1.63333878e+00      -4.46871944e-02     
H    -2.00823292e+00     2.54650378e+00      -9.96018244e-01     
O    1.89012695e-01      -2.51620244e+00     -1.09747615e+00     
H    -6.76957690e-01     -2.92989220e+00     -1.04821963e+00     
H    6.43729394e-01      -2.93506637e+00     -1.83272485e+00     
O    -4.35263113e+00     1.12224970e+00      6.86505372e-01      
H    -4.67291981e+00     1.32531064e+00      1.56680158e+00      
H    -4.75139157e+00     2.78273937e-01      4.41786140e-01      
O    -4.63261783e+00     -1.96626770e+00     2.52647448e+00      
H    -4.97540087e+00     -2.07234837e+00     1.62842339e+00      
H    -5.04877689e+00     -2.63540307e+00     3.07704173e+00      
O    -5.01964785e+00     -1.53658511e+00     -2.04307798e-01     
H    -5.64446706e+00     -1.80676787e+00     -8.81933555e-01     
H    -4.14386078e+00     -1.71555159e+00     -5.59871544e-01     
O    2.51809117e+00      1.26095405e+00      4.25034125e-01      
H    2.65813282e+00      2.20750774e+00      4.99857265e-01      
H    3.39255038e+00      8.82583906e-01      3.09650875e-01      
29
1175.314541
N    2.97326038e-02      -1.77799492e-03     5.11830045e-02      
H    9.96032341e-02      -8.61438789e-01     -5.35084954e-01     
H    9.63628961e-01      4.50747475e-01      1.09793425e-01      
H    -6.67836969e-01     6.72518470e-01      -3.40029704e-01     
C    -3.14657000e-01     -3.68786386e-01     1.45128844e+00      
H    4.66910930e-01      -1.02801907e+00     1.82210988e+00      
H    -3.47198480e-01     5.28284078e-01      2.06308512e+00      
C    -1.68638769e+00     -1.02596212e+00     1.41376640e+00      
O    -2.20223084e+00     -1.42899338e+00     3.86421275e-01      
O    -2.17406994e+00     -1.11273918e+00     2.62700678e+00      
H    -3.10548295e+00     -1.49847789e+00     2.59143081e+00      
O    -1.92807610e+00     1.80143645e+00      -3.98192193e-01     
H    -2.82031463e+00     1.63427060e+00      -4.47048568e-02     
H    -2.00755974e+00     2.54617748e+00      -9.96317716e-01     
O    1.88903161e-01      -2.51624526e+00     -1.09749725e+00     
H    -6.76927689e-01     -2.93016743e+00     -1.04802035e+00     
H    6.44212761e-01      -2.93441691e+00     -1.83271590e+00     
O    -4.35263710e+00     1.12224095e+00      6.86503446e-01      
H    -4.67268458e+00     1.32539586e+00      1.56682920e+00      
H    -4.75133553e+00     2.78272646e-01      4.41652879e-01      
O    -4.63260923e+00     -1.96627299e+00     2.52642235e+00      
H    -4.97556791e+00     -2.07225506e+00     1.62843392e+00      
H    -5.04854997e+00     -2.63532937e+00     3.07720049e+00      
O    -5.01964234e+00     -1.53660756e+00     -2.04338525e-01     
H    -5.64474010e+00     -1.80661896e+00     -8.81695458e-01     
H    -4.14372178e+00     -1.71534324e+00     -5.59693287e-01     
O    2.51808213e+00      1.26102648e+00      4.24983803e-01      
H    2.65819550e+00      2.20754362e+00      4.99816109e-01      
H    3.39230754e+00      8.82220494e-01      3.09471644e-01      
29
1175.314541
N    2.81211653e-02      -1.76574282e-03     4.97935647e-02      
H    1.06757882e-01      -8.62413931e-01     -5.34733770e-01     
H    9.65051671e-01      4.45145521e-01      1.21785598e-01      
H    -6.60743485e-01     6.77236998e-01      -3.48874126e-01     
C    -3.14212975e-01     -3.69690280e-01     1.45362015e+00      
H    4.78684079e-01      -1.02167155e+00     1.81601165e+00      
H    -3.48613474e-01     5.27477174e-01      2.06548308e+00      
C    -1.68758418e+00     -1.02486097e+00     1.41379817e+00      
O    -2.20216737e+00     -1.42923051e+00     3.86389521e-01      
O    -2.17368772e+00     -1.11282716e+00     2.62641977e+00      
H    -3.10506763e+00     -1.49847963e+00     2.59307943e+00      
O    -1.92815830e+00     1.80129841e+00      -3.98074676e-01     
H    -2.82064936e+00     1.63520243e+00      -4.47225192e-02     
H    -2.00688656e+00     2.54585119e+00      -9.96617188e-01     
O    1.88793626e-01      -2.51628807e+00     -1.09751835e+00     
H    -6.76897688e-01     -2.93044265e+00     -1.04782107e+00     
H    6.44696129e-01      -2.93376746e+00     -1.83270694e+00     
O    -4.35264307e+00     1.12223220e+00      6.86501521e-01      
H    -4.67244935e+00     1.32548109e+00      1.56685681e+00      
H    -4.75127949e+00     2.78271355e-01      4.41519617e-01      
O    -4.63260063e+00     -1.96627828e+00     2.52637023e+00      
H    -4.97573495e+00     -2.07216174e+00     1.62844444e+00      
H    -5.04832305e+00     -2.63525566e+00     3.07735925e+00      
O    -5.01963683e+00     -1.53663001e+00     -2.04369253e-01     
H    -5.64501315e+00     -1.80647005e+00     -8.81457361e-01     
H    -4.14358279e+00     -1.71513489e+00     -5.59515031e-01     
O    2.51807310e+00      1.26109892e+00      4.24933481e-01      
H    2.65825818e+00      2.20757950e+00      4.99774952e-01      
H    3.39206469e+00      8.81857082e-01      3.09292413e-01      
29
1175.314541
N    2.65097268e-02      -1.75349071e-03     4.84041249e-02      
H    1.13912530e-01      -8.63389073e-01     -5.34382585e-01     
H    9.66474381e-01      4.39543566e-01      1.33777772e-01      
H    -6.53650001e-01     6.81955527e-01      -3.57718549e-01     
C    -3.13768949e-01     -3.70594173e-01     1.45595187e+00      
H    4.90457228e-01      -1.01532404e+00     1.80991343e+00      
H    -3.50028467e-01     5.26670271e-01      2.06788104e+00      
C    -1.68878067e+00     -1.02375982e+00     1.41382995e+00      
O    -2.20210390e+00     -1.42946764e+00     3.86357768e-01      
O    -2.17330550e+00     -1.11291515e+00     2.62583275e+00      
H    -3.10465230e+00     -1.49848136e+00     2.59472804e+00      
O    -1.92824049e+00     1.80116036e+00      -3.97957160e-01     
H    -2.82098408e+00     1.63613425e+00      -4.47401816e-02     
H    -2.00621338e+00     2.54552489e+00      -9.96916660e-01     
O    1.88684092e-01      -2.51633088e+00     -1.09753945e+00     
H    -6.76867687e-01     -2.93071787e+00     -1.04762179e+00     
H    6.45179496e-01      -2.93311800e+00     -1.83269799e+00     
O    -4.35264904e+00     1.12222345e+00      6.86499595e-01      
H    -4.67221412e+00     1.32556632e+00      1.56688443e+00      
H    -4.75122344e+00     2.78270065e-01      4.41386356e-01      
O    -4.63259204e+00     -1.96628357e+00     2.52631810e+00      
H    -4.97590199e+00     -2.07206843e+00     1.62845497e+00      
H    -5.04809614e+00     -2.63518196e+00     3.07751801e+00      
O    -5.01963131e+00     -1.53665246e+00     -2.04399980e-01     
H    -5.64528620e+00     -1.80632114e+00     -8.81219265e-01     
H    -4.14344380e+00     -1.71492654e+00     -5.59336774e-01     
O    2.51806406e+00      1.26117135e+00      4.24883159e-01      
H    2.65832087e+00      2.20761538e+00      4.99733795e-01      
H    3.39182185e+00      8.81493671e-01      3.09113182e-01      
29
1175.314541
N    2.32868498e-02      -1.72898650e-03     4.56252453e-02      
H    1.28221826e-01      -8.65339357e-01     -5.33680217e-01     
H    9.69319800e-01      4.28339657e-01      1.57762120e-01      
H    -6.39463034e-01     6.91392584e-01      -3.75407394e-01     
C    -3.12880897e-01     -3.72401961e-01     1.46061530e+00      
H    5.14003526e-01      -1.00262902e+00     1.79771698e+00      
H    -3.52858454e-01     5.25056464e-01      2.07267697e+00      
C    -1.69117365e+00     -1.02155752e+00     1.41389350e+00      
O    -2.20197696e+00     -1.42994190e+00     3.86294260e-01      
O    -2.17254105e+00     -1.11309111e+00     2.62465873e+00      
H    -3.10382165e+00     -1.49848484e+00     2.59802528e+00      
O    -1.92840488e+00     1.80088428e+00      -3.97722127e-01     
H    -2.82165354e+00     1.63799791e+00      -4.47755065e-02     
H    -2.00486701e+00     2.54487230e+00      -9.97515605e-01     
O    1.88465022e-01      -2.51641650e+00     -1.09758166e+00     
H    -6.76807686e-01     -2.93126832e+00     -1.04722323e+00     
H    6.46146231e-01      -2.93181909e+00     -1.83268008e+00     
O    -4.35266099e+00     1.12220594e+00      6.86495743e-01      
H    -4.67174365e+00     1.32573678e+00      1.56693965e+00      
H    -4.75111136e+00     2.78267483e-01      4.41119833e-01      
O    -4.63257484e+00     -1.96629415e+00     2.52621384e+00      
H    -4.97623606e+00     -2.07188180e+00     1.62847603e+00      
H    -5.04764230e+00     -2.63503455e+00     3.07783553e+00      
O    -5.01962029e+00     -1.53669737e+00     -2.04461435e-01     
H    -5.64583230e+00     -1.80602332e+00     -8.80743071e-01     
H    -4.14316581e+00     -1.71450984e+00     -5.58980260e-01     
O    2.51804599e+00      1.26131622e+00      4.24782515e-01      
H    2.65844623e+00      2.20768713e+00      4.99651482e-01      
H    3.39133617e+00      8.80766847e-01      3.08754720e-01      
