29
1500.319495
N    3.80643078e-02      -3.83687742e-04     6.16193346e-02      
H    7.11954489e-02      -8.46647768e-01     -5.41605482e-01     
H    9.59926915e-01      4.72779133e-01      2.95837373e-02      
H    -6.87710328e-01     6.47191227e-01      -3.20324430e-01     
C    -3.17008935e-01     -3.67802336e-01     1.45898236e+00      
H    4.18897938e-01      -1.13025011e+00     1.73476659e+00      
H    -4.04919298e-01     6.05607892e-01      1.95332703e+00      
C    -1.67660044e+00     -1.02905624e+00     1.40863678e+00      
O    -2.20296591e+00     -1.42809353e+00     3.87114513e-01      
O    -2.17648730e+00     -1.11261717e+00     2.63246184e+00      
H    -3.10840952e+00     -1.49822830e+00     2.57598727e+00      
O    -1.92749946e+00     1.80175553e+00      -3.98594027e-01     
H    -2.81978559e+00     1.63272102e+00      -4.54898890e-02     
H    -2.01237391e+00     2.54753708e+00      -9.94701103e-01     
O    1.89340117e-01      -2.51583311e+00     -1.09730269e+00     
H    -6.76444367e-01     -2.93033695e+00     -1.04974236e+00     
H    6.40814704e-01      -2.93799988e+00     -1.83308766e+00     
O    -4.35263324e+00     1.12231720e+00      6.86433919e-01      
H    -4.67363066e+00     1.32450169e+00      1.56695598e+00      
H    -4.75117545e+00     2.78001282e-01      4.42858743e-01      
O    -4.63256822e+00     -1.96617834e+00     2.52684159e+00      
H    -4.97452170e+00     -2.07339918e+00     1.62863130e+00      
H    -5.05079497e+00     -2.63635799e+00     3.07500891e+00      
O    -5.01973414e+00     -1.53642294e+00     -2.03976672e-01     
H    -5.64161865e+00     -1.80796701e+00     -8.84366374e-01     
H    -4.14520488e+00     -1.71692221e+00     -5.61872175e-01     
O    2.51769112e+00      1.26053860e+00      4.25254340e-01      
H    2.66094836e+00      2.20697994e+00      4.99840549e-01      
H    3.39434523e+00      8.86183309e-01      3.10377135e-01      
29
1500.319495
N    3.75928203e-02      -7.44516641e-04     6.03996919e-02      
H    7.11427473e-02      -8.49370381e-01     -5.40326534e-01     
H    9.59429717e-01      4.72873174e-01      3.76439854e-02      
H    -6.89835472e-01     6.48804509e-01      -3.16406326e-01     
C    -3.16864977e-01     -3.67144455e-01     1.45472716e+00      
H    4.19128037e-01      -1.11103986e+00     1.76270064e+00      
H    -3.89074100e-01     5.87083842e-01      1.97836859e+00      
C    -1.67785076e+00     -1.02938386e+00     1.40988741e+00      
O    -2.20284561e+00     -1.42808136e+00     3.86972957e-01      
O    -2.17626518e+00     -1.11255968e+00     2.63168509e+00      
H    -3.10809321e+00     -1.49828896e+00     2.57819954e+00      
O    -1.92756142e+00     1.80181380e+00      -3.98611085e-01     
H    -2.81958313e+00     1.63217659e+00      -4.52759686e-02     
H    -2.01184355e+00     2.54752347e+00      -9.94805784e-01     
O    1.89340412e-01      -2.51589334e+00     -1.09733023e+00     
H    -6.76595198e-01     -2.93001935e+00     -1.04951113e+00     
H    6.41180851e-01      -2.93775359e+00     -1.83300367e+00     
O    -4.35262823e+00     1.12230689e+00      6.86453227e-01      
H    -4.67362937e+00     1.32464000e+00      1.56689667e+00      
H    -4.75127151e+00     2.78070414e-01      4.42690538e-01      
O    -4.63258707e+00     -1.96619672e+00     2.52678890e+00      
H    -4.97461621e+00     -2.07320646e+00     1.62857143e+00      
H    -5.05046063e+00     -2.63617454e+00     3.07539805e+00      
O    -5.01971670e+00     -1.53644664e+00     -2.04036408e-01     
H    -5.64212597e+00     -1.80777891e+00     -8.83936741e-01     
H    -4.14497310e+00     -1.71673582e+00     -5.61505710e-01     
O    2.51779791e+00      1.26058814e+00      4.25237028e-01      
H    2.66019746e+00      2.20708498e+00      4.99875595e-01      
H    3.39407865e+00      8.85556017e-01      3.10329993e-01      
29
1500.319495
N    3.73570766e-02      -9.24931091e-04     5.97898706e-02      
H    7.11163965e-02      -8.50731688e-01     -5.39687060e-01     
H    9.59181118e-01      4.72920194e-01      4.16741095e-02      
H    -6.90898044e-01     6.49611150e-01      -3.14447274e-01     
C    -3.16792998e-01     -3.66815514e-01     1.45259956e+00      
H    4.19243086e-01      -1.10143473e+00     1.77666766e+00      
H    -3.81151501e-01     5.77821817e-01      1.99088937e+00      
C    -1.67847592e+00     -1.02954767e+00     1.41051272e+00      
O    -2.20278546e+00     -1.42807528e+00     3.86902179e-01      
O    -2.17615413e+00     -1.11253094e+00     2.63129671e+00      
H    -3.10793505e+00     -1.49831929e+00     2.57930567e+00      
O    -1.92759241e+00     1.80184294e+00      -3.98619614e-01     
H    -2.81948190e+00     1.63190438e+00      -4.51690083e-02     
H    -2.01157837e+00     2.54751667e+00      -9.94858124e-01     
O    1.89340560e-01      -2.51592345e+00     -1.09734400e+00     
H    -6.76670614e-01     -2.92986054e+00     -1.04939552e+00     
H    6.41363924e-01      -2.93763045e+00     -1.83296168e+00     
O    -4.35262573e+00     1.12230174e+00      6.86462881e-01      
H    -4.67362873e+00     1.32470916e+00      1.56686701e+00      
H    -4.75131954e+00     2.78104980e-01      4.42606436e-01      
O    -4.63259650e+00     -1.96620590e+00     2.52676256e+00      
H    -4.97466347e+00     -2.07311010e+00     1.62854149e+00      
H    -5.05029347e+00     -2.63608281e+00     3.07559262e+00      
O    -5.01970798e+00     -1.53645850e+00     -2.04066276e-01     
H    -5.64237962e+00     -1.80768486e+00     -8.83721925e-01     
H    -4.14485721e+00     -1.71664262e+00     -5.61322477e-01     
O    2.51785131e+00      1.26061290e+00      4.25228372e-01      
H    2.65982201e+00      2.20713750e+00      4.99893119e-01      
H    3.39394536e+00      8.85242371e-01      3.10306422e-01      
29
1500.319495
N    3.71213328e-02      -1.10534554e-03     5.91800492e-02      
H    7.10900457e-02      -8.52092994e-01     -5.39047586e-01     
H    9.58932519e-01      4.72967214e-01      4.57042335e-02      
H    -6.91960616e-01     6.50417792e-01      -3.12488222e-01     
C    -3.16721019e-01     -3.66486574e-01     1.45047197e+00      
H    4.19358136e-01      -1.09182961e+00     1.79063468e+00      
H    -3.73228902e-01     5.68559792e-01      2.00341015e+00      
C    -1.67910108e+00     -1.02971148e+00     1.41113804e+00      
O    -2.20272531e+00     -1.42806919e+00     3.86831402e-01      
O    -2.17604307e+00     -1.11250220e+00     2.63090834e+00      
H    -3.10777689e+00     -1.49834962e+00     2.58041181e+00      
O    -1.92762339e+00     1.80187207e+00      -3.98628143e-01     
H    -2.81938066e+00     1.63163216e+00      -4.50620481e-02     
H    -2.01131319e+00     2.54750987e+00      -9.94910465e-01     
O    1.89340708e-01      -2.51595356e+00     -1.09735777e+00     
H    -6.76746030e-01     -2.92970174e+00     -1.04927991e+00     
H    6.41546998e-01      -2.93750731e+00     -1.83291968e+00     
O    -4.35262323e+00     1.12229658e+00      6.86472535e-01      
H    -4.67362809e+00     1.32477832e+00      1.56683736e+00      
H    -4.75136757e+00     2.78139546e-01      4.42522334e-01      
O    -4.63260592e+00     -1.96621509e+00     2.52673622e+00      
H    -4.97471073e+00     -2.07301375e+00     1.62851155e+00      
H    -5.05012630e+00     -2.63599109e+00     3.07578719e+00      
O    -5.01969927e+00     -1.53647035e+00     -2.04096144e-01     
H    -5.64263328e+00     -1.80759081e+00     -8.83507109e-01     
H    -4.14474132e+00     -1.71654942e+00     -5.61139245e-01     
O    2.51790470e+00      1.26063767e+00      4.25219715e-01      
H    2.65944656e+00      2.20719002e+00      4.99910642e-01      
H    3.39381207e+00      8.84928725e-01      3.10282851e-01      
29
1500.319495
N    3.68855891e-02      -1.28575999e-03     5.85702279e-02      
H    7.10636948e-02      -8.53454301e-01     -5.38408112e-01     
H    9.58683919e-01      4.73014234e-01      4.97343576e-02      
H    -6.93023188e-01     6.51224433e-01      -3.10529170e-01     
C    -3.16649040e-01     -3.66157633e-01     1.44834437e+00      
H    4.19473185e-01      -1.08222448e+00     1.80460171e+00      
H    -3.65306303e-01     5.59297767e-01      2.01593092e+00      
C    -1.67972624e+00     -1.02987529e+00     1.41176335e+00      
O    -2.20266517e+00     -1.42806311e+00     3.86760624e-01      
O    -2.17593201e+00     -1.11247346e+00     2.63051996e+00      
H    -3.10761873e+00     -1.49837995e+00     2.58151794e+00      
O    -1.92765437e+00     1.80190121e+00      -3.98636672e-01     
H    -2.81927943e+00     1.63135995e+00      -4.49550879e-02     
H    -2.01104801e+00     2.54750307e+00      -9.94962805e-01     
O    1.89340856e-01      -2.51598367e+00     -1.09737153e+00     
H    -6.76821446e-01     -2.92954294e+00     -1.04916430e+00     
H    6.41730071e-01      -2.93738417e+00     -1.83287769e+00     
O    -4.35262072e+00     1.12229143e+00      6.86482189e-01      
H    -4.67362744e+00     1.32484748e+00      1.56680770e+00      
H    -4.75141561e+00     2.78174112e-01      4.42438231e-01      
O    -4.63261535e+00     -1.96622427e+00     2.52670988e+00      
H    -4.97475798e+00     -2.07291739e+00     1.62848161e+00      
H    -5.04995914e+00     -2.63589936e+00     3.07598175e+00      
O    -5.01969055e+00     -1.53648220e+00     -2.04126012e-01     
H    -5.64288694e+00     -1.80749676e+00     -8.83292293e-01     
H    -4.14462543e+00     -1.71645623e+00     -5.60956012e-01     
O    2.51795810e+00      1.26066244e+00      4.25211059e-01      
H    2.65907112e+00      2.20724254e+00      4.99928165e-01      
H    3.39367878e+00      8.84615079e-01      3.10259281e-01      
29
1500.319495
N    3.66498453e-02      -1.46617444e-03     5.79604065e-02      
H    7.10373440e-02      -8.54815607e-01     -5.37768639e-01     
H    9.58435320e-01      4.73061254e-01      5.37644816e-02      
H    -6.94085759e-01     6.52031074e-01      -3.08570118e-01     
C    -3.16577061e-01     -3.65828692e-01     1.44621677e+00      
H    4.19588234e-01      -1.07261936e+00     1.81856873e+00      
H    -3.57383704e-01     5.50035742e-01      2.02845170e+00      
C    -1.68035140e+00     -1.03003910e+00     1.41238867e+00      
O    -2.20260502e+00     -1.42805702e+00     3.86689846e-01      
O    -2.17582095e+00     -1.11244472e+00     2.63013159e+00      
H    -3.10746057e+00     -1.49841028e+00     2.58262407e+00      
O    -1.92768535e+00     1.80193035e+00      -3.98645201e-01     
H    -2.81917820e+00     1.63108773e+00      -4.48481277e-02     
H    -2.01078283e+00     2.54749626e+00      -9.95015146e-01     
O    1.89341003e-01      -2.51601379e+00     -1.09738530e+00     
H    -6.76896861e-01     -2.92938414e+00     -1.04904869e+00     
H    6.41913145e-01      -2.93726102e+00     -1.83283570e+00     
O    -4.35261822e+00     1.12228627e+00      6.86491842e-01      
H    -4.67362680e+00     1.32491663e+00      1.56677805e+00      
H    -4.75146364e+00     2.78208677e-01      4.42354129e-01      
O    -4.63262477e+00     -1.96623346e+00     2.52668354e+00      
H    -4.97480524e+00     -2.07282103e+00     1.62845168e+00      
H    -5.04979197e+00     -2.63580763e+00     3.07617632e+00      
O    -5.01968183e+00     -1.53649405e+00     -2.04155880e-01     
H    -5.64314060e+00     -1.80740270e+00     -8.83077477e-01     
H    -4.14450954e+00     -1.71636303e+00     -5.60772780e-01     
O    2.51801149e+00      1.26068721e+00      4.25202403e-01      
H    2.65869567e+00      2.20729507e+00      4.99945688e-01      
H    3.39354549e+00      8.84301433e-01      3.10235710e-01      
29
1500.319495
N    3.65319734e-02      -1.55638167e-03     5.76554958e-02      
H    7.10241686e-02      -8.55496260e-01     -5.37448902e-01     
H    9.58311021e-01      4.73084764e-01      5.57795436e-02      
H    -6.94617045e-01     6.52434394e-01      -3.07590592e-01     
C    -3.16541071e-01     -3.65664222e-01     1.44515298e+00      
H    4.19645759e-01      -1.06781680e+00     1.82555224e+00      
H    -3.53422404e-01     5.45404730e-01      2.03471209e+00      
C    -1.68066398e+00     -1.03012100e+00     1.41270133e+00      
O    -2.20257494e+00     -1.42805398e+00     3.86654457e-01      
O    -2.17576542e+00     -1.11243035e+00     2.62993740e+00      
H    -3.10738149e+00     -1.49842544e+00     2.58317714e+00      
O    -1.92770085e+00     1.80194492e+00      -3.98649465e-01     
H    -2.81912758e+00     1.63095162e+00      -4.47946475e-02     
H    -2.01065024e+00     2.54749286e+00      -9.95041316e-01     
O    1.89341077e-01      -2.51602884e+00     -1.09739219e+00     
H    -6.76934569e-01     -2.92930473e+00     -1.04899089e+00     
H    6.42004682e-01      -2.93719945e+00     -1.83281470e+00     
O    -4.35261697e+00     1.12228369e+00      6.86496669e-01      
H    -4.67362648e+00     1.32495121e+00      1.56676322e+00      
H    -4.75148765e+00     2.78225960e-01      4.42312078e-01      
O    -4.63262948e+00     -1.96623805e+00     2.52667037e+00      
H    -4.97482887e+00     -2.07277286e+00     1.62843671e+00      
H    -5.04970839e+00     -2.63576177e+00     3.07627361e+00      
O    -5.01967747e+00     -1.53649998e+00     -2.04170814e-01     
H    -5.64326742e+00     -1.80735568e+00     -8.82970069e-01     
H    -4.14445159e+00     -1.71631643e+00     -5.60681164e-01     
O    2.51803819e+00      1.26069959e+00      4.25198074e-01      
H    2.65850794e+00      2.20732133e+00      4.99954450e-01      
H    3.39347884e+00      8.84144610e-01      3.10223924e-01      
29
1500.319495
N    3.64141016e-02      -1.64658889e-03     5.73505852e-02      
H    7.10109932e-02      -8.56176914e-01     -5.37129165e-01     
H    9.58186721e-01      4.73108274e-01      5.77946057e-02      
H    -6.95148331e-01     6.52837715e-01      -3.06611066e-01     
C    -3.16505082e-01     -3.65499752e-01     1.44408918e+00      
H    4.19703284e-01      -1.06301423e+00     1.83253576e+00      
H    -3.49461105e-01     5.40773717e-01      2.04097248e+00      
C    -1.68097656e+00     -1.03020291e+00     1.41301398e+00      
O    -2.20254487e+00     -1.42805094e+00     3.86619068e-01      
O    -2.17570989e+00     -1.11241598e+00     2.62974321e+00      
H    -3.10730241e+00     -1.49844061e+00     2.58373021e+00      
O    -1.92771634e+00     1.80195948e+00      -3.98653730e-01     
H    -2.81907696e+00     1.63081552e+00      -4.47411674e-02     
H    -2.01051765e+00     2.54748946e+00      -9.95067486e-01     
O    1.89341151e-01      -2.51604390e+00     -1.09739907e+00     
H    -6.76972277e-01     -2.92922533e+00     -1.04893308e+00     
H    6.42096218e-01      -2.93713788e+00     -1.83279370e+00     
O    -4.35261571e+00     1.12228112e+00      6.86501496e-01      
H    -4.67362615e+00     1.32498579e+00      1.56674839e+00      
H    -4.75151167e+00     2.78243243e-01      4.42270026e-01      
O    -4.63263420e+00     -1.96624264e+00     2.52665720e+00      
H    -4.97485249e+00     -2.07272468e+00     1.62842174e+00      
H    -5.04962481e+00     -2.63571591e+00     3.07637089e+00      
O    -5.01967311e+00     -1.53650591e+00     -2.04185748e-01     
H    -5.64339425e+00     -1.80730865e+00     -8.82862661e-01     
H    -4.14439365e+00     -1.71626984e+00     -5.60589547e-01     
O    2.51806489e+00      1.26071197e+00      4.25193746e-01      
H    2.65832022e+00      2.20734759e+00      4.99963212e-01      
H    3.39341220e+00      8.83987787e-01      3.10212139e-01      
29
1500.319495
N    3.59426140e-02      -2.00741779e-03     5.61309424e-02      
H    7.09582916e-02      -8.58899526e-01     -5.35850217e-01     
H    9.57689523e-01      4.73202314e-01      6.58548537e-02      
H    -6.97273475e-01     6.54450997e-01      -3.02692962e-01     
C    -3.16361124e-01     -3.64841870e-01     1.43983398e+00      
H    4.19933382e-01      -1.04380399e+00     1.86046980e+00      
H    -3.33615907e-01     5.22249667e-01      2.06601404e+00      
C    -1.68222688e+00     -1.03053053e+00     1.41426462e+00      
O    -2.20242457e+00     -1.42803876e+00     3.86477512e-01      
O    -2.17548777e+00     -1.11235850e+00     2.62896647e+00      
H    -3.10698609e+00     -1.49850127e+00     2.58594247e+00      
O    -1.92777830e+00     1.80201776e+00      -3.98670788e-01     
H    -2.81887450e+00     1.63027108e+00      -4.45272470e-02     
H    -2.00998729e+00     2.54747586e+00      -9.95172168e-01     
O    1.89341447e-01      -2.51610412e+00     -1.09742661e+00     
H    -6.77123109e-01     -2.92890773e+00     -1.04870186e+00     
H    6.42462366e-01      -2.93689160e+00     -1.83270972e+00     
O    -4.35261071e+00     1.12227080e+00      6.86520804e-01      
H    -4.67362487e+00     1.32512411e+00      1.56668909e+00      
H    -4.75160773e+00     2.78312375e-01      4.42101822e-01      
O    -4.63265304e+00     -1.96626102e+00     2.52660452e+00      
H    -4.97494701e+00     -2.07253196e+00     1.62836186e+00      
H    -5.04929047e+00     -2.63553245e+00     3.07676003e+00      
O    -5.01965567e+00     -1.53652961e+00     -2.04245484e-01     
H    -5.64390157e+00     -1.80712055e+00     -8.82433029e-01     
H    -4.14416187e+00     -1.71608344e+00     -5.60223083e-01     
O    2.51817167e+00      1.26076151e+00      4.25176434e-01      
H    2.65756932e+00      2.20745263e+00      4.99998258e-01      
H    3.39314562e+00      8.83360495e-01      3.10164997e-01      
29
1500.319495
N    3.58247422e-02      -2.09762501e-03     5.58260318e-02      
H    7.09451162e-02      -8.59580180e-01     -5.35530480e-01     
H    9.57565223e-01      4.73225824e-01      6.78699158e-02      
H    -6.97804761e-01     6.54854318e-01      -3.01713436e-01     
C    -3.16325135e-01     -3.64677400e-01     1.43877018e+00      
H    4.19990907e-01      -1.03900142e+00     1.86745332e+00      
H    -3.29654608e-01     5.17618654e-01      2.07227443e+00      
C    -1.68253946e+00     -1.03061244e+00     1.41457727e+00      
O    -2.20239450e+00     -1.42803572e+00     3.86442123e-01      
O    -2.17543224e+00     -1.11234413e+00     2.62877228e+00      
H    -3.10690701e+00     -1.49851644e+00     2.58649554e+00      
O    -1.92779379e+00     1.80203232e+00      -3.98675053e-01     
H    -2.81882388e+00     1.63013498e+00      -4.44737669e-02     
H    -2.00985470e+00     2.54747246e+00      -9.95198338e-01     
O    1.89341521e-01      -2.51611918e+00     -1.09743349e+00     
H    -6.77160817e-01     -2.92882833e+00     -1.04864405e+00     
H    6.42553902e-01      -2.93683003e+00     -1.83268872e+00     
O    -4.35260945e+00     1.12226823e+00      6.86525631e-01      
H    -4.67362454e+00     1.32515869e+00      1.56667426e+00      
H    -4.75163175e+00     2.78329658e-01      4.42059770e-01      
O    -4.63265776e+00     -1.96626561e+00     2.52659135e+00      
H    -4.97497063e+00     -2.07248378e+00     1.62834689e+00      
H    -5.04920689e+00     -2.63548659e+00     3.07685731e+00      
O    -5.01965131e+00     -1.53653554e+00     -2.04260418e-01     
H    -5.64402840e+00     -1.80707352e+00     -8.82325621e-01     
H    -4.14410393e+00     -1.71603685e+00     -5.60131466e-01     
O    2.51819837e+00      1.26077389e+00      4.25172106e-01      
H    2.65738160e+00      2.20747889e+00      5.00007020e-01      
H    3.39307898e+00      8.83203672e-01      3.10153212e-01      
29
1500.319495
N    3.57068703e-02      -2.18783224e-03     5.55211211e-02      
H    7.09319408e-02      -8.60260833e-01     -5.35210743e-01     
H    9.57440924e-01      4.73249334e-01      6.98849778e-02      
H    -6.98336047e-01     6.55257638e-01      -3.00733910e-01     
C    -3.16289145e-01     -3.64512930e-01     1.43770639e+00      
H    4.20048432e-01      -1.03419886e+00     1.87443683e+00      
H    -3.25693308e-01     5.12987642e-01      2.07853482e+00      
C    -1.68285204e+00     -1.03069434e+00     1.41488993e+00      
O    -2.20236442e+00     -1.42803268e+00     3.86406734e-01      
O    -2.17537671e+00     -1.11232976e+00     2.62857809e+00      
H    -3.10682793e+00     -1.49853160e+00     2.58704861e+00      
O    -1.92780929e+00     1.80204689e+00      -3.98679317e-01     
H    -2.81877326e+00     1.62999887e+00      -4.44202867e-02     
H    -2.00972211e+00     2.54746906e+00      -9.95224508e-01     
O    1.89341595e-01      -2.51613423e+00     -1.09744038e+00     
H    -6.77198525e-01     -2.92874892e+00     -1.04858625e+00     
H    6.42645439e-01      -2.93676846e+00     -1.83266772e+00     
O    -4.35260820e+00     1.12226565e+00      6.86530458e-01      
H    -4.67362422e+00     1.32519327e+00      1.56665943e+00      
H    -4.75165576e+00     2.78346941e-01      4.42017719e-01      
O    -4.63266247e+00     -1.96627020e+00     2.52657818e+00      
H    -4.97499426e+00     -2.07243561e+00     1.62833192e+00      
H    -5.04912331e+00     -2.63544073e+00     3.07695460e+00      
O    -5.01964695e+00     -1.53654147e+00     -2.04275352e-01     
H    -5.64415522e+00     -1.80702650e+00     -8.82218213e-01     
H    -4.14404598e+00     -1.71599025e+00     -5.60039850e-01     
O    2.51822507e+00      1.26078627e+00      4.25167777e-01      
H    2.65719387e+00      2.20750515e+00      5.00015782e-01      
H    3.39301233e+00      8.83046849e-01      3.10141426e-01      
29
1500.319495
N    3.54711265e-02      -2.36824669e-03     5.49112997e-02      
H    7.09055900e-02      -8.61622139e-01     -5.34571270e-01     
H    9.57192325e-01      4.73296354e-01      7.39151018e-02      
H    -6.99398618e-01     6.56064279e-01      -2.98774858e-01     
C    -3.16217166e-01     -3.64183989e-01     1.43557879e+00      
H    4.20163481e-01      -1.02459374e+00     1.88840385e+00      
H    -3.17770709e-01     5.03725617e-01      2.09105560e+00      
C    -1.68347720e+00     -1.03085815e+00     1.41551525e+00      
O    -2.20230427e+00     -1.42802659e+00     3.86335956e-01      
O    -2.17526565e+00     -1.11230102e+00     2.62818972e+00      
H    -3.10666977e+00     -1.49856193e+00     2.58815474e+00      
O    -1.92784027e+00     1.80207603e+00      -3.98687846e-01     
H    -2.81867203e+00     1.62972665e+00      -4.43133265e-02     
H    -2.00945693e+00     2.54746225e+00      -9.95276849e-01     
O    1.89341742e-01      -2.51616435e+00     -1.09745415e+00     
H    -6.77273940e-01     -2.92859012e+00     -1.04847064e+00     
H    6.42828513e-01      -2.93664531e+00     -1.83262573e+00     
O    -4.35260570e+00     1.12226049e+00      6.86540111e-01      
H    -4.67362358e+00     1.32526242e+00      1.56662978e+00      
H    -4.75170379e+00     2.78381506e-01      4.41933617e-01      
O    -4.63267189e+00     -1.96627939e+00     2.52655184e+00      
H    -4.97504152e+00     -2.07233925e+00     1.62830199e+00      
H    -5.04895614e+00     -2.63534900e+00     3.07714917e+00      
O    -5.01963823e+00     -1.53655332e+00     -2.04305220e-01     
H    -5.64440888e+00     -1.80693244e+00     -8.82003397e-01     
H    -4.14393009e+00     -1.71589705e+00     -5.59856618e-01     
O    2.51827846e+00      1.26081104e+00      4.25159121e-01      
H    2.65681842e+00      2.20755768e+00      5.00033305e-01      
H    3.39287904e+00      8.82733203e-01      3.10117855e-01      
29
1500.319495
N    3.52353828e-02      -2.54866114e-03     5.43014784e-02      
H    7.08792391e-02      -8.62983446e-01     -5.33931796e-01     
H    9.56943725e-01      4.73343374e-01      7.79452259e-02      
H    -7.00461190e-01     6.56870920e-01      -2.96815806e-01     
C    -3.16145187e-01     -3.63855048e-01     1.43345119e+00      
H    4.20278530e-01      -1.01498861e+00     1.90237088e+00      
H    -3.09848110e-01     4.94463592e-01      2.10357637e+00      
C    -1.68410236e+00     -1.03102196e+00     1.41614056e+00      
O    -2.20224413e+00     -1.42802051e+00     3.86265178e-01      
O    -2.17515459e+00     -1.11227228e+00     2.62780134e+00      
H    -3.10651161e+00     -1.49859226e+00     2.58926087e+00      
O    -1.92787125e+00     1.80210517e+00      -3.98696375e-01     
H    -2.81857080e+00     1.62945444e+00      -4.42063663e-02     
H    -2.00919175e+00     2.54745545e+00      -9.95329189e-01     
O    1.89341890e-01      -2.51619446e+00     -1.09746791e+00     
H    -6.77349356e-01     -2.92843132e+00     -1.04835503e+00     
H    6.43011586e-01      -2.93652217e+00     -1.83258374e+00     
O    -4.35260319e+00     1.12225534e+00      6.86549765e-01      
H    -4.67362293e+00     1.32533158e+00      1.56660012e+00      
H    -4.75175183e+00     2.78416072e-01      4.41849514e-01      
O    -4.63268132e+00     -1.96628857e+00     2.52652550e+00      
H    -4.97508877e+00     -2.07224289e+00     1.62827205e+00      
H    -5.04878898e+00     -2.63525727e+00     3.07734373e+00      
O    -5.01962951e+00     -1.53656517e+00     -2.04335088e-01     
H    -5.64466254e+00     -1.80683839e+00     -8.81788581e-01     
H    -4.14381420e+00     -1.71580386e+00     -5.59673385e-01     
O    2.51833186e+00      1.26083581e+00      4.25150465e-01      
H    2.65644298e+00      2.20761020e+00      5.00050828e-01      
H    3.39274575e+00      8.82419557e-01      3.10094285e-01      
29
1500.319495
N    3.49996390e-02      -2.72907559e-03     5.36916570e-02      
H    7.08528883e-02      -8.64344752e-01     -5.33292322e-01     
H    9.56695126e-01      4.73390394e-01      8.19753499e-02      
H    -7.01523762e-01     6.57677562e-01      -2.94856754e-01     
C    -3.16073208e-01     -3.63526108e-01     1.43132360e+00      
H    4.20393580e-01      -1.00538349e+00     1.91633790e+00      
H    -3.01925511e-01     4.85201567e-01      2.11609715e+00      
C    -1.68472752e+00     -1.03118577e+00     1.41676588e+00      
O    -2.20218398e+00     -1.42801442e+00     3.86194401e-01      
O    -2.17504353e+00     -1.11224354e+00     2.62741297e+00      
H    -3.10635345e+00     -1.49862259e+00     2.59036701e+00      
O    -1.92790223e+00     1.80213430e+00      -3.98704904e-01     
H    -2.81846956e+00     1.62918222e+00      -4.40994061e-02     
H    -2.00892657e+00     2.54744865e+00      -9.95381530e-01     
O    1.89342038e-01      -2.51622457e+00     -1.09748168e+00     
H    -6.77424772e-01     -2.92827252e+00     -1.04823942e+00     
H    6.43194660e-01      -2.93639903e+00     -1.83254174e+00     
O    -4.35260069e+00     1.12225018e+00      6.86559419e-01      
H    -4.67362229e+00     1.32540074e+00      1.56657047e+00      
H    -4.75179986e+00     2.78450638e-01      4.41765412e-01      
O    -4.63269074e+00     -1.96629776e+00     2.52649916e+00      
H    -4.97513603e+00     -2.07214654e+00     1.62824211e+00      
H    -5.04862181e+00     -2.63516555e+00     3.07753830e+00      
O    -5.01962080e+00     -1.53657702e+00     -2.04364956e-01     
H    -5.64491620e+00     -1.80674434e+00     -8.81573765e-01     
H    -4.14369831e+00     -1.71571066e+00     -5.59490153e-01     
O    2.51838525e+00      1.26086058e+00      4.25141808e-01      
H    2.65606753e+00      2.20766272e+00      5.00068351e-01      
H    3.39261246e+00      8.82105911e-01      3.10070714e-01      
29
1500.319495
N    3.47638953e-02      -2.90949004e-03     5.30818357e-02      
H    7.08265375e-02      -8.65706059e-01     -5.32652848e-01     
H    9.56446527e-01      4.73437414e-01      8.60054740e-02      
H    -7.02586334e-01     6.58484203e-01      -2.92897702e-01     
C    -3.16001229e-01     -3.63197167e-01     1.42919600e+00      
H    4.20508629e-01      -9.95778362e-01     1.93030492e+00      
H    -2.94002912e-01     4.75939542e-01      2.12861793e+00      
C    -1.68535268e+00     -1.03134958e+00     1.41739119e+00      
O    -2.20212383e+00     -1.42800834e+00     3.86123623e-01      
O    -2.17493248e+00     -1.11221480e+00     2.62702459e+00      
H    -3.10619529e+00     -1.49865292e+00     2.59147314e+00      
O    -1.92793322e+00     1.80216344e+00      -3.98713433e-01     
H    -2.81836833e+00     1.62891001e+00      -4.39924458e-02     
H    -2.00866139e+00     2.54744185e+00      -9.95433870e-01     
O    1.89342186e-01      -2.51625468e+00     -1.09749545e+00     
H    -6.77500188e-01     -2.92811371e+00     -1.04812381e+00     
H    6.43377733e-01      -2.93627589e+00     -1.83249975e+00     
O    -4.35259819e+00     1.12224503e+00      6.86569073e-01      
H    -4.67362165e+00     1.32546990e+00      1.56654081e+00      
H    -4.75184789e+00     2.78485204e-01      4.41681310e-01      
O    -4.63270017e+00     -1.96630694e+00     2.52647282e+00      
H    -4.97518329e+00     -2.07205018e+00     1.62821217e+00      
H    -5.04845465e+00     -2.63507382e+00     3.07773287e+00      
O    -5.01961208e+00     -1.53658888e+00     -2.04394824e-01     
H    -5.64516985e+00     -1.80665029e+00     -8.81358949e-01     
H    -4.14358242e+00     -1.71561746e+00     -5.59306920e-01     
O    2.51843865e+00      1.26088534e+00      4.25133152e-01      
H    2.65569208e+00      2.20771524e+00      5.00085875e-01      
H    3.39247917e+00      8.81792265e-01      3.10047143e-01      
29
1500.319495
N    3.42924078e-02      -3.27031894e-03     5.18621930e-02      
H    7.07738359e-02      -8.68428672e-01     -5.31373900e-01     
H    9.55949329e-01      4.73531455e-01      9.40657221e-02      
H    -7.04711478e-01     6.60097485e-01      -2.88979598e-01     
C    -3.15857271e-01     -3.62539286e-01     1.42494080e+00      
H    4.20738728e-01      -9.76568113e-01     1.95823897e+00      
H    -2.78157714e-01     4.57415492e-01      2.15365949e+00      
C    -1.68660300e+00     -1.03167720e+00     1.41864182e+00      
O    -2.20200353e+00     -1.42799617e+00     3.85982067e-01      
O    -2.17471036e+00     -1.11215731e+00     2.62624784e+00      
H    -3.10587898e+00     -1.49871358e+00     2.59368541e+00      
O    -1.92799518e+00     1.80222171e+00      -3.98730491e-01     
H    -2.81816587e+00     1.62836558e+00      -4.37785254e-02     
H    -2.00813103e+00     2.54742824e+00      -9.95538551e-01     
O    1.89342481e-01      -2.51631491e+00     -1.09752299e+00     
H    -6.77651019e-01     -2.92779611e+00     -1.04789258e+00     
H    6.43743880e-01      -2.93602960e+00     -1.83241576e+00     
O    -4.35259318e+00     1.12223472e+00      6.86588381e-01      
H    -4.67362036e+00     1.32560821e+00      1.56648150e+00      
H    -4.75194395e+00     2.78554336e-01      4.41513105e-01      
O    -4.63271902e+00     -1.96632532e+00     2.52642013e+00      
H    -4.97527780e+00     -2.07185746e+00     1.62815230e+00      
H    -5.04812031e+00     -2.63489037e+00     3.07812201e+00      
O    -5.01959464e+00     -1.53661258e+00     -2.04454560e-01     
H    -5.64567717e+00     -1.80646219e+00     -8.80929316e-01     
H    -4.14335064e+00     -1.71543107e+00     -5.58940455e-01     
O    2.51854544e+00      1.26093488e+00      4.25115840e-01      
H    2.65494118e+00      2.20782028e+00      5.00120921e-01      
H    3.39221259e+00      8.81164973e-01      3.10000001e-01      
