29
1580.465238
N    4.25676654e-02      2.72016027e-03      3.94544491e-02      
H    4.49397222e-02      -9.35356732e-01     -4.46844519e-01     
H    9.65643955e-01      4.76940265e-01      1.49375104e-01      
H    -7.56717855e-01     6.61712659e-01      -2.01875695e-01     
C    -3.18449121e-01     -3.66521983e-01     1.44488815e+00      
H    4.24859230e-01      -1.06202460e+00     1.82375239e+00      
H    -3.46934716e-01     5.45347041e-01      2.03402701e+00      
C    -1.67892508e+00     -1.02861065e+00     1.41527629e+00      
O    -2.20414535e+00     -1.42899194e+00     3.84513467e-01      
O    -2.17581633e+00     -1.11235733e+00     2.62931185e+00      
H    -3.10685693e+00     -1.50076821e+00     2.59183380e+00      
O    -1.92811990e+00     1.80301746e+00      -3.99713518e-01     
H    -2.81399449e+00     1.61996195e+00      -3.90487504e-02     
H    -2.00682121e+00     2.54894680e+00      -9.95250104e-01     
O    1.89775643e-01      -2.51619196e+00     -1.09823793e+00     
H    -6.78320350e-01     -2.92473601e+00     -1.04567852e+00     
H    6.42714633e-01      -2.93890097e+00     -1.83229966e+00     
O    -4.35225121e+00     1.12262043e+00      6.86157626e-01      
H    -4.67713640e+00     1.31988159e+00      1.56671372e+00      
H    -4.75539072e+00     2.78173973e-01      4.47994188e-01      
O    -4.63144521e+00     -1.96495615e+00     2.52695599e+00      
H    -4.98640686e+00     -2.08696063e+00     1.63443357e+00      
H    -5.05810714e+00     -2.64183501e+00     3.06330880e+00      
O    -5.01976003e+00     -1.53584650e+00     -2.02839502e-01     
H    -5.63267380e+00     -1.81187012e+00     -8.90918514e-01     
H    -4.15067238e+00     -1.72167914e+00     -5.73050637e-01     
O    2.51899841e+00      1.26115750e+00      4.24936606e-01      
H    2.65005924e+00      2.20847850e+00      5.00331099e-01      
H    3.39039267e+00      8.77026977e-01      3.09520403e-01      
29
1580.465238
N    4.09703385e-02      1.58336937e-03      4.37760278e-02      
H    5.14509523e-02      -9.15902104e-01     -4.69255812e-01     
H    9.63717497e-01      4.75994022e-01      1.27487510e-01      
H    -7.41591117e-01     6.59695583e-01      -2.27569775e-01     
C    -3.17945117e-01     -3.66184190e-01     1.44415651e+00      
H    4.23599006e-01      -1.05987072e+00     1.82943999e+00      
H    -3.45585664e-01     5.41888204e-01      2.03889358e+00      
C    -1.67959424e+00     -1.02904967e+00     1.41486705e+00      
O    -2.20373019e+00     -1.42875516e+00     3.85022173e-01      
O    -2.17576195e+00     -1.11236481e+00     2.62932260e+00      
H    -3.10692876e+00     -1.50019389e+00     2.59008444e+00      
O    -1.92802675e+00     1.80276025e+00      -3.99450703e-01     
H    -2.81523980e+00     1.62260729e+00      -4.04451146e-02     
H    -2.00767902e+00     2.54858077e+00      -9.95217535e-01     
O    1.89667057e-01      -2.51616247e+00     -1.09803166e+00     
H    -6.78002186e-01     -2.92581864e+00     -1.04646326e+00     
H    6.42605797e-01      -2.93842941e+00     -1.83241267e+00     
O    -4.35234171e+00     1.12253432e+00      6.86246007e-01      
H    -4.67625868e+00     1.32117493e+00      1.56671497e+00      
H    -4.75443297e+00     2.78199932e-01      4.46542122e-01      
O    -4.63174481e+00     -1.96528007e+00     2.52687470e+00      
H    -4.98353009e+00     -2.08337755e+00     1.63292312e+00      
H    -5.05594476e+00     -2.64028230e+00     3.06662297e+00      
O    -5.01973612e+00     -1.53601432e+00     -2.03183530e-01     
H    -5.63541733e+00     -1.81070624e+00     -8.88850847e-01     
H    -4.14907372e+00     -1.72030351e+00     -5.69889556e-01     
O    2.51877838e+00      1.26105231e+00      4.24998727e-01      
H    2.65203062e+00      2.20820890e+00      5.00243508e-01      
H    3.39111423e+00      8.78688768e-01      3.09687444e-01      
29
1580.465238
N    4.01716750e-02      1.01497392e-03      4.59368171e-02      
H    5.47065673e-02      -9.06174790e-01     -4.80461458e-01     
H    9.62754268e-01      4.75520901e-01      1.16543714e-01      
H    -7.34027748e-01     6.58687045e-01      -2.40416815e-01     
C    -3.17693114e-01     -3.66015294e-01     1.44379069e+00      
H    4.22968893e-01      -1.05879379e+00     1.83228379e+00      
H    -3.44911137e-01     5.40158785e-01      2.04132686e+00      
C    -1.67992882e+00     -1.02926918e+00     1.41466242e+00      
O    -2.20352261e+00     -1.42863678e+00     3.85276526e-01      
O    -2.17573476e+00     -1.11236855e+00     2.62932797e+00      
H    -3.10696468e+00     -1.49990673e+00     2.58920975e+00      
O    -1.92798018e+00     1.80263165e+00      -3.99319296e-01     
H    -2.81586245e+00     1.62392995e+00      -4.11432967e-02     
H    -2.00810793e+00     2.54839775e+00      -9.95201250e-01     
O    1.89612764e-01      -2.51614773e+00     -1.09792852e+00     
H    -6.77843104e-01     -2.92635995e+00     -1.04685563e+00     
H    6.42551380e-01      -2.93819364e+00     -1.83246918e+00     
O    -4.35238696e+00     1.12249126e+00      6.86290197e-01      
H    -4.67581982e+00     1.32182160e+00      1.56671560e+00      
H    -4.75395409e+00     2.78212912e-01      4.45816089e-01      
O    -4.63189461e+00     -1.96544203e+00     2.52683406e+00      
H    -4.98209170e+00     -2.08158601e+00     1.63216790e+00      
H    -5.05486358e+00     -2.63950595e+00     3.06828005e+00      
O    -5.01972417e+00     -1.53609822e+00     -2.03355545e-01     
H    -5.63678909e+00     -1.81012430e+00     -8.87817013e-01     
H    -4.14827440e+00     -1.71961570e+00     -5.68309016e-01     
O    2.51866836e+00      1.26099972e+00      4.25029787e-01      
H    2.65301632e+00      2.20807410e+00      5.00199712e-01      
H    3.39147501e+00      8.79519664e-01      3.09770965e-01      
29
1580.465238
N    3.93730116e-02      4.46578467e-04      4.80976065e-02      
H    5.79621823e-02      -8.96447476e-01     -4.91667105e-01     
H    9.61791039e-01      4.75047780e-01      1.05599917e-01      
H    -7.26464379e-01     6.57678507e-01      -2.53263854e-01     
C    -3.17441112e-01     -3.65846397e-01     1.44342487e+00      
H    4.22338781e-01      -1.05771685e+00     1.83512758e+00      
H    -3.44236611e-01     5.38429366e-01      2.04376014e+00      
C    -1.68026340e+00     -1.02948868e+00     1.41445780e+00      
O    -2.20331503e+00     -1.42851839e+00     3.85530878e-01      
O    -2.17570758e+00     -1.11237229e+00     2.62933334e+00      
H    -3.10700059e+00     -1.49961957e+00     2.58833507e+00      
O    -1.92793361e+00     1.80250304e+00      -3.99187888e-01     
H    -2.81648511e+00     1.62525262e+00      -4.18414788e-02     
H    -2.00853684e+00     2.54821473e+00      -9.95184966e-01     
O    1.89558471e-01      -2.51613299e+00     -1.09782539e+00     
H    -6.77684022e-01     -2.92690127e+00     -1.04724799e+00     
H    6.42496962e-01      -2.93795786e+00     -1.83252568e+00     
O    -4.35243221e+00     1.12244820e+00      6.86334388e-01      
H    -4.67538096e+00     1.32246827e+00      1.56671623e+00      
H    -4.75347521e+00     2.78225891e-01      4.45090056e-01      
O    -4.63204441e+00     -1.96560399e+00     2.52679342e+00      
H    -4.98065331e+00     -2.07979448e+00     1.63141268e+00      
H    -5.05378239e+00     -2.63872959e+00     3.06993713e+00      
O    -5.01971221e+00     -1.53618213e+00     -2.03527559e-01     
H    -5.63816086e+00     -1.80954236e+00     -8.86783180e-01     
H    -4.14747507e+00     -1.71892789e+00     -5.66728476e-01     
O    2.51855835e+00      1.26094712e+00      4.25060848e-01      
H    2.65400201e+00      2.20793931e+00      5.00155917e-01      
H    3.39183579e+00      8.80350559e-01      3.09854486e-01      
29
1580.465238
N    3.85743481e-02      -1.21816985e-04     5.02583958e-02      
H    6.12177973e-02      -8.86720162e-01     -5.02872751e-01     
H    9.60827810e-01      4.74574658e-01      9.46561200e-02      
H    -7.18901010e-01     6.56669969e-01      -2.66110894e-01     
C    -3.17189110e-01     -3.65677501e-01     1.44305904e+00      
H    4.21708669e-01      -1.05663992e+00     1.83797138e+00      
H    -3.43562085e-01     5.36699948e-01      2.04619342e+00      
C    -1.68059798e+00     -1.02970819e+00     1.41425317e+00      
O    -2.20310745e+00     -1.42840001e+00     3.85785231e-01      
O    -2.17568039e+00     -1.11237602e+00     2.62933872e+00      
H    -3.10703651e+00     -1.49933242e+00     2.58746039e+00      
O    -1.92788704e+00     1.80237444e+00      -3.99056481e-01     
H    -2.81710776e+00     1.62657529e+00      -4.25396609e-02     
H    -2.00896575e+00     2.54803171e+00      -9.95168681e-01     
O    1.89504178e-01      -2.51611824e+00     -1.09772225e+00     
H    -6.77524940e-01     -2.92744258e+00     -1.04764036e+00     
H    6.42442545e-01      -2.93772208e+00     -1.83258219e+00     
O    -4.35247746e+00     1.12240514e+00      6.86378578e-01      
H    -4.67494209e+00     1.32311494e+00      1.56671686e+00      
H    -4.75299633e+00     2.78238871e-01      4.44364023e-01      
O    -4.63219421e+00     -1.96576595e+00     2.52675278e+00      
H    -4.97921492e+00     -2.07800294e+00     1.63065746e+00      
H    -5.05270120e+00     -2.63795324e+00     3.07159421e+00      
O    -5.01970026e+00     -1.53626604e+00     -2.03699573e-01     
H    -5.63953262e+00     -1.80896042e+00     -8.85749346e-01     
H    -4.14667574e+00     -1.71824008e+00     -5.65147936e-01     
O    2.51844833e+00      1.26089453e+00      4.25091908e-01      
H    2.65498770e+00      2.20780451e+00      5.00112121e-01      
H    3.39219657e+00      8.81181455e-01      3.09938006e-01      
29
1580.465238
N    3.77756847e-02      -6.90212437e-04     5.24191851e-02      
H    6.44734124e-02      -8.76992848e-01     -5.14078398e-01     
H    9.59864580e-01      4.74101537e-01      8.37123232e-02      
H    -7.11337641e-01     6.55661432e-01      -2.78957934e-01     
C    -3.16937108e-01     -3.65508604e-01     1.44269322e+00      
H    4.21078557e-01      -1.05556298e+00     1.84081518e+00      
H    -3.42887559e-01     5.34970529e-01      2.04862670e+00      
C    -1.68093256e+00     -1.02992770e+00     1.41404855e+00      
O    -2.20289988e+00     -1.42828162e+00     3.86039584e-01      
O    -2.17565320e+00     -1.11237976e+00     2.62934409e+00      
H    -3.10707242e+00     -1.49904526e+00     2.58658571e+00      
O    -1.92784046e+00     1.80224583e+00      -3.98925074e-01     
H    -2.81773042e+00     1.62789796e+00      -4.32378430e-02     
H    -2.00939465e+00     2.54784870e+00      -9.95152396e-01     
O    1.89449885e-01      -2.51610350e+00     -1.09761911e+00     
H    -6.77365857e-01     -2.92798390e+00     -1.04803273e+00     
H    6.42388127e-01      -2.93748630e+00     -1.83263870e+00     
O    -4.35252271e+00     1.12236208e+00      6.86422769e-01      
H    -4.67450323e+00     1.32376161e+00      1.56671748e+00      
H    -4.75251746e+00     2.78251850e-01      4.43637990e-01      
O    -4.63234402e+00     -1.96592791e+00     2.52671214e+00      
H    -4.97777653e+00     -2.07621140e+00     1.62990224e+00      
H    -5.05162001e+00     -2.63717689e+00     3.07325130e+00      
O    -5.01968830e+00     -1.53634995e+00     -2.03871587e-01     
H    -5.64090438e+00     -1.80837848e+00     -8.84715512e-01     
H    -4.14587641e+00     -1.71755226e+00     -5.63567395e-01     
O    2.51833831e+00      1.26084193e+00      4.25122969e-01      
H    2.65597339e+00      2.20766971e+00      5.00068326e-01      
H    3.39255735e+00      8.82012350e-01      3.10021527e-01      
29
1580.465238
N    3.73763530e-02      -9.74410162e-04     5.34995798e-02      
H    6.61012199e-02      -8.72129191e-01     -5.19681221e-01     
H    9.59382966e-01      4.73864976e-01      7.82404249e-02      
H    -7.07555956e-01     6.55157163e-01      -2.85381454e-01     
C    -3.16811106e-01     -3.65424156e-01     1.44251031e+00      
H    4.20763501e-01      -1.05502451e+00     1.84223708e+00      
H    -3.42550295e-01     5.34105820e-01      2.04984334e+00      
C    -1.68109985e+00     -1.03003746e+00     1.41394624e+00      
O    -2.20279609e+00     -1.42822243e+00     3.86166761e-01      
O    -2.17563961e+00     -1.11238163e+00     2.62934678e+00      
H    -3.10709038e+00     -1.49890168e+00     2.58614836e+00      
O    -1.92781718e+00     1.80218153e+00      -3.98859370e-01     
H    -2.81804175e+00     1.62855930e+00      -4.35869341e-02     
H    -2.00960911e+00     2.54775719e+00      -9.95144254e-01     
O    1.89422739e-01      -2.51609613e+00     -1.09756755e+00     
H    -6.77286316e-01     -2.92825456e+00     -1.04822892e+00     
H    6.42360918e-01      -2.93736841e+00     -1.83266695e+00     
O    -4.35254533e+00     1.12234055e+00      6.86444864e-01      
H    -4.67428380e+00     1.32408495e+00      1.56671780e+00      
H    -4.75227802e+00     2.78258340e-01      4.43274973e-01      
O    -4.63241892e+00     -1.96600889e+00     2.52669182e+00      
H    -4.97705733e+00     -2.07531563e+00     1.62952463e+00      
H    -5.05107942e+00     -2.63678871e+00     3.07407984e+00      
O    -5.01968232e+00     -1.53639190e+00     -2.03957595e-01     
H    -5.64159026e+00     -1.80808751e+00     -8.84198596e-01     
H    -4.14547675e+00     -1.71720836e+00     -5.62777125e-01     
O    2.51828330e+00      1.26081563e+00      4.25138499e-01      
H    2.65646623e+00      2.20760231e+00      5.00046428e-01      
H    3.39273774e+00      8.82427798e-01      3.10063287e-01      
29
1580.465238
N    3.69770212e-02      -1.25860789e-03     5.45799745e-02      
H    6.77290274e-02      -8.67265534e-01     -5.25284044e-01     
H    9.58901351e-01      4.73628415e-01      7.27685265e-02      
H    -7.03774272e-01     6.54652894e-01      -2.91804974e-01     
C    -3.16685105e-01     -3.65339708e-01     1.44232740e+00      
H    4.20448445e-01      -1.05448605e+00     1.84365898e+00      
H    -3.42213032e-01     5.33241111e-01      2.05105998e+00      
C    -1.68126714e+00     -1.03014721e+00     1.41384392e+00      
O    -2.20269230e+00     -1.42816324e+00     3.86293937e-01      
O    -2.17562602e+00     -1.11238350e+00     2.62934947e+00      
H    -3.10710834e+00     -1.49875810e+00     2.58571102e+00      
O    -1.92779389e+00     1.80211723e+00      -3.98793666e-01     
H    -2.81835307e+00     1.62922063e+00      -4.39360251e-02     
H    -2.00982356e+00     2.54766568e+00      -9.95136112e-01     
O    1.89395592e-01      -2.51608875e+00     -1.09751598e+00     
H    -6.77206775e-01     -2.92852521e+00     -1.04842510e+00     
H    6.42333710e-01      -2.93725052e+00     -1.83269520e+00     
O    -4.35256796e+00     1.12231902e+00      6.86466959e-01      
H    -4.67406437e+00     1.32440828e+00      1.56671811e+00      
H    -4.75203858e+00     2.78264830e-01      4.42911957e-01      
O    -4.63249382e+00     -1.96608987e+00     2.52667150e+00      
H    -4.97633814e+00     -2.07441986e+00     1.62914702e+00      
H    -5.05053883e+00     -2.63640053e+00     3.07490838e+00      
O    -5.01967635e+00     -1.53643385e+00     -2.04043602e-01     
H    -5.64227615e+00     -1.80779654e+00     -8.83681679e-01     
H    -4.14507709e+00     -1.71686445e+00     -5.61986855e-01     
O    2.51822830e+00      1.26078934e+00      4.25154029e-01      
H    2.65695908e+00      2.20753491e+00      5.00024530e-01      
H    3.39291813e+00      8.82843246e-01      3.10105047e-01      
29
1580.465238
N    3.53796944e-02      -2.39539879e-03     5.89015531e-02      
H    7.42402574e-02      -8.47810906e-01     -5.47695338e-01     
H    9.56974893e-01      4.72682173e-01      5.08809329e-02      
H    -6.88647534e-01     6.52635818e-01      -3.17499054e-01     
C    -3.16181101e-01     -3.65001914e-01     1.44159576e+00      
H    4.19188221e-01      -1.05233217e+00     1.84934658e+00      
H    -3.40863980e-01     5.29782273e-01      2.05592654e+00      
C    -1.68193630e+00     -1.03058623e+00     1.41343468e+00      
O    -2.20227714e+00     -1.42792646e+00     3.86802643e-01      
O    -2.17557164e+00     -1.11239098e+00     2.62936021e+00      
H    -3.10718016e+00     -1.49818378e+00     2.58396166e+00      
O    -1.92770075e+00     1.80186001e+00      -3.98530852e-01     
H    -2.81959839e+00     1.63186597e+00      -4.53323893e-02     
H    -2.01068138e+00     2.54729964e+00      -9.95103542e-01     
O    1.89287006e-01      -2.51605927e+00     -1.09730970e+00     
H    -6.76888611e-01     -2.92960785e+00     -1.04920984e+00     
H    6.42224874e-01      -2.93677896e+00     -1.83280822e+00     
O    -4.35265846e+00     1.12223290e+00      6.86555341e-01      
H    -4.67318665e+00     1.32570162e+00      1.56671937e+00      
H    -4.75108082e+00     2.78290788e-01      4.41459891e-01      
O    -4.63279342e+00     -1.96641379e+00     2.52659022e+00      
H    -4.97346136e+00     -2.07083678e+00     1.62763658e+00      
H    -5.04837645e+00     -2.63484783e+00     3.07822254e+00      
O    -5.01965243e+00     -1.53660167e+00     -2.04387630e-01     
H    -5.64501967e+00     -1.80663266e+00     -8.81614011e-01     
H    -4.14347843e+00     -1.71548883e+00     -5.58825775e-01     
O    2.51800826e+00      1.26068414e+00      4.25216151e-01      
H    2.65893046e+00      2.20726531e+00      4.99936940e-01      
H    3.39363969e+00      8.84505036e-01      3.10272089e-01      
29
1580.465238
N    3.49803626e-02      -2.67959652e-03     5.99819478e-02      
H    7.58680649e-02      -8.42947249e-01     -5.53298161e-01     
H    9.56493278e-01      4.72445612e-01      4.54090345e-02      
H    -6.84865850e-01     6.52131549e-01      -3.23922574e-01     
C    -3.16055100e-01     -3.64917466e-01     1.44141285e+00      
H    4.18873165e-01      -1.05179371e+00     1.85076848e+00      
H    -3.40526717e-01     5.28917564e-01      2.05714318e+00      
C    -1.68210359e+00     -1.03069598e+00     1.41333236e+00      
O    -2.20217335e+00     -1.42786727e+00     3.86929819e-01      
O    -2.17555805e+00     -1.11239285e+00     2.62936290e+00      
H    -3.10719812e+00     -1.49804020e+00     2.58352432e+00      
O    -1.92767746e+00     1.80179571e+00      -3.98465148e-01     
H    -2.81990971e+00     1.63252730e+00      -4.56814803e-02     
H    -2.01089583e+00     2.54720813e+00      -9.95095400e-01     
O    1.89259859e-01      -2.51605189e+00     -1.09725813e+00     
H    -6.76809070e-01     -2.92987850e+00     -1.04940602e+00     
H    6.42197666e-01      -2.93666107e+00     -1.83283647e+00     
O    -4.35268109e+00     1.12221137e+00      6.86577436e-01      
H    -4.67296722e+00     1.32602495e+00      1.56671968e+00      
H    -4.75084138e+00     2.78297278e-01      4.41096875e-01      
O    -4.63286832e+00     -1.96649477e+00     2.52656990e+00      
H    -4.97274217e+00     -2.06994101e+00     1.62725897e+00      
H    -5.04783586e+00     -2.63445965e+00     3.07905108e+00      
O    -5.01964646e+00     -1.53664362e+00     -2.04473637e-01     
H    -5.64570556e+00     -1.80634169e+00     -8.81097094e-01     
H    -4.14307877e+00     -1.71514492e+00     -5.58035505e-01     
O    2.51795326e+00      1.26065785e+00      4.25231681e-01      
H    2.65942331e+00      2.20719791e+00      4.99915042e-01      
H    3.39382008e+00      8.84920484e-01      3.10313849e-01      
29
1580.465238
N    3.45810309e-02      -2.96379424e-03     6.10623425e-02      
H    7.74958724e-02      -8.38083592e-01     -5.58900984e-01     
H    9.56011664e-01      4.72209051e-01      3.99371362e-02      
H    -6.81084165e-01     6.51627280e-01      -3.30346094e-01     
C    -3.15929098e-01     -3.64833018e-01     1.44122994e+00      
H    4.18558109e-01      -1.05125524e+00     1.85219038e+00      
H    -3.40189453e-01     5.28052855e-01      2.05835982e+00      
C    -1.68227088e+00     -1.03080574e+00     1.41323005e+00      
O    -2.20206956e+00     -1.42780808e+00     3.87056996e-01      
O    -2.17554446e+00     -1.11239472e+00     2.62936559e+00      
H    -3.10721608e+00     -1.49789662e+00     2.58308697e+00      
O    -1.92765418e+00     1.80173141e+00      -3.98399444e-01     
H    -2.82022104e+00     1.63318864e+00      -4.60305714e-02     
H    -2.01111029e+00     2.54711662e+00      -9.95087258e-01     
O    1.89232713e-01      -2.51604452e+00     -1.09720657e+00     
H    -6.76729529e-01     -2.93014916e+00     -1.04960221e+00     
H    6.42170457e-01      -2.93654318e+00     -1.83286472e+00     
O    -4.35270371e+00     1.12218984e+00      6.86599531e-01      
H    -4.67274779e+00     1.32634829e+00      1.56672000e+00      
H    -4.75060194e+00     2.78303768e-01      4.40733858e-01      
O    -4.63294322e+00     -1.96657575e+00     2.52654958e+00      
H    -4.97202297e+00     -2.06904524e+00     1.62688136e+00      
H    -5.04729527e+00     -2.63407147e+00     3.07987962e+00      
O    -5.01964048e+00     -1.53668557e+00     -2.04559645e-01     
H    -5.64639144e+00     -1.80605072e+00     -8.80580178e-01     
H    -4.14267911e+00     -1.71480102e+00     -5.57245235e-01     
O    2.51789825e+00      1.26063155e+00      4.25247211e-01      
H    2.65991615e+00      2.20713051e+00      4.99893144e-01      
H    3.39400047e+00      8.85335932e-01      3.10355609e-01      
29
1580.465238
N    3.37823675e-02      -3.53218970e-03     6.32231318e-02      
H    8.07514875e-02      -8.28356278e-01     -5.70106631e-01     
H    9.55048434e-01      4.71735930e-01      2.89933394e-02      
H    -6.73520796e-01     6.50618743e-01      -3.43193134e-01     
C    -3.15677096e-01     -3.64664121e-01     1.44086412e+00      
H    4.17927997e-01      -1.05017830e+00     1.85503418e+00      
H    -3.39514927e-01     5.26323436e-01      2.06079310e+00      
C    -1.68260546e+00     -1.03102525e+00     1.41302543e+00      
O    -2.20186199e+00     -1.42768969e+00     3.87311349e-01      
O    -2.17551727e+00     -1.11239846e+00     2.62937096e+00      
H    -3.10725199e+00     -1.49760946e+00     2.58221229e+00      
O    -1.92760760e+00     1.80160280e+00      -3.98268037e-01     
H    -2.82084370e+00     1.63451131e+00      -4.67287535e-02     
H    -2.01153919e+00     2.54693361e+00      -9.95070973e-01     
O    1.89178420e-01      -2.51602978e+00     -1.09710343e+00     
H    -6.76570446e-01     -2.93069048e+00     -1.04999458e+00     
H    6.42116039e-01      -2.93630740e+00     -1.83292123e+00     
O    -4.35274896e+00     1.12214678e+00      6.86643722e-01      
H    -4.67230893e+00     1.32699496e+00      1.56672062e+00      
H    -4.75012307e+00     2.78316747e-01      4.40007825e-01      
O    -4.63309303e+00     -1.96673771e+00     2.52650894e+00      
H    -4.97058458e+00     -2.06725370e+00     1.62612614e+00      
H    -5.04621408e+00     -2.63329512e+00     3.08153671e+00      
O    -5.01962852e+00     -1.53676948e+00     -2.04731659e-01     
H    -5.64776320e+00     -1.80546878e+00     -8.79546344e-01     
H    -4.14187978e+00     -1.71411320e+00     -5.55664694e-01     
O    2.51778823e+00      1.26057895e+00      4.25278272e-01      
H    2.66090184e+00      2.20699571e+00      4.99849349e-01      
H    3.39436125e+00      8.86166827e-01      3.10439130e-01      
29
1580.465238
N    3.29837040e-02      -4.10058515e-03     6.53839211e-02      
H    8.40071025e-02      -8.18628964e-01     -5.81312277e-01     
H    9.54085205e-01      4.71262808e-01      1.80495426e-02      
H    -6.65957427e-01     6.49610205e-01      -3.56040174e-01     
C    -3.15425094e-01     -3.64495225e-01     1.44049829e+00      
H    4.17297885e-01      -1.04910137e+00     1.85787798e+00      
H    -3.38840401e-01     5.24594018e-01      2.06322638e+00      
C    -1.68294004e+00     -1.03124476e+00     1.41282080e+00      
O    -2.20165441e+00     -1.42757131e+00     3.87565702e-01      
O    -2.17549008e+00     -1.11240219e+00     2.62937634e+00      
H    -3.10728791e+00     -1.49732231e+00     2.58133761e+00      
O    -1.92756103e+00     1.80147420e+00      -3.98136630e-01     
H    -2.82146635e+00     1.63583398e+00      -4.74269356e-02     
H    -2.01196810e+00     2.54675059e+00      -9.95054688e-01     
O    1.89124127e-01      -2.51601503e+00     -1.09700029e+00     
H    -6.76411364e-01     -2.93123179e+00     -1.05038695e+00     
H    6.42061622e-01      -2.93607162e+00     -1.83297774e+00     
O    -4.35279421e+00     1.12210372e+00      6.86687912e-01      
H    -4.67187006e+00     1.32764163e+00      1.56672125e+00      
H    -4.74964419e+00     2.78329727e-01      4.39281792e-01      
O    -4.63324283e+00     -1.96689967e+00     2.52646830e+00      
H    -4.96914619e+00     -2.06546216e+00     1.62537092e+00      
H    -5.04513289e+00     -2.63251877e+00     3.08319379e+00      
O    -5.01961657e+00     -1.53685339e+00     -2.04903673e-01     
H    -5.64913496e+00     -1.80488684e+00     -8.78512510e-01     
H    -4.14108045e+00     -1.71342539e+00     -5.54084154e-01     
O    2.51767821e+00      1.26052636e+00      4.25309332e-01      
H    2.66188753e+00      2.20686091e+00      4.99805553e-01      
H    3.39472203e+00      8.86997723e-01      3.10522650e-01      
29
1580.465238
N    3.21850406e-02      -4.66898060e-03     6.75447105e-02      
H    8.72627175e-02      -8.08901650e-01     -5.92517924e-01     
H    9.53121976e-01      4.70789687e-01      7.10574583e-03      
H    -6.58394058e-01     6.48601667e-01      -3.68887213e-01     
C    -3.15173092e-01     -3.64326328e-01     1.44013247e+00      
H    4.16667773e-01      -1.04802443e+00     1.86072177e+00      
H    -3.38165875e-01     5.22864599e-01      2.06565966e+00      
C    -1.68327462e+00     -1.03146426e+00     1.41261618e+00      
O    -2.20144683e+00     -1.42745292e+00     3.87820054e-01      
O    -2.17546290e+00     -1.11240593e+00     2.62938171e+00      
H    -3.10732382e+00     -1.49703515e+00     2.58046293e+00      
O    -1.92751446e+00     1.80134559e+00      -3.98005222e-01     
H    -2.82208901e+00     1.63715665e+00      -4.81251177e-02     
H    -2.01239701e+00     2.54656757e+00      -9.95038404e-01     
O    1.89069834e-01      -2.51600029e+00     -1.09689716e+00     
H    -6.76252282e-01     -2.93177311e+00     -1.05077931e+00     
H    6.42007204e-01      -2.93583584e+00     -1.83303424e+00     
O    -4.35283946e+00     1.12206066e+00      6.86732103e-01      
H    -4.67143120e+00     1.32828830e+00      1.56672188e+00      
H    -4.74916531e+00     2.78342706e-01      4.38555759e-01      
O    -4.63339263e+00     -1.96706163e+00     2.52642766e+00      
H    -4.96770780e+00     -2.06367063e+00     1.62461570e+00      
H    -5.04405170e+00     -2.63174241e+00     3.08485087e+00      
O    -5.01960461e+00     -1.53693730e+00     -2.05075687e-01     
H    -5.65050673e+00     -1.80430490e+00     -8.77478677e-01     
H    -4.14028112e+00     -1.71273758e+00     -5.52503614e-01     
O    2.51756820e+00      1.26047376e+00      4.25340393e-01      
H    2.66287322e+00      2.20672612e+00      4.99761758e-01      
H    3.39508281e+00      8.87828618e-01      3.10606171e-01      
29
1580.465238
N    3.13863771e-02      -5.23737605e-03     6.97054998e-02      
H    9.05183325e-02      -7.99174336e-01     -6.03723570e-01     
H    9.52158747e-01      4.70316566e-01      -3.83805094e-03     
H    -6.50830689e-01     6.47593129e-01      -3.81734253e-01     
C    -3.14921089e-01     -3.64157432e-01     1.43976665e+00      
H    4.16037660e-01      -1.04694750e+00     1.86356557e+00      
H    -3.37491348e-01     5.21135180e-01      2.06809294e+00      
C    -1.68360920e+00     -1.03168377e+00     1.41241155e+00      
O    -2.20123925e+00     -1.42733454e+00     3.88074407e-01      
O    -2.17543571e+00     -1.11240967e+00     2.62938708e+00      
H    -3.10735974e+00     -1.49674799e+00     2.57958824e+00      
O    -1.92746789e+00     1.80121699e+00      -3.97873815e-01     
H    -2.82271166e+00     1.63847931e+00      -4.88232998e-02     
H    -2.01282592e+00     2.54638455e+00      -9.95022119e-01     
O    1.89015541e-01      -2.51598555e+00     -1.09679402e+00     
H    -6.76093200e-01     -2.93231442e+00     -1.05117168e+00     
H    6.41952787e-01      -2.93560007e+00     -1.83309075e+00     
O    -4.35288471e+00     1.12201760e+00      6.86776293e-01      
H    -4.67099234e+00     1.32893497e+00      1.56672251e+00      
H    -4.74868643e+00     2.78355686e-01      4.37829726e-01      
O    -4.63354243e+00     -1.96722359e+00     2.52638702e+00      
H    -4.96626941e+00     -2.06187909e+00     1.62386048e+00      
H    -5.04297052e+00     -2.63096606e+00     3.08650795e+00      
O    -5.01959266e+00     -1.53702120e+00     -2.05247702e-01     
H    -5.65187849e+00     -1.80372296e+00     -8.76444843e-01     
H    -4.13948180e+00     -1.71204977e+00     -5.50923074e-01     
O    2.51745818e+00      1.26042117e+00      4.25371453e-01      
H    2.66385892e+00      2.20659132e+00      4.99717962e-01      
H    3.39544359e+00      8.88659514e-01      3.10689692e-01      
29
1580.465238
N    2.97890502e-02      -6.37416695e-03     7.40270785e-02      
H    9.70295626e-02      -7.79719708e-01     -6.26134863e-01     
H    9.50232289e-01      4.69370323e-01      -2.57256445e-02     
H    -6.35703951e-01     6.45576053e-01      -4.07428333e-01     
C    -3.14417085e-01     -3.63819639e-01     1.43903501e+00      
H    4.14777436e-01      -1.04479362e+00     1.86925317e+00      
H    -3.36142296e-01     5.17676343e-01      2.07295951e+00      
C    -1.68427836e+00     -1.03212279e+00     1.41200231e+00      
O    -2.20082409e+00     -1.42709776e+00     3.88583113e-01      
O    -2.17538133e+00     -1.11241715e+00     2.62939783e+00      
H    -3.10743157e+00     -1.49617367e+00     2.57783888e+00      
O    -1.92737474e+00     1.80095978e+00      -3.97611000e-01     
H    -2.82395697e+00     1.64112465e+00      -5.02196640e-02     
H    -2.01368373e+00     2.54601852e+00      -9.94989550e-01     
O    1.88906955e-01      -2.51595606e+00     -1.09658775e+00     
H    -6.75775036e-01     -2.93339705e+00     -1.05195642e+00     
H    6.41843951e-01      -2.93512851e+00     -1.83320376e+00     
O    -4.35297521e+00     1.12193149e+00      6.86864674e-01      
H    -4.67011462e+00     1.33022831e+00      1.56672376e+00      
H    -4.74772868e+00     2.78381645e-01      4.36377660e-01      
O    -4.63384203e+00     -1.96754751e+00     2.52630573e+00      
H    -4.96339264e+00     -2.05829601e+00     1.62235003e+00      
H    -5.04080814e+00     -2.62941335e+00     3.08982212e+00      
O    -5.01956875e+00     -1.53718902e+00     -2.05591730e-01     
H    -5.65462202e+00     -1.80255908e+00     -8.74377176e-01     
H    -4.13788314e+00     -1.71067414e+00     -5.47761993e-01     
O    2.51723815e+00      1.26031598e+00      4.25433574e-01      
H    2.66583030e+00      2.20632172e+00      4.99630371e-01      
H    3.39616515e+00      8.90321305e-01      3.10856733e-01      
