29
1645.658153
N    3.38678277e-02      -2.86743200e-03     5.89159441e-02      
H    1.11740388e-01      -8.64417680e-01     -5.27826689e-01     
H    9.54693850e-01      4.71502446e-01      1.86306717e-02      
H    -6.80162099e-01     6.85798651e-01      -2.84305348e-01     
C    -3.19650997e-01     -3.66367988e-01     1.44117373e+00      
H    4.25013955e-01      -1.04583643e+00     1.84531095e+00      
H    -3.31927523e-01     5.31479403e-01      2.05124443e+00      
C    -1.68031412e+00     -1.02998411e+00     1.41302623e+00      
O    -2.20267731e+00     -1.42791044e+00     3.86502094e-01      
O    -2.17623387e+00     -1.11264901e+00     2.62970720e+00      
H    -3.10655517e+00     -1.49655011e+00     2.58570140e+00      
O    -1.92896889e+00     1.80261891e+00      -3.99043887e-01     
H    -2.81430283e+00     1.62019174e+00      -3.69283373e-02     
H    -1.99813020e+00     2.54651772e+00      -9.97731141e-01     
O    1.86128098e-01      -2.52303403e+00     -1.10289298e+00     
H    -6.97847842e-01     -2.87749577e+00     -9.78031357e-01     
H    7.14153738e-01      -2.88391222e+00     -1.81858777e+00     
O    -4.35195839e+00     1.12292913e+00      6.85991560e-01      
H    -4.67902542e+00     1.31701583e+00      1.56652093e+00      
H    -4.75754490e+00     2.78162164e-01      4.50214581e-01      
O    -4.62665522e+00     -1.96042451e+00     2.52871014e+00      
H    -5.02551349e+00     -2.14094155e+00     1.65621995e+00      
H    -5.09228034e+00     -2.66251518e+00     3.01307116e+00      
O    -5.01874046e+00     -1.53743422e+00     -2.06663114e-01     
H    -5.66600061e+00     -1.80103853e+00     -8.63944674e-01     
H    -4.13268546e+00     -1.70601380e+00     -5.37236319e-01     
O    2.51583289e+00      1.25950040e+00      4.25324449e-01      
H    2.68191123e+00      2.20414790e+00      4.97840502e-01      
H    3.40284855e+00      9.05456460e-01      3.11514037e-01      
29
1645.658153
N    3.44454602e-02      -2.60732483e-03     5.83721490e-02      
H    1.01551452e-01      -8.62697815e-01     -5.29992439e-01     
H    9.55504918e-01      4.71915658e-01      2.94291862e-02      
H    -6.84174300e-01     6.77760077e-01      -2.89392015e-01     
C    -3.18846523e-01     -3.66068694e-01     1.44137069e+00      
H    4.23715049e-01      -1.04772960e+00     1.84560890e+00      
H    -3.34330269e-01     5.31487475e-01      2.05180664e+00      
C    -1.68063602e+00     -1.03007976e+00     1.41317950e+00      
O    -2.20262916e+00     -1.42794404e+00     3.86513643e-01      
O    -2.17607511e+00     -1.11258357e+00     2.62961911e+00      
H    -3.10670244e+00     -1.49703032e+00     2.58548514e+00      
O    -1.92866350e+00     1.80246134e+00      -3.98948480e-01     
H    -2.81547105e+00     1.62277963e+00      -3.88548048e-02     
H    -2.00116077e+00     2.54675896e+00      -9.97078313e-01     
O    1.86931398e-01      -2.52129403e+00     -1.10152294e+00     
H    -6.92647804e-01     -2.89038846e+00     -9.95727885e-01     
H    6.96185126e-01      -2.89718785e+00     -1.82212876e+00     
O    -4.35212209e+00     1.12276584e+00      6.86121457e-01      
H    -4.67767544e+00     1.31902561e+00      1.56657038e+00      
H    -4.75604860e+00     2.78191075e-01      4.48207417e-01      
O    -4.62815232e+00     -1.96188134e+00     2.52819032e+00      
H    -5.01286005e+00     -2.12386324e+00     1.64926291e+00      
H    -5.08157466e+00     -2.65579243e+00     3.02894473e+00      
O    -5.01897145e+00     -1.53720510e+00     -2.06051240e-01     
H    -5.66041244e+00     -1.80258255e+00     -8.68620466e-01     
H    -4.13558353e+00     -1.70855451e+00     -5.43028818e-01     
O    2.51640424e+00      1.25980948e+00      4.25289609e-01      
H    2.67591961e+00      2.20496095e+00      4.98375560e-01      
H    3.40045614e+00      9.00010881e-01      3.11182670e-01      
29
1645.658153
N    3.47342765e-02      -2.47727125e-03     5.81002515e-02      
H    9.64569835e-02      -8.61837883e-01     -5.31075315e-01     
H    9.55910452e-01      4.72122264e-01      3.48284434e-02      
H    -6.86180400e-01     6.73740790e-01      -2.91935348e-01     
C    -3.18444287e-01     -3.65919046e-01     1.44146917e+00      
H    4.23065597e-01      -1.04867619e+00     1.84575788e+00      
H    -3.35531642e-01     5.31491511e-01      2.05208774e+00      
C    -1.68079697e+00     -1.03012759e+00     1.41325613e+00      
O    -2.20260509e+00     -1.42796084e+00     3.86519417e-01      
O    -2.17599573e+00     -1.11255085e+00     2.62957507e+00      
H    -3.10677608e+00     -1.49727042e+00     2.58537701e+00      
O    -1.92851080e+00     1.80238255e+00      -3.98900777e-01     
H    -2.81605517e+00     1.62407358e+00      -3.98180385e-02     
H    -2.00267605e+00     2.54687958e+00      -9.96751898e-01     
O    1.87333048e-01      -2.52042403e+00     -1.10083793e+00     
H    -6.90047786e-01     -2.89683481e+00     -1.00457615e+00     
H    6.87200821e-01      -2.90382566e+00     -1.82389925e+00     
O    -4.35220395e+00     1.12268419e+00      6.86186406e-01      
H    -4.67700045e+00     1.32003050e+00      1.56659511e+00      
H    -4.75530045e+00     2.78205531e-01      4.47203834e-01      
O    -4.62890087e+00     -1.96260975e+00     2.52793041e+00      
H    -5.00653333e+00     -2.11532409e+00     1.64578439e+00      
H    -5.07622182e+00     -2.65243106e+00     3.03688152e+00      
O    -5.01908694e+00     -1.53709055e+00     -2.05745303e-01     
H    -5.65761835e+00     -1.80335456e+00     -8.70958363e-01     
H    -4.13703257e+00     -1.70982486e+00     -5.45925068e-01     
O    2.51668991e+00      1.25996403e+00      4.25272189e-01      
H    2.67292380e+00      2.20536748e+00      4.98643089e-01      
H    3.39925993e+00      8.97288091e-01      3.11016986e-01      
29
1645.658153
N    3.50230927e-02      -2.34721767e-03     5.78283539e-02      
H    9.13625153e-02      -8.60977950e-01     -5.32158190e-01     
H    9.56315986e-01      4.72328870e-01      4.02277007e-02      
H    -6.88186501e-01     6.69721504e-01      -2.94478681e-01     
C    -3.18042050e-01     -3.65769399e-01     1.44156765e+00      
H    4.22416144e-01      -1.04962277e+00     1.84590686e+00      
H    -3.36733015e-01     5.31495547e-01      2.05236884e+00      
C    -1.68095792e+00     -1.03017541e+00     1.41333276e+00      
O    -2.20258101e+00     -1.42797764e+00     3.86525192e-01      
O    -2.17591635e+00     -1.11251813e+00     2.62953102e+00      
H    -3.10684971e+00     -1.49751052e+00     2.58526887e+00      
O    -1.92835810e+00     1.80230377e+00      -3.98853073e-01     
H    -2.81663928e+00     1.62536752e+00      -4.07812723e-02     
H    -2.00419133e+00     2.54700019e+00      -9.96425484e-01     
O    1.87734699e-01      -2.51955402e+00     -1.10015291e+00     
H    -6.87447767e-01     -2.90328115e+00     -1.01342441e+00     
H    6.78216515e-01      -2.91046348e+00     -1.82566974e+00     
O    -4.35228580e+00     1.12260254e+00      6.86251355e-01      
H    -4.67632546e+00     1.32103539e+00      1.56661983e+00      
H    -4.75455230e+00     2.78219987e-01      4.46200252e-01      
O    -4.62964942e+00     -1.96333817e+00     2.52767050e+00      
H    -5.00020662e+00     -2.10678493e+00     1.64230587e+00      
H    -5.07086899e+00     -2.64906968e+00     3.04481831e+00      
O    -5.01920243e+00     -1.53697599e+00     -2.05439365e-01     
H    -5.65482426e+00     -1.80412657e+00     -8.73296259e-01     
H    -4.13848161e+00     -1.71109522e+00     -5.48821317e-01     
O    2.51697559e+00      1.26011857e+00      4.25254769e-01      
H    2.66992800e+00      2.20577401e+00      4.98910618e-01      
H    3.39806373e+00      8.94565301e-01      3.10851303e-01      
29
1645.658153
N    3.53119090e-02      -2.21716409e-03     5.75564564e-02      
H    8.62680470e-02      -8.60118018e-01     -5.33241065e-01     
H    9.56721520e-01      4.72535476e-01      4.56269579e-02      
H    -6.90192601e-01     6.65702217e-01      -2.97022014e-01     
C    -3.17639813e-01     -3.65619752e-01     1.44166613e+00      
H    4.21766691e-01      -1.05056936e+00     1.84605584e+00      
H    -3.37934387e-01     5.31499584e-01      2.05264995e+00      
C    -1.68111887e+00     -1.03022324e+00     1.41340940e+00      
O    -2.20255694e+00     -1.42799444e+00     3.86530966e-01      
O    -2.17583697e+00     -1.11248540e+00     2.62948698e+00      
H    -3.10692335e+00     -1.49775063e+00     2.58516074e+00      
O    -1.92820541e+00     1.80222498e+00      -3.98805370e-01     
H    -2.81722339e+00     1.62666147e+00      -4.17445060e-02     
H    -2.00570662e+00     2.54712081e+00      -9.96099070e-01     
O    1.88136349e-01      -2.51868402e+00     -1.09946789e+00     
H    -6.84847749e-01     -2.90972750e+00     -1.02227268e+00     
H    6.69232209e-01      -2.91710129e+00     -1.82744023e+00     
O    -4.35236765e+00     1.12252090e+00      6.86316304e-01      
H    -4.67565047e+00     1.32204028e+00      1.56664456e+00      
H    -4.75380415e+00     2.78234442e-01      4.45196670e-01      
O    -4.63039797e+00     -1.96406658e+00     2.52741059e+00      
H    -4.99387990e+00     -2.09824578e+00     1.63882735e+00      
H    -5.06551615e+00     -2.64570831e+00     3.05275510e+00      
O    -5.01931792e+00     -1.53686143e+00     -2.05133428e-01     
H    -5.65203017e+00     -1.80489857e+00     -8.75634156e-01     
H    -4.13993065e+00     -1.71236557e+00     -5.51717567e-01     
O    2.51726126e+00      1.26027311e+00      4.25237350e-01      
H    2.66693219e+00      2.20618053e+00      4.99178148e-01      
H    3.39686752e+00      8.91842511e-01      3.10685619e-01      
29
1645.658153
N    3.56007253e-02      -2.08711050e-03     5.72845589e-02      
H    8.11735788e-02      -8.59258085e-01     -5.34323940e-01     
H    9.57127054e-01      4.72742082e-01      5.10262152e-02      
H    -6.92198702e-01     6.61682930e-01      -2.99565348e-01     
C    -3.17237576e-01     -3.65470105e-01     1.44176462e+00      
H    4.21117238e-01      -1.05151594e+00     1.84620482e+00      
H    -3.39135760e-01     5.31503620e-01      2.05293105e+00      
C    -1.68127982e+00     -1.03027107e+00     1.41348603e+00      
O    -2.20253287e+00     -1.42801125e+00     3.86536741e-01      
O    -2.17575759e+00     -1.11245268e+00     2.62944293e+00      
H    -3.10699698e+00     -1.49799073e+00     2.58505261e+00      
O    -1.92805271e+00     1.80214619e+00      -3.98757666e-01     
H    -2.81780750e+00     1.62795541e+00      -4.27077397e-02     
H    -2.00722190e+00     2.54724143e+00      -9.95772656e-01     
O    1.88537999e-01      -2.51781402e+00     -1.09878287e+00     
H    -6.82247730e-01     -2.91617384e+00     -1.03112094e+00     
H    6.60247903e-01      -2.92373911e+00     -1.82921073e+00     
O    -4.35244950e+00     1.12243925e+00      6.86381252e-01      
H    -4.67497549e+00     1.32304517e+00      1.56666929e+00      
H    -4.75305600e+00     2.78248898e-01      4.44193088e-01      
O    -4.63114652e+00     -1.96479500e+00     2.52715068e+00      
H    -4.98755318e+00     -2.08970663e+00     1.63534884e+00      
H    -5.06016331e+00     -2.64234693e+00     3.06069188e+00      
O    -5.01943341e+00     -1.53674687e+00     -2.04827491e-01     
H    -5.64923609e+00     -1.80567058e+00     -8.77972052e-01     
H    -4.14137968e+00     -1.71363593e+00     -5.54613816e-01     
O    2.51754693e+00      1.26042765e+00      4.25219930e-01      
H    2.66393638e+00      2.20658706e+00      4.99445677e-01      
H    3.39567132e+00      8.89119721e-01      3.10519935e-01      
29
1645.658153
N    3.57451334e-02      -2.02208371e-03     5.71486101e-02      
H    7.86263447e-02      -8.58828119e-01     -5.34865378e-01     
H    9.57329821e-01      4.72845385e-01      5.37258438e-02      
H    -6.93201752e-01     6.59673286e-01      -3.00837014e-01     
C    -3.17036458e-01     -3.65395282e-01     1.44181386e+00      
H    4.20792512e-01      -1.05198923e+00     1.84627931e+00      
H    -3.39736447e-01     5.31505638e-01      2.05307160e+00      
C    -1.68136029e+00     -1.03029498e+00     1.41352435e+00      
O    -2.20252083e+00     -1.42801965e+00     3.86539628e-01      
O    -2.17571790e+00     -1.11243632e+00     2.62942091e+00      
H    -3.10703380e+00     -1.49811078e+00     2.58499854e+00      
O    -1.92797636e+00     1.80210680e+00      -3.98733814e-01     
H    -2.81809956e+00     1.62860238e+00      -4.31893566e-02     
H    -2.00797954e+00     2.54730173e+00      -9.95609448e-01     
O    1.88738824e-01      -2.51737901e+00     -1.09844037e+00     
H    -6.80947721e-01     -2.91939701e+00     -1.03554507e+00     
H    6.55755751e-01      -2.92705802e+00     -1.83009597e+00     
O    -4.35249043e+00     1.12239843e+00      6.86413727e-01      
H    -4.67463799e+00     1.32354762e+00      1.56668165e+00      
H    -4.75268192e+00     2.78256126e-01      4.43691297e-01      
O    -4.63152080e+00     -1.96515921e+00     2.52702073e+00      
H    -4.98438983e+00     -2.08543705e+00     1.63360958e+00      
H    -5.05748690e+00     -2.64066624e+00     3.06466028e+00      
O    -5.01949115e+00     -1.53668960e+00     -2.04674522e-01     
H    -5.64783904e+00     -1.80605659e+00     -8.79141000e-01     
H    -4.14210420e+00     -1.71427111e+00     -5.56061941e-01     
O    2.51768977e+00      1.26050493e+00      4.25211220e-01      
H    2.66243848e+00      2.20679032e+00      4.99579441e-01      
H    3.39507322e+00      8.87758326e-01      3.10437093e-01      
29
1645.658153
N    3.58895415e-02      -1.95705692e-03     5.70126613e-02      
H    7.60791106e-02      -8.58398153e-01     -5.35406816e-01     
H    9.57532588e-01      4.72948688e-01      5.64254724e-02      
H    -6.94204802e-01     6.57663643e-01      -3.02108681e-01     
C    -3.16835340e-01     -3.65320458e-01     1.44186310e+00      
H    4.20467786e-01      -1.05246253e+00     1.84635380e+00      
H    -3.40337133e-01     5.31507656e-01      2.05321216e+00      
C    -1.68144077e+00     -1.03031889e+00     1.41356267e+00      
O    -2.20250879e+00     -1.42802805e+00     3.86542515e-01      
O    -2.17567821e+00     -1.11241996e+00     2.62939889e+00      
H    -3.10707062e+00     -1.49823084e+00     2.58494447e+00      
O    -1.92790002e+00     1.80206741e+00      -3.98709963e-01     
H    -2.81839162e+00     1.62924936e+00      -4.36709735e-02     
H    -2.00873719e+00     2.54736204e+00      -9.95446241e-01     
O    1.88939649e-01      -2.51694401e+00     -1.09809786e+00     
H    -6.79647712e-01     -2.92262019e+00     -1.03996921e+00     
H    6.51263598e-01      -2.93037692e+00     -1.83098122e+00     
O    -4.35253136e+00     1.12235761e+00      6.86446201e-01      
H    -4.67430050e+00     1.32405006e+00      1.56669401e+00      
H    -4.75230785e+00     2.78263353e-01      4.43189506e-01      
O    -4.63189507e+00     -1.96552341e+00     2.52689077e+00      
H    -4.98122647e+00     -2.08116747e+00     1.63187032e+00      
H    -5.05481048e+00     -2.63898556e+00     3.06862867e+00      
O    -5.01954890e+00     -1.53663232e+00     -2.04521553e-01     
H    -5.64644200e+00     -1.80644259e+00     -8.80309949e-01     
H    -4.14282872e+00     -1.71490628e+00     -5.57510066e-01     
O    2.51783261e+00      1.26058220e+00      4.25202510e-01      
H    2.66094058e+00      2.20699358e+00      4.99713206e-01      
H    3.39447511e+00      8.86396931e-01      3.10354252e-01      
29
1645.658153
N    3.64671741e-02      -1.69694976e-03     5.64688663e-02      
H    6.58901742e-02      -8.56678287e-01     -5.37572566e-01     
H    9.58343656e-01      4.73361900e-01      6.72239870e-02      
H    -6.98217004e-01     6.49625069e-01      -3.07195347e-01     
C    -3.16030866e-01     -3.65021164e-01     1.44206006e+00      
H    4.19168880e-01      -1.05435569e+00     1.84665176e+00      
H    -3.42739879e-01     5.31515728e-01      2.05377436e+00      
C    -1.68176267e+00     -1.03041455e+00     1.41371593e+00      
O    -2.20246065e+00     -1.42806165e+00     3.86554065e-01      
O    -2.17551945e+00     -1.11235452e+00     2.62931079e+00      
H    -3.10721788e+00     -1.49871104e+00     2.58472821e+00      
O    -1.92759462e+00     1.80190983e+00      -3.98614555e-01     
H    -2.81955984e+00     1.63183724e+00      -4.55974409e-02     
H    -2.01176775e+00     2.54760328e+00      -9.94793413e-01     
O    1.89742949e-01      -2.51520401e+00     -1.09672782e+00     
H    -6.74447674e-01     -2.93551287e+00     -1.05766573e+00     
H    6.33294986e-01      -2.94365256e+00     -1.83452220e+00     
O    -4.35269506e+00     1.12219431e+00      6.86576099e-01      
H    -4.67295052e+00     1.32605984e+00      1.56674347e+00      
H    -4.75081155e+00     2.78292265e-01      4.41182342e-01      
O    -4.63339217e+00     -1.96698025e+00     2.52637095e+00      
H    -4.96857303e+00     -2.06408917e+00     1.62491328e+00      
H    -5.04410480e+00     -2.63226280e+00     3.08450225e+00      
O    -5.01977988e+00     -1.53640320e+00     -2.03909679e-01     
H    -5.64085382e+00     -1.80798661e+00     -8.84985741e-01     
H    -4.14572680e+00     -1.71744700e+00     -5.63302564e-01     
O    2.51840395e+00      1.26089128e+00      4.25167670e-01      
H    2.65494896e+00      2.20780664e+00      5.00248264e-01      
H    3.39208271e+00      8.80951351e-01      3.10022884e-01      
29
1645.658153
N    3.66115822e-02      -1.63192297e-03     5.63329175e-02      
H    6.33429401e-02      -8.56248321e-01     -5.38114004e-01     
H    9.58546423e-01      4.73465203e-01      6.99236156e-02      
H    -6.99220054e-01     6.47615426e-01      -3.08467014e-01     
C    -3.15829748e-01     -3.64946340e-01     1.44210930e+00      
H    4.18844154e-01      -1.05482899e+00     1.84672625e+00      
H    -3.43340565e-01     5.31517746e-01      2.05391492e+00      
C    -1.68184315e+00     -1.03043846e+00     1.41375425e+00      
O    -2.20244861e+00     -1.42807005e+00     3.86556952e-01      
O    -2.17547976e+00     -1.11233816e+00     2.62928877e+00      
H    -3.10725470e+00     -1.49883110e+00     2.58467414e+00      
O    -1.92751828e+00     1.80187044e+00      -3.98590704e-01     
H    -2.81985190e+00     1.63248422e+00      -4.60790578e-02     
H    -2.01252540e+00     2.54766359e+00      -9.94630206e-01     
O    1.89943774e-01      -2.51476901e+00     -1.09638531e+00     
H    -6.73147665e-01     -2.93873605e+00     -1.06208987e+00     
H    6.28802833e-01      -2.94697146e+00     -1.83540745e+00     
O    -4.35273599e+00     1.12215349e+00      6.86608573e-01      
H    -4.67261303e+00     1.32656228e+00      1.56675583e+00      
H    -4.75043748e+00     2.78299492e-01      4.40680551e-01      
O    -4.63376644e+00     -1.96734445e+00     2.52624099e+00      
H    -4.96540967e+00     -2.05981959e+00     1.62317402e+00      
H    -5.04142838e+00     -2.63058212e+00     3.08847064e+00      
O    -5.01983763e+00     -1.53634592e+00     -2.03756710e-01     
H    -5.63945678e+00     -1.80837261e+00     -8.86154690e-01     
H    -4.14645132e+00     -1.71808217e+00     -5.64750689e-01     
O    2.51854679e+00      1.26096855e+00      4.25158960e-01      
H    2.65345106e+00      2.20800990e+00      5.00382029e-01      
H    3.39148460e+00      8.79589956e-01      3.09940043e-01      
29
1645.658153
N    3.67559903e-02      -1.56689618e-03     5.61969687e-02      
H    6.07957060e-02      -8.55818355e-01     -5.38655442e-01     
H    9.58749190e-01      4.73568506e-01      7.26232442e-02      
H    -7.00223104e-01     6.45605782e-01      -3.09738680e-01     
C    -3.15628630e-01     -3.64871517e-01     1.44215854e+00      
H    4.18519428e-01      -1.05530228e+00     1.84680074e+00      
H    -3.43941252e-01     5.31519764e-01      2.05405547e+00      
C    -1.68192362e+00     -1.03046237e+00     1.41379257e+00      
O    -2.20243657e+00     -1.42807845e+00     3.86559839e-01      
O    -2.17544007e+00     -1.11232180e+00     2.62926675e+00      
H    -3.10729152e+00     -1.49895115e+00     2.58462007e+00      
O    -1.92744193e+00     1.80183105e+00      -3.98566852e-01     
H    -2.82014396e+00     1.63313119e+00      -4.65606747e-02     
H    -2.01328304e+00     2.54772389e+00      -9.94466998e-01     
O    1.90144599e-01      -2.51433400e+00     -1.09604281e+00     
H    -6.71847656e-01     -2.94195922e+00     -1.06651400e+00     
H    6.24310681e-01      -2.95029037e+00     -1.83629269e+00     
O    -4.35277692e+00     1.12211267e+00      6.86641048e-01      
H    -4.67227553e+00     1.32706473e+00      1.56676819e+00      
H    -4.75006340e+00     2.78306720e-01      4.40178760e-01      
O    -4.63414072e+00     -1.96770866e+00     2.52611104e+00      
H    -4.96224632e+00     -2.05555001e+00     1.62143476e+00      
H    -5.03875197e+00     -2.62890143e+00     3.09243904e+00      
O    -5.01989537e+00     -1.53628865e+00     -2.03603741e-01     
H    -5.63805973e+00     -1.80875862e+00     -8.87323638e-01     
H    -4.14717584e+00     -1.71871735e+00     -5.66198814e-01     
O    2.51868963e+00      1.26104583e+00      4.25150250e-01      
H    2.65195316e+00      2.20821316e+00      5.00515793e-01      
H    3.39088650e+00      8.78228561e-01      3.09857201e-01      
29
1645.658153
N    3.70448066e-02      -1.43684259e-03     5.59250712e-02      
H    5.57012378e-02      -8.54958422e-01     -5.39738317e-01     
H    9.59154724e-01      4.73775112e-01      7.80225015e-02      
H    -7.02229205e-01     6.41586495e-01      -3.12282014e-01     
C    -3.15226393e-01     -3.64721870e-01     1.44225703e+00      
H    4.17869975e-01      -1.05624886e+00     1.84694972e+00      
H    -3.45142625e-01     5.31523800e-01      2.05433657e+00      
C    -1.68208457e+00     -1.03051020e+00     1.41386920e+00      
O    -2.20241250e+00     -1.42809526e+00     3.86565614e-01      
O    -2.17536069e+00     -1.11228908e+00     2.62922270e+00      
H    -3.10736515e+00     -1.49919125e+00     2.58451194e+00      
O    -1.92728923e+00     1.80175226e+00      -3.98519148e-01     
H    -2.82072807e+00     1.63442513e+00      -4.75239084e-02     
H    -2.01479832e+00     2.54784451e+00      -9.94140584e-01     
O    1.90546249e-01      -2.51346400e+00     -1.09535779e+00     
H    -6.69247637e-01     -2.94840556e+00     -1.07536226e+00     
H    6.15326375e-01      -2.95692819e+00     -1.83806319e+00     
O    -4.35285877e+00     1.12203102e+00      6.86705996e-01      
H    -4.67160055e+00     1.32806962e+00      1.56679292e+00      
H    -4.74931525e+00     2.78321176e-01      4.39175178e-01      
O    -4.63488927e+00     -1.96843708e+00     2.52585113e+00      
H    -4.95591960e+00     -2.04701086e+00     1.61795625e+00      
H    -5.03339913e+00     -2.62554005e+00     3.10037582e+00      
O    -5.02001086e+00     -1.53617409e+00     -2.03297804e-01     
H    -5.63526565e+00     -1.80953063e+00     -8.89661534e-01     
H    -4.14862487e+00     -1.71998771e+00     -5.69095063e-01     
O    2.51897530e+00      1.26120037e+00      4.25132830e-01      
H    2.64895735e+00      2.20861969e+00      5.00783322e-01      
H    3.38969030e+00      8.75505771e-01      3.09691517e-01      
29
1645.658153
N    3.73336229e-02      -1.30678901e-03     5.56531737e-02      
H    5.06067695e-02      -8.54098490e-01     -5.40821192e-01     
H    9.59560258e-01      4.73981718e-01      8.34217587e-02      
H    -7.04235305e-01     6.37567208e-01      -3.14825347e-01     
C    -3.14824156e-01     -3.64572223e-01     1.44235551e+00      
H    4.17220522e-01      -1.05719545e+00     1.84709870e+00      
H    -3.46343997e-01     5.31527837e-01      2.05461768e+00      
C    -1.68224552e+00     -1.03055803e+00     1.41394584e+00      
O    -2.20238843e+00     -1.42811206e+00     3.86571388e-01      
O    -2.17528131e+00     -1.11225635e+00     2.62917866e+00      
H    -3.10743879e+00     -1.49943136e+00     2.58440381e+00      
O    -1.92713654e+00     1.80167347e+00      -3.98471445e-01     
H    -2.82131218e+00     1.63571908e+00      -4.84871421e-02     
H    -2.01631361e+00     2.54796513e+00      -9.93814170e-01     
O    1.90947899e-01      -2.51259400e+00     -1.09467277e+00     
H    -6.66647619e-01     -2.95485191e+00     -1.08421053e+00     
H    6.06342069e-01      -2.96356600e+00     -1.83983368e+00     
O    -4.35294062e+00     1.12194938e+00      6.86770945e-01      
H    -4.67092556e+00     1.32907451e+00      1.56681765e+00      
H    -4.74856710e+00     2.78335631e-01      4.38171596e-01      
O    -4.63563782e+00     -1.96916549e+00     2.52559122e+00      
H    -4.94959288e+00     -2.03847171e+00     1.61447773e+00      
H    -5.02804629e+00     -2.62217868e+00     3.10831261e+00      
O    -5.02012635e+00     -1.53605953e+00     -2.02991867e-01     
H    -5.63247156e+00     -1.81030263e+00     -8.91999431e-01     
H    -4.15007391e+00     -1.72125806e+00     -5.71991313e-01     
O    2.51926097e+00      1.26135491e+00      4.25115411e-01      
H    2.64596154e+00      2.20902621e+00      5.01050852e-01      
H    3.38849409e+00      8.72782981e-01      3.09525833e-01      
29
1645.658153
N    3.76224391e-02      -1.17673543e-03     5.53812761e-02      
H    4.55123013e-02      -8.53238557e-01     -5.41904067e-01     
H    9.59965792e-01      4.74188324e-01      8.88210160e-02      
H    -7.06241406e-01     6.33547922e-01      -3.17368680e-01     
C    -3.14421919e-01     -3.64422576e-01     1.44245399e+00      
H    4.16571069e-01      -1.05814203e+00     1.84724768e+00      
H    -3.47545370e-01     5.31531873e-01      2.05489878e+00      
C    -1.68240647e+00     -1.03060585e+00     1.41402247e+00      
O    -2.20236435e+00     -1.42812886e+00     3.86577163e-01      
O    -2.17520193e+00     -1.11222363e+00     2.62913461e+00      
H    -3.10751242e+00     -1.49967146e+00     2.58429567e+00      
O    -1.92698384e+00     1.80159469e+00      -3.98423741e-01     
H    -2.82189629e+00     1.63701302e+00      -4.94503759e-02     
H    -2.01782889e+00     2.54808574e+00      -9.93487756e-01     
O    1.91349550e-01      -2.51172399e+00     -1.09398775e+00     
H    -6.64047600e-01     -2.96129825e+00     -1.09305879e+00     
H    5.97357763e-01      -2.97020382e+00     -1.84160417e+00     
O    -4.35302247e+00     1.12186773e+00      6.86835894e-01      
H    -4.67025057e+00     1.33007940e+00      1.56684237e+00      
H    -4.74781895e+00     2.78350087e-01      4.37168014e-01      
O    -4.63638637e+00     -1.96989391e+00     2.52533131e+00      
H    -4.94326617e+00     -2.02993255e+00     1.61099921e+00      
H    -5.02269346e+00     -2.61881730e+00     3.11624940e+00      
O    -5.02024184e+00     -1.53594497e+00     -2.02685929e-01     
H    -5.62967747e+00     -1.81107464e+00     -8.94337327e-01     
H    -4.15152295e+00     -1.72252842e+00     -5.74887562e-01     
O    2.51954665e+00      1.26150945e+00      4.25097991e-01      
H    2.64296574e+00      2.20943274e+00      5.01318381e-01      
H    3.38729789e+00      8.70060191e-01      3.09360150e-01      
29
1645.658153
N    3.79112554e-02      -1.04668185e-03     5.51093786e-02      
H    4.04178331e-02      -8.52378625e-01     -5.42986943e-01     
H    9.60371326e-01      4.74394930e-01      9.42202732e-02      
H    -7.08247506e-01     6.29528635e-01      -3.19912013e-01     
C    -3.14019683e-01     -3.64272928e-01     1.44255247e+00      
H    4.15921617e-01      -1.05908862e+00     1.84739666e+00      
H    -3.48746743e-01     5.31535909e-01      2.05517988e+00      
C    -1.68256742e+00     -1.03065368e+00     1.41409910e+00      
O    -2.20234028e+00     -1.42814566e+00     3.86582937e-01      
O    -2.17512255e+00     -1.11219091e+00     2.62909057e+00      
H    -3.10758606e+00     -1.49991156e+00     2.58418754e+00      
O    -1.92683114e+00     1.80151590e+00      -3.98376038e-01     
H    -2.82248041e+00     1.63830697e+00      -5.04136096e-02     
H    -2.01934417e+00     2.54820636e+00      -9.93161341e-01     
O    1.91751200e-01      -2.51085399e+00     -1.09330274e+00     
H    -6.61447582e-01     -2.96774460e+00     -1.10190705e+00     
H    5.88373458e-01      -2.97684163e+00     -1.84337466e+00     
O    -4.35310433e+00     1.12178608e+00      6.86900843e-01      
H    -4.66957558e+00     1.33108429e+00      1.56686710e+00      
H    -4.74707080e+00     2.78364543e-01      4.36164431e-01      
O    -4.63713492e+00     -1.97062232e+00     2.52507140e+00      
H    -4.93693945e+00     -2.02139340e+00     1.60752069e+00      
H    -5.01734062e+00     -2.61545593e+00     3.12418619e+00      
O    -5.02035733e+00     -1.53583042e+00     -2.02379992e-01     
H    -5.62688338e+00     -1.81184665e+00     -8.96675224e-01     
H    -4.15297199e+00     -1.72379877e+00     -5.77783812e-01     
O    2.51983232e+00      1.26166400e+00      4.25080571e-01      
H    2.63996993e+00      2.20983927e+00      5.01585910e-01      
H    3.38610168e+00      8.67337401e-01      3.09194466e-01      
29
1645.658153
N    3.84888879e-02      -7.86574682e-04     5.45655835e-02      
H    3.02288967e-02      -8.50658760e-01     -5.45152693e-01     
H    9.61182394e-01      4.74808142e-01      1.05018788e-01      
H    -7.12259707e-01     6.21490061e-01      -3.24998680e-01     
C    -3.13215209e-01     -3.63973634e-01     1.44274943e+00      
H    4.14622711e-01      -1.06098179e+00     1.84769461e+00      
H    -3.51149489e-01     5.31543981e-01      2.05574209e+00      
C    -1.68288932e+00     -1.03074933e+00     1.41425237e+00      
O    -2.20229213e+00     -1.42817926e+00     3.86594486e-01      
O    -2.17496379e+00     -1.11212547e+00     2.62900248e+00      
H    -3.10773333e+00     -1.50039177e+00     2.58397128e+00      
O    -1.92652575e+00     1.80135833e+00      -3.98280631e-01     
H    -2.82364863e+00     1.64089486e+00      -5.23400771e-02     
H    -2.02237474e+00     2.54844760e+00      -9.92508513e-01     
O    1.92554500e-01      -2.50911399e+00     -1.09193270e+00     
H    -6.56247544e-01     -2.98063729e+00     -1.11960358e+00     
H    5.70404846e-01      -2.99011726e+00     -1.84691565e+00     
O    -4.35326803e+00     1.12162279e+00      6.87030740e-01      
H    -4.66822560e+00     1.33309407e+00      1.56691655e+00      
H    -4.74557450e+00     2.78393454e-01      4.34157267e-01      
O    -4.63863202e+00     -1.97207915e+00     2.52455158e+00      
H    -4.92428601e+00     -2.00431509e+00     1.60056365e+00      
H    -5.00663494e+00     -2.60873318e+00     3.14005976e+00      
O    -5.02058832e+00     -1.53560130e+00     -2.01768118e-01     
H    -5.62129521e+00     -1.81339067e+00     -9.01351016e-01     
H    -4.15587006e+00     -1.72633948e+00     -5.83576311e-01     
O    2.52040367e+00      1.26197308e+00      4.25045731e-01      
H    2.63397831e+00      2.21065232e+00      5.02120968e-01      
H    3.38370927e+00      8.61891822e-01      3.08863099e-01      
