29
1807.670126
N    3.61802666e-02      -2.36462410e-03     5.96110654e-02      
H    1.01365449e-01      -8.48897222e-01     -5.48088884e-01     
H    9.52979318e-01      4.79712370e-01      2.04200335e-02      
H    -6.68620958e-01     6.76626760e-01      -3.15311883e-01     
C    -3.23235739e-01     -3.69775616e-01     1.43822144e+00      
H    4.06146969e-01      -1.06626610e+00     1.84044501e+00      
H    -3.75919020e-01     5.25503501e-01      2.05286237e+00      
C    -1.62692234e+00     -9.88566965e-01     1.52803750e+00      
O    -2.23798706e+00     -1.45433617e+00     3.19881865e-01      
O    -2.17444011e+00     -1.11388601e+00     2.61043688e+00      
H    -3.11070093e+00     -1.49930659e+00     2.67321129e+00      
O    -1.92743234e+00     1.80107091e+00      -3.98538377e-01     
H    -2.82292503e+00     1.64398999e+00      -4.81237726e-02     
H    -2.01729123e+00     2.54787873e+00      -9.92824855e-01     
O    1.89349642e-01      -2.51506585e+00     -1.09665901e+00     
H    -6.72279753e-01     -2.94339752e+00     -1.06127492e+00     
H    6.32780780e-01      -2.94359774e+00     -1.83385195e+00     
O    -4.35157723e+00     1.12284711e+00      6.85587712e-01      
H    -4.67936954e+00     1.31350024e+00      1.56618098e+00      
H    -4.76292997e+00     2.78983615e-01      4.56828942e-01      
O    -4.63362026e+00     -1.96657758e+00     2.52547175e+00      
H    -4.98171381e+00     -2.07192500e+00     1.62800299e+00      
H    -5.04392421e+00     -2.63468776e+00     3.08256515e+00      
O    -5.01958626e+00     -1.53617119e+00     -2.03823509e-01     
H    -5.64019128e+00     -1.80871123e+00     -8.84241908e-01     
H    -4.14685100e+00     -1.72119148e+00     -5.69547092e-01     
O    2.51843409e+00      1.26087493e+00      4.25197390e-01      
H    2.65380779e+00      2.20796946e+00      5.00902006e-01      
H    3.39188895e+00      8.80038309e-01      3.10537831e-01      
29
1807.670126
N    3.61797894e-02      -2.23021891e-03     5.88934900e-02      
H    9.37702476e-02      -8.51057472e-01     -5.45189086e-01     
H    9.54219019e-01      4.78073101e-01      3.07712076e-02      
H    -6.75518444e-01     6.70881159e-01      -3.12646916e-01     
C    -3.21535080e-01     -3.68624415e-01     1.43915648e+00      
H    4.09564810e-01      -1.06305185e+00     1.84195945e+00      
H    -3.67323892e-01     5.27005548e-01      2.05302009e+00      
C    -1.64059219e+00     -9.99016904e-01     1.49943795e+00      
O    -2.22911148e+00     -1.44776334e+00     3.36548471e-01      
O    -2.17472979e+00     -1.11351132e+00     2.61516637e+00      
H    -3.10981176e+00     -1.49909768e+00     2.65111755e+00      
O    -1.92751109e+00     1.80130034e+00      -3.98569347e-01     
H    -2.82193770e+00     1.64062832e+00      -4.72513812e-02     
H    -2.01553154e+00     2.54777971e+00      -9.93398598e-01     
O    1.89347556e-01      -2.51531789e+00     -1.09684747e+00     
H    -6.73471738e-01     -2.93981478e+00     -1.05816056e+00     
H    6.35155408e-01      -2.94195199e+00     -1.83357689e+00     
O    -4.35183623e+00     1.12270432e+00      6.85818572e-01      
H    -4.67793353e+00     1.31638892e+00      1.56631542e+00      
H    -4.76008740e+00     2.78807164e-01      4.53168188e-01      
O    -4.63337610e+00     -1.96649614e+00     2.52576153e+00      
H    -4.98001030e+00     -2.07210083e+00     1.62810019e+00      
H    -5.04530757e+00     -2.63492187e+00     3.08106523e+00      
O    -5.01960579e+00     -1.53625784e+00     -2.03921536e-01     
H    -5.64105544e+00     -1.80833707e+00     -8.83843392e-01     
H    -4.14620769e+00     -1.71993777e+00     -5.67261898e-01     
O    2.51835513e+00      1.26084038e+00      4.25194315e-01      
H    2.65484203e+00      2.20782712e+00      5.00671688e-01      
H    3.39223644e+00      8.80947267e-01      3.10450516e-01      
29
1807.670126
N    3.61795508e-02      -2.16301631e-03     5.85347023e-02      
H    8.99726468e-02      -8.52137596e-01     -5.43739187e-01     
H    9.54838870e-01      4.77253466e-01      3.59467946e-02      
H    -6.78967187e-01     6.68008358e-01      -3.11314432e-01     
C    -3.20684751e-01     -3.68048814e-01     1.43962399e+00      
H    4.11273731e-01      -1.06144473e+00     1.84271667e+00      
H    -3.63026327e-01     5.27756572e-01      2.05309895e+00      
C    -1.64742711e+00     -1.00424187e+00     1.48513818e+00      
O    -2.22467368e+00     -1.44447693e+00     3.44881774e-01      
O    -2.17487463e+00     -1.11332397e+00     2.61753111e+00      
H    -3.10936717e+00     -1.49899322e+00     2.64007068e+00      
O    -1.92755046e+00     1.80141505e+00      -3.98584833e-01     
H    -2.82144404e+00     1.63894748e+00      -4.68151856e-02     
H    -2.01465170e+00     2.54773021e+00      -9.93685470e-01     
O    1.89346513e-01      -2.51544391e+00     -1.09694170e+00     
H    -6.74067731e-01     -2.93802340e+00     -1.05660338e+00     
H    6.36342722e-01      -2.94112911e+00     -1.83343936e+00     
O    -4.35196572e+00     1.12263293e+00      6.85934001e-01      
H    -4.67721553e+00     1.31783326e+00      1.56638264e+00      
H    -4.75866612e+00     2.78718938e-01      4.51337811e-01      
O    -4.63325402e+00     -1.96645542e+00     2.52590642e+00      
H    -4.97915854e+00     -2.07218875e+00     1.62814880e+00      
H    -5.04599925e+00     -2.63503892e+00     3.08031527e+00      
O    -5.01961556e+00     -1.53630116e+00     -2.03970549e-01     
H    -5.64148751e+00     -1.80814999e+00     -8.83644134e-01     
H    -4.14588604e+00     -1.71931092e+00     -5.66119301e-01     
O    2.51831566e+00      1.26082311e+00      4.25192778e-01      
H    2.65535916e+00      2.20775595e+00      5.00556529e-01      
H    3.39241019e+00      8.81401746e-01      3.10406858e-01      
29
1807.670126
N    3.61793122e-02      -2.09581372e-03     5.81759146e-02      
H    8.61750459e-02      -8.53217721e-01     -5.42289287e-01     
H    9.55458720e-01      4.76433832e-01      4.11223816e-02      
H    -6.82415930e-01     6.65135558e-01      -3.09981949e-01     
C    -3.19834421e-01     -3.67473214e-01     1.44009151e+00      
H    4.12982651e-01      -1.05983760e+00     1.84347390e+00      
H    -3.58728763e-01     5.28507596e-01      2.05317782e+00      
C    -1.65426203e+00     -1.00946684e+00     1.47083840e+00      
O    -2.22023589e+00     -1.44119051e+00     3.53215077e-01      
O    -2.17501947e+00     -1.11313662e+00     2.61989586e+00      
H    -3.10892259e+00     -1.49888876e+00     2.62902382e+00      
O    -1.92758983e+00     1.80152977e+00      -3.98600318e-01     
H    -2.82095038e+00     1.63726665e+00      -4.63789899e-02     
H    -2.01377185e+00     2.54768070e+00      -9.93972341e-01     
O    1.89345470e-01      -2.51556993e+00     -1.09703592e+00     
H    -6.74663723e-01     -2.93623203e+00     -1.05504620e+00     
H    6.37530036e-01      -2.94030624e+00     -1.83330183e+00     
O    -4.35209522e+00     1.12256154e+00      6.86049431e-01      
H    -4.67649752e+00     1.31927760e+00      1.56644986e+00      
H    -4.75724483e+00     2.78630712e-01      4.49507433e-01      
O    -4.63313194e+00     -1.96641470e+00     2.52605130e+00      
H    -4.97830678e+00     -2.07227666e+00     1.62819740e+00      
H    -5.04669092e+00     -2.63515597e+00     3.07956530e+00      
O    -5.01962532e+00     -1.53634448e+00     -2.04019562e-01     
H    -5.64191959e+00     -1.80796291e+00     -8.83444876e-01     
H    -4.14556438e+00     -1.71868406e+00     -5.64976704e-01     
O    2.51827618e+00      1.26080583e+00      4.25191240e-01      
H    2.65587628e+00      2.20768478e+00      5.00441370e-01      
H    3.39258393e+00      8.81856225e-01      3.10363200e-01      
29
1807.670126
N    3.61790736e-02      -2.02861112e-03     5.78171269e-02      
H    8.23774450e-02      -8.54297846e-01     -5.40839388e-01     
H    9.56078571e-01      4.75614197e-01      4.62979686e-02      
H    -6.85864674e-01     6.62262757e-01      -3.08649465e-01     
C    -3.18984092e-01     -3.66897613e-01     1.44055903e+00      
H    4.14691572e-01      -1.05823048e+00     1.84423112e+00      
H    -3.54431199e-01     5.29258620e-01      2.05325668e+00      
C    -1.66109695e+00     -1.01469181e+00     1.45653863e+00      
O    -2.21579810e+00     -1.43790410e+00     3.61548380e-01      
O    -2.17516431e+00     -1.11294928e+00     2.62226060e+00      
H    -3.10847800e+00     -1.49878431e+00     2.61797695e+00      
O    -1.92762920e+00     1.80164448e+00      -3.98615803e-01     
H    -2.82045672e+00     1.63558581e+00      -4.59427942e-02     
H    -2.01289201e+00     2.54763119e+00      -9.94259213e-01     
O    1.89344428e-01      -2.51569595e+00     -1.09713015e+00     
H    -6.75259716e-01     -2.93444065e+00     -1.05348901e+00     
H    6.38717350e-01      -2.93948336e+00     -1.83316430e+00     
O    -4.35222472e+00     1.12249014e+00      6.86164861e-01      
H    -4.67577952e+00     1.32072194e+00      1.56651708e+00      
H    -4.75582355e+00     2.78542486e-01      4.47677056e-01      
O    -4.63300986e+00     -1.96637399e+00     2.52619619e+00      
H    -4.97745502e+00     -2.07236458e+00     1.62824600e+00      
H    -5.04738260e+00     -2.63527302e+00     3.07881534e+00      
O    -5.01963509e+00     -1.53638780e+00     -2.04068576e-01     
H    -5.64235167e+00     -1.80777584e+00     -8.83245619e-01     
H    -4.14524273e+00     -1.71805721e+00     -5.63834106e-01     
O    2.51823671e+00      1.26078856e+00      4.25189703e-01      
H    2.65639340e+00      2.20761362e+00      5.00326212e-01      
H    3.39275768e+00      8.82310704e-01      3.10319542e-01      
29
1807.670126
N    3.61788350e-02      -1.96140853e-03     5.74583392e-02      
H    7.85798441e-02      -8.55377971e-01     -5.39389489e-01     
H    9.56698421e-01      4.74794563e-01      5.14735557e-02      
H    -6.89313417e-01     6.59389957e-01      -3.07316981e-01     
C    -3.18133762e-01     -3.66322012e-01     1.44102655e+00      
H    4.16400492e-01      -1.05662336e+00     1.84498834e+00      
H    -3.50133635e-01     5.30009644e-01      2.05333554e+00      
C    -1.66793188e+00     -1.01991678e+00     1.44223885e+00      
O    -2.21136031e+00     -1.43461768e+00     3.69881684e-01      
O    -2.17530915e+00     -1.11276193e+00     2.62462535e+00      
H    -3.10803342e+00     -1.49867985e+00     2.60693008e+00      
O    -1.92766858e+00     1.80175919e+00      -3.98631288e-01     
H    -2.81996305e+00     1.63390497e+00      -4.55065985e-02     
H    -2.01201216e+00     2.54758168e+00      -9.94546084e-01     
O    1.89343385e-01      -2.51582197e+00     -1.09722438e+00     
H    -6.75855708e-01     -2.93264928e+00     -1.05193183e+00     
H    6.39904664e-01      -2.93866049e+00     -1.83302677e+00     
O    -4.35235422e+00     1.12241875e+00      6.86280291e-01      
H    -4.67506152e+00     1.32216627e+00      1.56658430e+00      
H    -4.75440227e+00     2.78454261e-01      4.45846679e-01      
O    -4.63288778e+00     -1.96633327e+00     2.52634108e+00      
H    -4.97660327e+00     -2.07245249e+00     1.62829460e+00      
H    -5.04807428e+00     -2.63539008e+00     3.07806538e+00      
O    -5.01964486e+00     -1.53643112e+00     -2.04117589e-01     
H    -5.64278375e+00     -1.80758876e+00     -8.83046361e-01     
H    -4.14492107e+00     -1.71743035e+00     -5.62691509e-01     
O    2.51819723e+00      1.26077129e+00      4.25188165e-01      
H    2.65691052e+00      2.20754245e+00      5.00211053e-01      
H    3.39293142e+00      8.82765183e-01      3.10275884e-01      
29
1807.670126
N    3.61787157e-02      -1.92780723e-03     5.72789453e-02      
H    7.66810437e-02      -8.55918033e-01     -5.38664540e-01     
H    9.57008346e-01      4.74384746e-01      5.40613492e-02      
H    -6.91037788e-01     6.57953557e-01      -3.06650739e-01     
C    -3.17708597e-01     -3.66034212e-01     1.44126030e+00      
H    4.17254952e-01      -1.05581980e+00     1.84536695e+00      
H    -3.47984852e-01     5.30385156e-01      2.05337497e+00      
C    -1.67134934e+00     -1.02252927e+00     1.43508896e+00      
O    -2.20914141e+00     -1.43297447e+00     3.74048335e-01      
O    -2.17538157e+00     -1.11266826e+00     2.62580772e+00      
H    -3.10781113e+00     -1.49862762e+00     2.60140664e+00      
O    -1.92768826e+00     1.80181655e+00      -3.98639031e-01     
H    -2.81971622e+00     1.63306456e+00      -4.52885007e-02     
H    -2.01157224e+00     2.54755692e+00      -9.94689520e-01     
O    1.89342863e-01      -2.51588498e+00     -1.09727150e+00     
H    -6.76153704e-01     -2.93175359e+00     -1.05115324e+00     
H    6.40498321e-01      -2.93824905e+00     -1.83295800e+00     
O    -4.35241896e+00     1.12238305e+00      6.86338005e-01      
H    -4.67470251e+00     1.32288844e+00      1.56661791e+00      
H    -4.75369162e+00     2.78410148e-01      4.44931490e-01      
O    -4.63282674e+00     -1.96631291e+00     2.52641353e+00      
H    -4.97617739e+00     -2.07249645e+00     1.62831890e+00      
H    -5.04842012e+00     -2.63544860e+00     3.07769040e+00      
O    -5.01964974e+00     -1.53645278e+00     -2.04142096e-01     
H    -5.64299979e+00     -1.80749522e+00     -8.82946732e-01     
H    -4.14476024e+00     -1.71711692e+00     -5.62120211e-01     
O    2.51817749e+00      1.26076265e+00      4.25187396e-01      
H    2.65716909e+00      2.20750686e+00      5.00153473e-01      
H    3.39301829e+00      8.82992423e-01      3.10254055e-01      
29
1807.670126
N    3.61785964e-02      -1.89420593e-03     5.70995515e-02      
H    7.47822433e-02      -8.56458095e-01     -5.37939590e-01     
H    9.57318272e-01      4.73974928e-01      5.66491427e-02      
H    -6.92762160e-01     6.56517156e-01      -3.05984498e-01     
C    -3.17283433e-01     -3.65746412e-01     1.44149406e+00      
H    4.18109413e-01      -1.05501623e+00     1.84574556e+00      
H    -3.45836070e-01     5.30760668e-01      2.05341440e+00      
C    -1.67476680e+00     -1.02514175e+00     1.42793908e+00      
O    -2.20692251e+00     -1.43133127e+00     3.78214987e-01      
O    -2.17545399e+00     -1.11257459e+00     2.62699009e+00      
H    -3.10758883e+00     -1.49857540e+00     2.59588321e+00      
O    -1.92770795e+00     1.80187391e+00      -3.98646774e-01     
H    -2.81946939e+00     1.63222414e+00      -4.50704029e-02     
H    -2.01113232e+00     2.54753217e+00      -9.94832956e-01     
O    1.89342342e-01      -2.51594799e+00     -1.09731861e+00     
H    -6.76451701e-01     -2.93085790e+00     -1.05037465e+00     
H    6.41091978e-01      -2.93783761e+00     -1.83288924e+00     
O    -4.35248371e+00     1.12234735e+00      6.86395720e-01      
H    -4.67434351e+00     1.32361061e+00      1.56665152e+00      
H    -4.75298098e+00     2.78366035e-01      4.44016301e-01      
O    -4.63276570e+00     -1.96629255e+00     2.52648597e+00      
H    -4.97575151e+00     -2.07254041e+00     1.62834320e+00      
H    -5.04876596e+00     -2.63550713e+00     3.07731542e+00      
O    -5.01965462e+00     -1.53647444e+00     -2.04166603e-01     
H    -5.64321583e+00     -1.80740168e+00     -8.82847103e-01     
H    -4.14459942e+00     -1.71680350e+00     -5.61548912e-01     
O    2.51815776e+00      1.26075401e+00      4.25186628e-01      
H    2.65742765e+00      2.20747128e+00      5.00095894e-01      
H    3.39310517e+00      8.83219662e-01      3.10232226e-01      
29
1807.670126
N    3.61781192e-02      -1.75980075e-03     5.63819761e-02      
H    6.71870415e-02      -8.58618345e-01     -5.35039792e-01     
H    9.58557972e-01      4.72335660e-01      6.70003167e-02      
H    -6.99659646e-01     6.50771556e-01      -3.03319530e-01     
C    -3.15582773e-01     -3.64595210e-01     1.44242910e+00      
H    4.21527253e-01      -1.05180199e+00     1.84726000e+00      
H    -3.37240942e-01     5.32262716e-01      2.05357212e+00      
C    -1.68843664e+00     -1.03559169e+00     1.39933952e+00      
O    -2.19804693e+00     -1.42475843e+00     3.94881593e-01      
O    -2.17574367e+00     -1.11219989e+00     2.63171959e+00      
H    -3.10669967e+00     -1.49836648e+00     2.57378947e+00      
O    -1.92778669e+00     1.80210333e+00      -3.98677744e-01     
H    -2.81848207e+00     1.62886246e+00      -4.41980115e-02     
H    -2.00937262e+00     2.54743315e+00      -9.95406698e-01     
O    1.89340256e-01      -2.51620003e+00     -1.09750707e+00     
H    -6.77643685e-01     -2.92727516e+00     -1.04726029e+00     
H    6.43466606e-01      -2.93619187e+00     -1.83261418e+00     
O    -4.35274271e+00     1.12220457e+00      6.86626580e-01      
H    -4.67290751e+00     1.32649929e+00      1.56678596e+00      
H    -4.75013842e+00     2.78189583e-01      4.40355547e-01      
O    -4.63252154e+00     -1.96621111e+00     2.52677575e+00      
H    -4.97404799e+00     -2.07271623e+00     1.62844040e+00      
H    -5.05014932e+00     -2.63574123e+00     3.07581550e+00      
O    -5.01967416e+00     -1.53656108e+00     -2.04264629e-01     
H    -5.64407999e+00     -1.80702752e+00     -8.82448587e-01     
H    -4.14395610e+00     -1.71554978e+00     -5.59263718e-01     
O    2.51807880e+00      1.26071947e+00      4.25183552e-01      
H    2.65846189e+00      2.20732894e+00      4.99865576e-01      
H    3.39345265e+00      8.84128620e-01      3.10144910e-01      
29
1807.670126
N    3.61779999e-02      -1.72619945e-03     5.62025823e-02      
H    6.52882411e-02      -8.59158407e-01     -5.34314842e-01     
H    9.58867898e-01      4.71925842e-01      6.95881102e-02      
H    -7.01384018e-01     6.49335155e-01      -3.02653289e-01     
C    -3.15157609e-01     -3.64307410e-01     1.44266286e+00      
H    4.22381714e-01      -1.05099842e+00     1.84763861e+00      
H    -3.35092160e-01     5.32638228e-01      2.05361155e+00      
C    -1.69185410e+00     -1.03820417e+00     1.39218964e+00      
O    -2.19582803e+00     -1.42311523e+00     3.99048245e-01      
O    -2.17581609e+00     -1.11210622e+00     2.63290196e+00      
H    -3.10647737e+00     -1.49831426e+00     2.56826604e+00      
O    -1.92780638e+00     1.80216069e+00      -3.98685487e-01     
H    -2.81823524e+00     1.62802204e+00      -4.39799137e-02     
H    -2.00893270e+00     2.54740840e+00      -9.95550134e-01     
O    1.89339735e-01      -2.51626304e+00     -1.09755418e+00     
H    -6.77941682e-01     -2.92637947e+00     -1.04648170e+00     
H    6.44060263e-01      -2.93578043e+00     -1.83254542e+00     
O    -4.35280746e+00     1.12216887e+00      6.86684295e-01      
H    -4.67254851e+00     1.32722146e+00      1.56681957e+00      
H    -4.74942778e+00     2.78145470e-01      4.39440358e-01      
O    -4.63246050e+00     -1.96619075e+00     2.52684819e+00      
H    -4.97362211e+00     -2.07276019e+00     1.62846470e+00      
H    -5.05049516e+00     -2.63579976e+00     3.07544052e+00      
O    -5.01967904e+00     -1.53658274e+00     -2.04289136e-01     
H    -5.64429603e+00     -1.80693398e+00     -8.82348958e-01     
H    -4.14379528e+00     -1.71523636e+00     -5.58692419e-01     
O    2.51805907e+00      1.26071083e+00      4.25182784e-01      
H    2.65872045e+00      2.20729336e+00      4.99807997e-01      
H    3.39353953e+00      8.84355859e-01      3.10123081e-01      
29
1807.670126
N    3.61778806e-02      -1.69259815e-03     5.60231884e-02      
H    6.33894407e-02      -8.59698469e-01     -5.33589893e-01     
H    9.59177823e-01      4.71516025e-01      7.21759037e-02      
H    -7.03108389e-01     6.47898755e-01      -3.01987047e-01     
C    -3.14732444e-01     -3.64019610e-01     1.44289661e+00      
H    4.23236174e-01      -1.05019486e+00     1.84801722e+00      
H    -3.32943377e-01     5.33013740e-01      2.05365098e+00      
C    -1.69527156e+00     -1.04081666e+00     1.38503975e+00      
O    -2.19360913e+00     -1.42147202e+00     4.03214896e-01      
O    -2.17588851e+00     -1.11201255e+00     2.63408433e+00      
H    -3.10625508e+00     -1.49826203e+00     2.56274260e+00      
O    -1.92782606e+00     1.80221805e+00      -3.98693230e-01     
H    -2.81798841e+00     1.62718163e+00      -4.37618159e-02     
H    -2.00849278e+00     2.54738364e+00      -9.95693570e-01     
O    1.89339213e-01      -2.51632605e+00     -1.09760130e+00     
H    -6.78239678e-01     -2.92548378e+00     -1.04570311e+00     
H    6.44653920e-01      -2.93536899e+00     -1.83247665e+00     
O    -4.35287220e+00     1.12213317e+00      6.86742009e-01      
H    -4.67218950e+00     1.32794363e+00      1.56685318e+00      
H    -4.74871713e+00     2.78101357e-01      4.38525169e-01      
O    -4.63239946e+00     -1.96617039e+00     2.52692064e+00      
H    -4.97319623e+00     -2.07280415e+00     1.62848900e+00      
H    -5.05084100e+00     -2.63585828e+00     3.07506554e+00      
O    -5.01968392e+00     -1.53660440e+00     -2.04313643e-01     
H    -5.64451207e+00     -1.80684044e+00     -8.82249329e-01     
H    -4.14363445e+00     -1.71492293e+00     -5.58121121e-01     
O    2.51803933e+00      1.26070219e+00      4.25182015e-01      
H    2.65897902e+00      2.20725777e+00      4.99750417e-01      
H    3.39362640e+00      8.84583099e-01      3.10101252e-01      
29
1807.670126
N    3.61776420e-02      -1.62539556e-03     5.56644007e-02      
H    5.95918398e-02      -8.60778594e-01     -5.32139994e-01     
H    9.59797673e-01      4.70696391e-01      7.73514908e-02      
H    -7.06557132e-01     6.45025955e-01      -3.00654563e-01     
C    -3.13882114e-01     -3.63444009e-01     1.44336413e+00      
H    4.24945094e-01      -1.04858774e+00     1.84877444e+00      
H    -3.28645813e-01     5.33764764e-01      2.05372984e+00      
C    -1.70210649e+00     -1.04604163e+00     1.37073997e+00      
O    -2.18917134e+00     -1.41818560e+00     4.11548200e-01      
O    -2.17603335e+00     -1.11182520e+00     2.63644908e+00      
H    -3.10581050e+00     -1.49815757e+00     2.55169573e+00      
O    -1.92786544e+00     1.80233276e+00      -3.98708715e-01     
H    -2.81749474e+00     1.62550079e+00      -4.33256202e-02     
H    -2.00761293e+00     2.54733413e+00      -9.95980441e-01     
O    1.89338170e-01      -2.51645207e+00     -1.09769553e+00     
H    -6.78835670e-01     -2.92369241e+00     -1.04414593e+00     
H    6.45841234e-01      -2.93454612e+00     -1.83233912e+00     
O    -4.35300170e+00     1.12206178e+00      6.86857439e-01      
H    -4.67147150e+00     1.32938796e+00      1.56692040e+00      
H    -4.74729585e+00     2.78013132e-01      4.36694792e-01      
O    -4.63227738e+00     -1.96612967e+00     2.52706553e+00      
H    -4.97234448e+00     -2.07289206e+00     1.62853760e+00      
H    -5.05153268e+00     -2.63597534e+00     3.07431558e+00      
O    -5.01969369e+00     -1.53664772e+00     -2.04362656e-01     
H    -5.64494415e+00     -1.80665336e+00     -8.82050071e-01     
H    -4.14331279e+00     -1.71429607e+00     -5.56978524e-01     
O    2.51799985e+00      1.26068492e+00      4.25180477e-01      
H    2.65949614e+00      2.20718660e+00      4.99635258e-01      
H    3.39380014e+00      8.85037578e-01      3.10057594e-01      
29
1807.670126
N    3.61774034e-02      -1.55819296e-03     5.53056130e-02      
H    5.57942389e-02      -8.61858719e-01     -5.30690095e-01     
H    9.60417524e-01      4.69876756e-01      8.25270778e-02      
H    -7.10005876e-01     6.42153154e-01      -2.99322079e-01     
C    -3.13031785e-01     -3.62868408e-01     1.44383165e+00      
H    4.26654015e-01      -1.04698062e+00     1.84953166e+00      
H    -3.24348249e-01     5.34515788e-01      2.05380870e+00      
C    -1.70894141e+00     -1.05126660e+00     1.35644020e+00      
O    -2.18473355e+00     -1.41489919e+00     4.19881503e-01      
O    -2.17617819e+00     -1.11163786e+00     2.63881382e+00      
H    -3.10536591e+00     -1.49805312e+00     2.54064886e+00      
O    -1.92790481e+00     1.80244747e+00      -3.98724200e-01     
H    -2.81700108e+00     1.62381995e+00      -4.28894245e-02     
H    -2.00673309e+00     2.54728462e+00      -9.96267313e-01     
O    1.89337128e-01      -2.51657809e+00     -1.09778976e+00     
H    -6.79431663e-01     -2.92190103e+00     -1.04258874e+00     
H    6.47028548e-01      -2.93372324e+00     -1.83220159e+00     
O    -4.35313120e+00     1.12199038e+00      6.86972869e-01      
H    -4.67075350e+00     1.33083230e+00      1.56698762e+00      
H    -4.74587457e+00     2.77924906e-01      4.34864415e-01      
O    -4.63215530e+00     -1.96608896e+00     2.52721042e+00      
H    -4.97149272e+00     -2.07297998e+00     1.62858620e+00      
H    -5.05222436e+00     -2.63609239e+00     3.07356562e+00      
O    -5.01970346e+00     -1.53669104e+00     -2.04411670e-01     
H    -5.64537623e+00     -1.80646629e+00     -8.81850814e-01     
H    -4.14299114e+00     -1.71366922e+00     -5.55835926e-01     
O    2.51796038e+00      1.26066765e+00      4.25178940e-01      
H    2.66001326e+00      2.20711544e+00      4.99520100e-01      
H    3.39397389e+00      8.85492057e-01      3.10013936e-01      
29
1807.670126
N    3.61771648e-02      -1.49099037e-03     5.49468253e-02      
H    5.19966380e-02      -8.62938844e-01     -5.29240195e-01     
H    9.61037374e-01      4.69057122e-01      8.77026648e-02      
H    -7.13454619e-01     6.39280354e-01      -2.97989596e-01     
C    -3.12181455e-01     -3.62292808e-01     1.44429917e+00      
H    4.28362935e-01      -1.04537349e+00     1.85028889e+00      
H    -3.20050685e-01     5.35266812e-01      2.05388757e+00      
C    -1.71577633e+00     -1.05649157e+00     1.34214042e+00      
O    -2.18029576e+00     -1.41161277e+00     4.28214806e-01      
O    -2.17632303e+00     -1.11145051e+00     2.64117857e+00      
H    -3.10492133e+00     -1.49794866e+00     2.52960200e+00      
O    -1.92794418e+00     1.80256219e+00      -3.98739685e-01     
H    -2.81650742e+00     1.62213912e+00      -4.24532288e-02     
H    -2.00585324e+00     2.54723511e+00      -9.96554184e-01     
O    1.89336085e-01      -2.51670411e+00     -1.09788398e+00     
H    -6.80027655e-01     -2.92010966e+00     -1.04103156e+00     
H    6.48215862e-01      -2.93290037e+00     -1.83206406e+00     
O    -4.35326070e+00     1.12191899e+00      6.87088299e-01      
H    -4.67003549e+00     1.33227664e+00      1.56705484e+00      
H    -4.74445328e+00     2.77836680e-01      4.33034037e-01      
O    -4.63203322e+00     -1.96604824e+00     2.52735530e+00      
H    -4.97064096e+00     -2.07306789e+00     1.62863480e+00      
H    -5.05291603e+00     -2.63620944e+00     3.07281565e+00      
O    -5.01971322e+00     -1.53673436e+00     -2.04460683e-01     
H    -5.64580831e+00     -1.80627921e+00     -8.81651556e-01     
H    -4.14266948e+00     -1.71304236e+00     -5.54693329e-01     
O    2.51792090e+00      1.26065037e+00      4.25177402e-01      
H    2.66053038e+00      2.20704427e+00      4.99404941e-01      
H    3.39414763e+00      8.85946536e-01      3.09970278e-01      
29
1807.670126
N    3.61769262e-02      -1.42378777e-03     5.45880376e-02      
H    4.81990372e-02      -8.64018968e-01     -5.27790296e-01     
H    9.61657225e-01      4.68237487e-01      9.28782518e-02      
H    -7.16903362e-01     6.36407553e-01      -2.96657112e-01     
C    -3.11331126e-01     -3.61717207e-01     1.44476668e+00      
H    4.30071856e-01      -1.04376637e+00     1.85104611e+00      
H    -3.15753120e-01     5.36017836e-01      2.05396643e+00      
C    -1.72261125e+00     -1.06171654e+00     1.32784065e+00      
O    -2.17585796e+00     -1.40832636e+00     4.36548109e-01      
O    -2.17646787e+00     -1.11126316e+00     2.64354331e+00      
H    -3.10447674e+00     -1.49784420e+00     2.51855513e+00      
O    -1.92798355e+00     1.80267690e+00      -3.98755171e-01     
H    -2.81601376e+00     1.62045828e+00      -4.20170332e-02     
H    -2.00497340e+00     2.54718561e+00      -9.96841056e-01     
O    1.89335042e-01      -2.51683013e+00     -1.09797821e+00     
H    -6.80623648e-01     -2.91831828e+00     -1.03947438e+00     
H    6.49403176e-01      -2.93207749e+00     -1.83192653e+00     
O    -4.35339019e+00     1.12184760e+00      6.87203728e-01      
H    -4.66931749e+00     1.33372098e+00      1.56712206e+00      
H    -4.74303200e+00     2.77748454e-01      4.31203660e-01      
O    -4.63191114e+00     -1.96600752e+00     2.52750019e+00      
H    -4.96978920e+00     -2.07315581e+00     1.62868341e+00      
H    -5.05360771e+00     -2.63632649e+00     3.07206569e+00      
O    -5.01972299e+00     -1.53677768e+00     -2.04509696e-01     
H    -5.64624038e+00     -1.80609213e+00     -8.81452298e-01     
H    -4.14234783e+00     -1.71241551e+00     -5.53550732e-01     
O    2.51788143e+00      1.26063310e+00      4.25175865e-01      
H    2.66104751e+00      2.20697310e+00      4.99289782e-01      
H    3.39432138e+00      8.86401015e-01      3.09926620e-01      
29
1807.670126
N    3.61764490e-02      -1.28938258e-03     5.38704622e-02      
H    4.06038354e-02      -8.66179218e-01     -5.24890498e-01     
H    9.62896926e-01      4.66598218e-01      1.03229426e-01      
H    -7.23800848e-01     6.30661952e-01      -2.93992145e-01     
C    -3.09630467e-01     -3.60566006e-01     1.44570172e+00      
H    4.33489697e-01      -1.04055212e+00     1.85256055e+00      
H    -3.07157992e-01     5.37519883e-01      2.05412415e+00      
C    -1.73628110e+00     -1.07216647e+00     1.29924110e+00      
O    -2.16698238e+00     -1.40175353e+00     4.53214715e-01      
O    -2.17675755e+00     -1.11088847e+00     2.64827280e+00      
H    -3.10358757e+00     -1.49763529e+00     2.49646139e+00      
O    -1.92806230e+00     1.80290633e+00      -3.98786141e-01     
H    -2.81502643e+00     1.61709661e+00      -4.11446418e-02     
H    -2.00321371e+00     2.54708659e+00      -9.97414799e-01     
O    1.89332956e-01      -2.51708217e+00     -1.09816667e+00     
H    -6.81815633e-01     -2.91473554e+00     -1.03636002e+00     
H    6.51777804e-01      -2.93043174e+00     -1.83165147e+00     
O    -4.35364919e+00     1.12170481e+00      6.87434588e-01      
H    -4.66788148e+00     1.33660966e+00      1.56725650e+00      
H    -4.74018943e+00     2.77572003e-01      4.27542906e-01      
O    -4.63166698e+00     -1.96592608e+00     2.52778997e+00      
H    -4.96808569e+00     -2.07333164e+00     1.62878061e+00      
H    -5.05499107e+00     -2.63656060e+00     3.07056577e+00      
O    -5.01974252e+00     -1.53686433e+00     -2.04607723e-01     
H    -5.64710454e+00     -1.80571797e+00     -8.81053782e-01     
H    -4.14170452e+00     -1.71116180e+00     -5.51265538e-01     
O    2.51780247e+00      1.26059855e+00      4.25172790e-01      
H    2.66208175e+00      2.20683076e+00      4.99059464e-01      
H    3.39466887e+00      8.87309973e-01      3.09839305e-01      
