29
1643.023302
N    3.49407978e-02      -2.27136862e-03     5.67175536e-02      
H    1.04001124e-01      -8.71894772e-01     -5.19617629e-01     
H    9.56264242e-01      4.72896038e-01      3.21123581e-02      
H    -6.88445760e-01     6.82966819e-01      -2.75415687e-01     
C    -3.19599187e-01     -3.66425865e-01     1.44176533e+00      
H    4.25258604e-01      -1.04750959e+00     1.84244367e+00      
H    -3.34047821e-01     5.33029905e-01      2.04942990e+00      
C    -1.68082226e+00     -1.03005845e+00     1.41317804e+00      
O    -2.20260051e+00     -1.42790241e+00     3.86665593e-01      
O    -2.17534317e+00     -1.11227508e+00     2.62950978e+00      
H    -3.10789611e+00     -1.50069279e+00     2.58440519e+00      
O    -1.92844110e+00     1.80244890e+00      -3.99023769e-01     
H    -2.81615386e+00     1.62314253e+00      -3.94447516e-02     
H    -2.00276568e+00     2.54690873e+00      -9.96876285e-01     
O    1.86691004e-01      -2.52189503e+00     -1.10202677e+00     
H    -6.94565175e-01     -2.88555777e+00     -9.90095325e-01     
H    7.02154359e-01      -2.89282491e+00     -1.82100080e+00     
O    -4.35432452e+00     1.12096061e+00      6.87804967e-01      
H    -4.66083602e+00     1.34420973e+00      1.56695452e+00      
H    -4.73820311e+00     2.78442118e-01      4.21336076e-01      
O    -4.63907795e+00     -1.97253446e+00     2.52434339e+00      
H    -4.92003976e+00     -1.99861229e+00     1.59846062e+00      
H    -5.00319646e+00     -2.60645604e+00     3.14490546e+00      
O    -5.02108314e+00     -1.53479799e+00     -1.99677602e-01     
H    -5.60380773e+00     -1.81937615e+00     -9.14680591e-01     
H    -4.16505723e+00     -1.73348349e+00     -6.02320774e-01     
O    2.51662121e+00      1.25992194e+00      4.25283009e-01      
H    2.67347774e+00      2.20528750e+00      4.98559085e-01      
H    3.39948370e+00      8.97833965e-01      3.11003240e-01      
29
1643.023302
N    3.52501878e-02      -2.16027730e-03     5.67233562e-02      
H    9.57470036e-02      -8.68305634e-01     -5.23835644e-01     
H    9.56682712e-01      4.72960852e-01      3.95404510e-02      
H    -6.90387046e-01     6.75636204e-01      -2.82724768e-01     
C    -3.18807666e-01     -3.66112101e-01     1.44181439e+00      
H    4.23898536e-01      -1.04898447e+00     1.84345845e+00      
H    -3.35920492e-01     5.32650351e-01      2.05044574e+00      
C    -1.68101712e+00     -1.03013552e+00     1.41329335e+00      
O    -2.20257156e+00     -1.42793802e+00     3.86636267e-01      
O    -2.17540709e+00     -1.11230312e+00     2.62947104e+00      
H    -3.10770815e+00     -1.50013732e+00     2.58451298e+00      
O    -1.92826766e+00     1.80233383e+00      -3.98933392e-01     
H    -2.81685933e+00     1.62499272e+00      -4.07421155e-02     
H    -2.00463738e+00     2.54705221e+00      -9.96437171e-01     
O    1.87353577e-01      -2.52043977e+00     -1.10087329e+00     
H    -6.90185805e-01     -2.89643496e+00     -1.00477586e+00     
H    6.87185592e-01      -2.90387236e+00     -1.82393853e+00     
O    -4.35389669e+00     1.12128945e+00      6.87481513e-01      
H    -4.66403339e+00     1.33942103e+00      1.56689558e+00      
H    -4.74154226e+00     2.78401041e-01      4.26548538e-01      
O    -4.63746937e+00     -1.97096380e+00     2.52491525e+00      
H    -4.93375476e+00     -2.01711630e+00     1.60594342e+00      
H    -5.01476175e+00     -2.61374808e+00     3.12782046e+00      
O    -5.02072845e+00     -1.53522794e+00     -2.00812106e-01     
H    -5.61376778e+00     -1.81633576e+00     -9.06672404e-01     
H    -4.15986236e+00     -1.72915678e+00     -5.91842159e-01     
O    2.51699547e+00      1.26012564e+00      4.25258529e-01      
H    2.66959450e+00      2.20581565e+00      4.98914498e-01      
H    3.39793250e+00      8.94294009e-01      3.10799572e-01      
29
1643.023302
N    3.54048828e-02      -2.10473164e-03     5.67262574e-02      
H    9.16199434e-02      -8.66511065e-01     -5.25944652e-01     
H    9.56891947e-01      4.72993259e-01      4.32544975e-02      
H    -6.91357689e-01     6.71970896e-01      -2.86379309e-01     
C    -3.18411905e-01     -3.65955220e-01     1.44183892e+00      
H    4.23218502e-01      -1.04972191e+00     1.84396584e+00      
H    -3.36856828e-01     5.32460575e-01      2.05095366e+00      
C    -1.68111456e+00     -1.03017405e+00     1.41335101e+00      
O    -2.20255709e+00     -1.42795582e+00     3.86621605e-01      
O    -2.17543904e+00     -1.11231714e+00     2.62945168e+00      
H    -3.10761417e+00     -1.49985959e+00     2.58456687e+00      
O    -1.92818094e+00     1.80227630e+00      -3.98888203e-01     
H    -2.81721206e+00     1.62591782e+00      -4.13907975e-02     
H    -2.00557323e+00     2.54712395e+00      -9.96217613e-01     
O    1.87684864e-01      -2.51971215e+00     -1.10029654e+00     
H    -6.87996119e-01     -2.90187356e+00     -1.01211613e+00     
H    6.79701209e-01      -2.90939609e+00     -1.82540739e+00     
O    -4.35368278e+00     1.12145386e+00      6.87319785e-01      
H    -4.66563208e+00     1.33702669e+00      1.56686610e+00      
H    -4.74321183e+00     2.78380502e-01      4.29154769e-01      
O    -4.63666508e+00     -1.97017847e+00     2.52520119e+00      
H    -4.94061226e+00     -2.02636830e+00     1.60968482e+00      
H    -5.02054440e+00     -2.61739409e+00     3.11927796e+00      
O    -5.02055111e+00     -1.53544291e+00     -2.01379357e-01     
H    -5.61874780e+00     -1.81481557e+00     -9.02668311e-01     
H    -4.15726493e+00     -1.72699342e+00     -5.86602852e-01     
O    2.51718261e+00      1.26022749e+00      4.25246289e-01      
H    2.66765288e+00      2.20607973e+00      4.99092204e-01      
H    3.39715691e+00      8.92524031e-01      3.10697738e-01      
29
1643.023302
N    3.55595778e-02      -2.04918598e-03     5.67291587e-02      
H    8.74928832e-02      -8.64716496e-01     -5.28053660e-01     
H    9.57101182e-01      4.73025666e-01      4.69685439e-02      
H    -6.92328332e-01     6.68305588e-01      -2.90033850e-01     
C    -3.18016145e-01     -3.65798338e-01     1.44186345e+00      
H    4.22538469e-01      -1.05045935e+00     1.84447323e+00      
H    -3.37793164e-01     5.32270798e-01      2.05146158e+00      
C    -1.68121199e+00     -1.03021259e+00     1.41340867e+00      
O    -2.20254261e+00     -1.42797363e+00     3.86606942e-01      
O    -2.17547100e+00     -1.11233116e+00     2.62943231e+00      
H    -3.10752018e+00     -1.49958186e+00     2.58462077e+00      
O    -1.92809421e+00     1.80221876e+00      -3.98843014e-01     
H    -2.81756479e+00     1.62684292e+00      -4.20394794e-02     
H    -2.00650908e+00     2.54719569e+00      -9.95998056e-01     
O    1.88016151e-01      -2.51898452e+00     -1.09971980e+00     
H    -6.85806434e-01     -2.90731215e+00     -1.01945640e+00     
H    6.72216825e-01      -2.91491982e+00     -1.82687626e+00     
O    -4.35346887e+00     1.12161828e+00      6.87158058e-01      
H    -4.66723076e+00     1.33463234e+00      1.56683663e+00      
H    -4.74488140e+00     2.78359964e-01      4.31761000e-01      
O    -4.63586078e+00     -1.96939314e+00     2.52548712e+00      
H    -4.94746976e+00     -2.03562030e+00     1.61342621e+00      
H    -5.02632705e+00     -2.62104011e+00     3.11073546e+00      
O    -5.02037376e+00     -1.53565788e+00     -2.01946609e-01     
H    -5.62372782e+00     -1.81329537e+00     -8.98664218e-01     
H    -4.15466749e+00     -1.72483006e+00     -5.81363544e-01     
O    2.51736974e+00      1.26032934e+00      4.25234050e-01      
H    2.66571125e+00      2.20634380e+00      4.99269910e-01      
H    3.39638131e+00      8.90754053e-01      3.10595904e-01      
29
1643.023302
N    3.57142728e-02      -1.99364032e-03     5.67320600e-02      
H    8.33658230e-02      -8.62921927e-01     -5.30162668e-01     
H    9.57310417e-01      4.73058073e-01      5.06825904e-02      
H    -6.93298974e-01     6.64640280e-01      -2.93688391e-01     
C    -3.17620384e-01     -3.65641456e-01     1.44188799e+00      
H    4.21858435e-01      -1.05119679e+00     1.84498061e+00      
H    -3.38729499e-01     5.32081022e-01      2.05196950e+00      
C    -1.68130942e+00     -1.03025112e+00     1.41346633e+00      
O    -2.20252814e+00     -1.42799143e+00     3.86592279e-01      
O    -2.17550296e+00     -1.11234518e+00     2.62941294e+00      
H    -3.10742620e+00     -1.49930413e+00     2.58467466e+00      
O    -1.92800749e+00     1.80216123e+00      -3.98797825e-01     
H    -2.81791753e+00     1.62776801e+00      -4.26881614e-02     
H    -2.00744492e+00     2.54726744e+00      -9.95778499e-01     
O    1.88347438e-01      -2.51825689e+00     -1.09914306e+00     
H    -6.83616749e-01     -2.91275075e+00     -1.02679667e+00     
H    6.64732442e-01      -2.92044355e+00     -1.82834512e+00     
O    -4.35325495e+00     1.12178270e+00      6.86996331e-01      
H    -4.66882945e+00     1.33223799e+00      1.56680716e+00      
H    -4.74655098e+00     2.78339425e-01      4.34367231e-01      
O    -4.63505649e+00     -1.96860781e+00     2.52577306e+00      
H    -4.95432725e+00     -2.04487231e+00     1.61716761e+00      
H    -5.03210970e+00     -2.62468613e+00     3.10219296e+00      
O    -5.02019642e+00     -1.53587285e+00     -2.02513861e-01     
H    -5.62870784e+00     -1.81177518e+00     -8.94660125e-01     
H    -4.15207006e+00     -1.72266671e+00     -5.76124237e-01     
O    2.51755688e+00      1.26043119e+00      4.25221810e-01      
H    2.66376963e+00      2.20660788e+00      4.99447616e-01      
H    3.39560571e+00      8.88984075e-01      3.10494070e-01      
29
1643.023302
N    3.58689678e-02      -1.93809466e-03     5.67349613e-02      
H    7.92387628e-02      -8.61127358e-01     -5.32271675e-01     
H    9.57519652e-01      4.73090480e-01      5.43966368e-02      
H    -6.94269617e-01     6.60974972e-01      -2.97342932e-01     
C    -3.17224624e-01     -3.65484574e-01     1.44191252e+00      
H    4.21178401e-01      -1.05193423e+00     1.84548800e+00      
H    -3.39665835e-01     5.31891245e-01      2.05247742e+00      
C    -1.68140685e+00     -1.03028965e+00     1.41352398e+00      
O    -2.20251367e+00     -1.42800924e+00     3.86577616e-01      
O    -2.17553492e+00     -1.11235920e+00     2.62939357e+00      
H    -3.10733222e+00     -1.49902640e+00     2.58472855e+00      
O    -1.92792077e+00     1.80210369e+00      -3.98752637e-01     
H    -2.81827026e+00     1.62869311e+00      -4.33368433e-02     
H    -2.00838077e+00     2.54733918e+00      -9.95558942e-01     
O    1.88678725e-01      -2.51752926e+00     -1.09856632e+00     
H    -6.81427064e-01     -2.91818934e+00     -1.03413693e+00     
H    6.57248059e-01      -2.92596728e+00     -1.82981398e+00     
O    -4.35304104e+00     1.12194712e+00      6.86834604e-01      
H    -4.67042814e+00     1.32984364e+00      1.56677769e+00      
H    -4.74822055e+00     2.78318886e-01      4.36973462e-01      
O    -4.63425220e+00     -1.96782249e+00     2.52605899e+00      
H    -4.96118475e+00     -2.05412431e+00     1.62090901e+00      
H    -5.03789234e+00     -2.62833215e+00     3.09365046e+00      
O    -5.02001908e+00     -1.53608782e+00     -2.03081113e-01     
H    -5.63368787e+00     -1.81025499e+00     -8.90656031e-01     
H    -4.14947263e+00     -1.72050335e+00     -5.70884930e-01     
O    2.51774401e+00      1.26053304e+00      4.25209570e-01      
H    2.66182801e+00      2.20687196e+00      4.99625323e-01      
H    3.39483011e+00      8.87214097e-01      3.10392236e-01      
29
1643.023302
N    3.59463153e-02      -1.91032183e-03     5.67364119e-02      
H    7.71752327e-02      -8.60230074e-01     -5.33326179e-01     
H    9.57624269e-01      4.73106684e-01      5.62536600e-02      
H    -6.94754939e-01     6.59142318e-01      -2.99170203e-01     
C    -3.17026744e-01     -3.65406134e-01     1.44192478e+00      
H    4.20838384e-01      -1.05230295e+00     1.84574170e+00      
H    -3.40134003e-01     5.31796357e-01      2.05273138e+00      
C    -1.68145557e+00     -1.03030892e+00     1.41355281e+00      
O    -2.20250643e+00     -1.42801814e+00     3.86570284e-01      
O    -2.17555089e+00     -1.11236621e+00     2.62938389e+00      
H    -3.10728522e+00     -1.49888754e+00     2.58475550e+00      
O    -1.92787740e+00     1.80207492e+00      -3.98730042e-01     
H    -2.81844663e+00     1.62915566e+00      -4.36611843e-02     
H    -2.00884870e+00     2.54737505e+00      -9.95449163e-01     
O    1.88844369e-01      -2.51716545e+00     -1.09827795e+00     
H    -6.80332221e-01     -2.92090864e+00     -1.03780707e+00     
H    6.53505867e-01      -2.92872915e+00     -1.83054842e+00     
O    -4.35293408e+00     1.12202933e+00      6.86753741e-01      
H    -4.67122748e+00     1.32864647e+00      1.56676295e+00      
H    -4.74905534e+00     2.78308617e-01      4.38276578e-01      
O    -4.63385006e+00     -1.96742982e+00     2.52620196e+00      
H    -4.96461350e+00     -2.05875031e+00     1.62277970e+00      
H    -5.04078367e+00     -2.63015515e+00     3.08937921e+00      
O    -5.01993041e+00     -1.53619530e+00     -2.03364738e-01     
H    -5.63617788e+00     -1.80949489e+00     -8.88653985e-01     
H    -4.14817391e+00     -1.71942167e+00     -5.68265276e-01     
O    2.51783758e+00      1.26058397e+00      4.25203450e-01      
H    2.66085720e+00      2.20700400e+00      4.99714176e-01      
H    3.39444231e+00      8.86329108e-01      3.10341319e-01      
29
1643.023302
N    3.60236628e-02      -1.88254900e-03     5.67378625e-02      
H    7.51117026e-02      -8.59332789e-01     -5.34380683e-01     
H    9.57728887e-01      4.73122887e-01      5.81106833e-02      
H    -6.95240260e-01     6.57309664e-01      -3.00997473e-01     
C    -3.16828863e-01     -3.65327693e-01     1.44193705e+00      
H    4.20498367e-01      -1.05267167e+00     1.84599539e+00      
H    -3.40602170e-01     5.31701469e-01      2.05298534e+00      
C    -1.68150429e+00     -1.03032819e+00     1.41358164e+00      
O    -2.20249919e+00     -1.42802704e+00     3.86562953e-01      
O    -2.17556687e+00     -1.11237322e+00     2.62937421e+00      
H    -3.10723823e+00     -1.49874867e+00     2.58478245e+00      
O    -1.92783404e+00     1.80204616e+00      -3.98707448e-01     
H    -2.81862300e+00     1.62961820e+00      -4.39855253e-02     
H    -2.00931662e+00     2.54741092e+00      -9.95339384e-01     
O    1.89010012e-01      -2.51680164e+00     -1.09798958e+00     
H    -6.79237378e-01     -2.92362794e+00     -1.04147720e+00     
H    6.49763675e-01      -2.93149101e+00     -1.83128285e+00     
O    -4.35282712e+00     1.12211154e+00      6.86672877e-01      
H    -4.67202682e+00     1.32744930e+00      1.56674821e+00      
H    -4.74989013e+00     2.78298348e-01      4.39579693e-01      
O    -4.63344791e+00     -1.96703716e+00     2.52634493e+00      
H    -4.96804225e+00     -2.06337632e+00     1.62465040e+00      
H    -5.04367499e+00     -2.63197816e+00     3.08510796e+00      
O    -5.01984173e+00     -1.53630279e+00     -2.03648364e-01     
H    -5.63866789e+00     -1.80873479e+00     -8.86651938e-01     
H    -4.14687519e+00     -1.71834000e+00     -5.65645622e-01     
O    2.51793115e+00      1.26063489e+00      4.25197330e-01      
H    2.65988639e+00      2.20713603e+00      4.99803029e-01      
H    3.39405451e+00      8.85444119e-01      3.10290402e-01      
29
1643.023302
N    3.63330528e-02      -1.77145768e-03     5.67436651e-02      
H    6.68575822e-02      -8.55743651e-01     -5.38598699e-01     
H    9.58147357e-01      4.73187701e-01      6.55387761e-02      
H    -6.97181546e-01     6.49979048e-01      -3.08306555e-01     
C    -3.16037343e-01     -3.65013929e-01     1.44198611e+00      
H    4.19138299e-01      -1.05414655e+00     1.84701017e+00      
H    -3.42474842e-01     5.31321915e-01      2.05400118e+00      
C    -1.68169915e+00     -1.03040525e+00     1.41369696e+00      
O    -2.20247025e+00     -1.42806266e+00     3.86533627e-01      
O    -2.17563079e+00     -1.11240126e+00     2.62933547e+00      
H    -3.10705027e+00     -1.49819321e+00     2.58489023e+00      
O    -1.92766060e+00     1.80193108e+00      -3.98617070e-01     
H    -2.81932846e+00     1.63146840e+00      -4.52828891e-02     
H    -2.01118832e+00     2.54755440e+00      -9.94900270e-01     
O    1.89672586e-01      -2.51534638e+00     -1.09683610e+00     
H    -6.74858008e-01     -2.93450512e+00     -1.05615774e+00     
H    6.34794909e-01      -2.94253847e+00     -1.83422057e+00     
O    -4.35239930e+00     1.12244038e+00      6.86349423e-01      
H    -4.67522420e+00     1.32266060e+00      1.56668927e+00      
H    -4.75322927e+00     2.78257270e-01      4.44792155e-01      
O    -4.63183933e+00     -1.96546650e+00     2.52691679e+00      
H    -4.98175725e+00     -2.08188032e+00     1.63213320e+00      
H    -5.05524029e+00     -2.63927020e+00     3.06802296e+00      
O    -5.01948705e+00     -1.53673273e+00     -2.04782868e-01     
H    -5.64862793e+00     -1.80569441e+00     -8.78643752e-01     
H    -4.14168033e+00     -1.71401328e+00     -5.55167008e-01     
O    2.51830541e+00      1.26083859e+00      4.25172850e-01      
H    2.65600315e+00      2.20766419e+00      5.00158441e-01      
H    3.39250331e+00      8.81904163e-01      3.10086734e-01      
29
1643.023302
N    3.64104003e-02      -1.74368485e-03     5.67451157e-02      
H    6.47940521e-02      -8.54846366e-01     -5.39653203e-01     
H    9.58251975e-01      4.73203904e-01      6.73957994e-02      
H    -6.97666867e-01     6.48146394e-01      -3.10133825e-01     
C    -3.15839462e-01     -3.64935488e-01     1.44199838e+00      
H    4.18798282e-01      -1.05451527e+00     1.84726386e+00      
H    -3.42943009e-01     5.31227027e-01      2.05425514e+00      
C    -1.68174787e+00     -1.03042452e+00     1.41372579e+00      
O    -2.20246301e+00     -1.42807156e+00     3.86526296e-01      
O    -2.17564677e+00     -1.11240827e+00     2.62932579e+00      
H    -3.10700328e+00     -1.49805434e+00     2.58491718e+00      
O    -1.92761724e+00     1.80190232e+00      -3.98594476e-01     
H    -2.81950483e+00     1.63193094e+00      -4.56072301e-02     
H    -2.01165624e+00     2.54759027e+00      -9.94790491e-01     
O    1.89838229e-01      -2.51498257e+00     -1.09654773e+00     
H    -6.73763165e-01     -2.93722442e+00     -1.05982787e+00     
H    6.31052717e-01      -2.94530033e+00     -1.83495500e+00     
O    -4.35229234e+00     1.12252259e+00      6.86268559e-01      
H    -4.67602354e+00     1.32146343e+00      1.56667453e+00      
H    -4.75406406e+00     2.78247001e-01      4.46095270e-01      
O    -4.63143718e+00     -1.96507384e+00     2.52705976e+00      
H    -4.98518600e+00     -2.08650633e+00     1.63400390e+00      
H    -5.05813161e+00     -2.64109321e+00     3.06375171e+00      
O    -5.01939837e+00     -1.53684022e+00     -2.05066494e-01     
H    -5.65111794e+00     -1.80493431e+00     -8.76641705e-01     
H    -4.14038161e+00     -1.71293161e+00     -5.52547354e-01     
O    2.51839898e+00      1.26088951e+00      4.25166730e-01      
H    2.65503234e+00      2.20779622e+00      5.00247294e-01      
H    3.39211551e+00      8.81019174e-01      3.10035817e-01      
29
1643.023302
N    3.64877478e-02      -1.71591202e-03     5.67465663e-02      
H    6.27305220e-02      -8.53949082e-01     -5.40707707e-01     
H    9.58356592e-01      4.73220108e-01      6.92528226e-02      
H    -6.98152189e-01     6.46313740e-01      -3.11961096e-01     
C    -3.15641582e-01     -3.64857048e-01     1.44201064e+00      
H    4.18458265e-01      -1.05488399e+00     1.84751756e+00      
H    -3.43411177e-01     5.31132139e-01      2.05450910e+00      
C    -1.68179659e+00     -1.03044379e+00     1.41375462e+00      
O    -2.20245577e+00     -1.42808046e+00     3.86518964e-01      
O    -2.17566274e+00     -1.11241528e+00     2.62931611e+00      
H    -3.10695628e+00     -1.49791548e+00     2.58494413e+00      
O    -1.92757387e+00     1.80187355e+00      -3.98571881e-01     
H    -2.81968120e+00     1.63239349e+00      -4.59315711e-02     
H    -2.01212417e+00     2.54762614e+00      -9.94680712e-01     
O    1.90003873e-01      -2.51461876e+00     -1.09625936e+00     
H    -6.72668322e-01     -2.93994372e+00     -1.06349801e+00     
H    6.27310525e-01      -2.94806220e+00     -1.83568944e+00     
O    -4.35218538e+00     1.12260480e+00      6.86187696e-01      
H    -4.67682288e+00     1.32026626e+00      1.56665979e+00      
H    -4.75489885e+00     2.78236732e-01      4.47398386e-01      
O    -4.63103504e+00     -1.96468117e+00     2.52720273e+00      
H    -4.98861475e+00     -2.09113233e+00     1.63587459e+00      
H    -5.06102294e+00     -2.64291621e+00     3.05948046e+00      
O    -5.01930970e+00     -1.53694770e+00     -2.05350119e-01     
H    -5.65360795e+00     -1.80417421e+00     -8.74639659e-01     
H    -4.13908289e+00     -1.71184993e+00     -5.49927700e-01     
O    2.51849255e+00      1.26094044e+00      4.25160610e-01      
H    2.65406153e+00      2.20792826e+00      5.00336147e-01      
H    3.39172771e+00      8.80134185e-01      3.09984900e-01      
29
1643.023302
N    3.66424428e-02      -1.66036636e-03     5.67494676e-02      
H    5.86034618e-02      -8.52154513e-01     -5.42816714e-01     
H    9.58565827e-01      4.73252515e-01      7.29668690e-02      
H    -6.99122832e-01     6.42648432e-01      -3.15615637e-01     
C    -3.15245822e-01     -3.64700166e-01     1.44203517e+00      
H    4.17778231e-01      -1.05562143e+00     1.84802495e+00      
H    -3.44347513e-01     5.30942362e-01      2.05501702e+00      
C    -1.68189402e+00     -1.03048232e+00     1.41381227e+00      
O    -2.20244130e+00     -1.42809827e+00     3.86504301e-01      
O    -2.17569470e+00     -1.11242930e+00     2.62929674e+00      
H    -3.10686230e+00     -1.49763775e+00     2.58499802e+00      
O    -1.92748715e+00     1.80181601e+00      -3.98526693e-01     
H    -2.82003393e+00     1.63331859e+00      -4.65802530e-02     
H    -2.01306002e+00     2.54769788e+00      -9.94461155e-01     
O    1.90335160e-01      -2.51389113e+00     -1.09568262e+00     
H    -6.70478637e-01     -2.94538231e+00     -1.07083827e+00     
H    6.19826142e-01      -2.95358593e+00     -1.83715830e+00     
O    -4.35197147e+00     1.12276922e+00      6.86025969e-01      
H    -4.67842157e+00     1.31787191e+00      1.56663032e+00      
H    -4.75656842e+00     2.78216193e-01      4.50004617e-01      
O    -4.63023075e+00     -1.96389585e+00     2.52748866e+00      
H    -4.99547225e+00     -2.10038433e+00     1.63961599e+00      
H    -5.06680558e+00     -2.64656223e+00     3.05093796e+00      
O    -5.01913236e+00     -1.53716267e+00     -2.05917371e-01     
H    -5.65858798e+00     -1.80265402e+00     -8.70635565e-01     
H    -4.13648546e+00     -1.70968657e+00     -5.44688393e-01     
O    2.51867968e+00      1.26104229e+00      4.25148370e-01      
H    2.65211991e+00      2.20819234e+00      5.00513854e-01      
H    3.39095211e+00      8.78364207e-01      3.09883066e-01      
29
1643.023302
N    3.67971378e-02      -1.60482070e-03     5.67523689e-02      
H    5.44764016e-02      -8.50359944e-01     -5.44925722e-01     
H    9.58775062e-01      4.73284922e-01      7.66809155e-02      
H    -7.00093474e-01     6.38983124e-01      -3.19270178e-01     
C    -3.14850061e-01     -3.64543284e-01     1.44205971e+00      
H    4.17098197e-01      -1.05635887e+00     1.84853233e+00      
H    -3.45283848e-01     5.30752586e-01      2.05552494e+00      
C    -1.68199145e+00     -1.03052085e+00     1.41386993e+00      
O    -2.20242683e+00     -1.42811607e+00     3.86489638e-01      
O    -2.17572666e+00     -1.11244332e+00     2.62927737e+00      
H    -3.10676832e+00     -1.49736002e+00     2.58505191e+00      
O    -1.92740043e+00     1.80175848e+00      -3.98481504e-01     
H    -2.82038667e+00     1.63424368e+00      -4.72289350e-02     
H    -2.01399586e+00     2.54776963e+00      -9.94241598e-01     
O    1.90666447e-01      -2.51316350e+00     -1.09510588e+00     
H    -6.68288952e-01     -2.95082091e+00     -1.07817854e+00     
H    6.12341759e-01      -2.95910966e+00     -1.83862716e+00     
O    -4.35175755e+00     1.12293364e+00      6.85864242e-01      
H    -4.68002026e+00     1.31547756e+00      1.56660085e+00      
H    -4.75823800e+00     2.78195654e-01      4.52610848e-01      
O    -4.62942646e+00     -1.96311052e+00     2.52777460e+00      
H    -5.00232974e+00     -2.10963634e+00     1.64335739e+00      
H    -5.07258823e+00     -2.65020825e+00     3.04239546e+00      
O    -5.01895502e+00     -1.53737764e+00     -2.06484623e-01     
H    -5.66356800e+00     -1.80113383e+00     -8.66631472e-01     
H    -4.13388803e+00     -1.70752322e+00     -5.39449086e-01     
O    2.51886682e+00      1.26114414e+00      4.25136130e-01      
H    2.65017829e+00      2.20845642e+00      5.00691560e-01      
H    3.39017651e+00      8.76594229e-01      3.09781232e-01      
29
1643.023302
N    3.69518328e-02      -1.54927504e-03     5.67552702e-02      
H    5.03493414e-02      -8.48565375e-01     -5.47034730e-01     
H    9.58984297e-01      4.73317329e-01      8.03949619e-02      
H    -7.01064117e-01     6.35317816e-01      -3.22924719e-01     
C    -3.14454301e-01     -3.64386402e-01     1.44208424e+00      
H    4.16418164e-01      -1.05709631e+00     1.84903972e+00      
H    -3.46220184e-01     5.30562809e-01      2.05603286e+00      
C    -1.68208888e+00     -1.03055939e+00     1.41392759e+00      
O    -2.20241235e+00     -1.42813388e+00     3.86474975e-01      
O    -2.17575862e+00     -1.11245734e+00     2.62925800e+00      
H    -3.10667433e+00     -1.49708229e+00     2.58510581e+00      
O    -1.92731370e+00     1.80170094e+00      -3.98436315e-01     
H    -2.82073940e+00     1.63516878e+00      -4.78776169e-02     
H    -2.01493171e+00     2.54784137e+00      -9.94022041e-01     
O    1.90997734e-01      -2.51243587e+00     -1.09452914e+00     
H    -6.66099267e-01     -2.95625950e+00     -1.08551881e+00     
H    6.04857375e-01      -2.96463339e+00     -1.84009603e+00     
O    -4.35154364e+00     1.12309806e+00      6.85702515e-01      
H    -4.68161894e+00     1.31308321e+00      1.56657138e+00      
H    -4.75990757e+00     2.78175116e-01      4.55217079e-01      
O    -4.62862216e+00     -1.96232519e+00     2.52806053e+00      
H    -5.00918724e+00     -2.11888834e+00     1.64709878e+00      
H    -5.07837088e+00     -2.65385427e+00     3.03385296e+00      
O    -5.01877767e+00     -1.53759261e+00     -2.07051875e-01     
H    -5.66854802e+00     -1.79961363e+00     -8.62627379e-01     
H    -4.13129059e+00     -1.70535986e+00     -5.34209778e-01     
O    2.51905395e+00      1.26124599e+00      4.25123891e-01      
H    2.64823666e+00      2.20872049e+00      5.00869266e-01      
H    3.38940091e+00      8.74824251e-01      3.09679398e-01      
29
1643.023302
N    3.71065278e-02      -1.49372938e-03     5.67581714e-02      
H    4.62222812e-02      -8.46770806e-01     -5.49143738e-01     
H    9.59193532e-01      4.73349736e-01      8.41090084e-02      
H    -7.02034760e-01     6.31652508e-01      -3.26579260e-01     
C    -3.14058540e-01     -3.64229521e-01     1.44210877e+00      
H    4.15738130e-01      -1.05783375e+00     1.84954711e+00      
H    -3.47156520e-01     5.30373033e-01      2.05654078e+00      
C    -1.68218632e+00     -1.03059792e+00     1.41398525e+00      
O    -2.20239788e+00     -1.42815168e+00     3.86460313e-01      
O    -2.17579057e+00     -1.11247136e+00     2.62923864e+00      
H    -3.10658035e+00     -1.49680456e+00     2.58515970e+00      
O    -1.92722698e+00     1.80164341e+00      -3.98391126e-01     
H    -2.82109213e+00     1.63609388e+00      -4.85262989e-02     
H    -2.01586756e+00     2.54791311e+00      -9.93802483e-01     
O    1.91329021e-01      -2.51170825e+00     -1.09395239e+00     
H    -6.63909581e-01     -2.96169810e+00     -1.09285908e+00     
H    5.97372992e-01      -2.97015712e+00     -1.84156489e+00     
O    -4.35132973e+00     1.12326247e+00      6.85540787e-01      
H    -4.68321763e+00     1.31068887e+00      1.56654190e+00      
H    -4.76157714e+00     2.78154577e-01      4.57823310e-01      
O    -4.62781787e+00     -1.96153986e+00     2.52834647e+00      
H    -5.01604474e+00     -2.12814034e+00     1.65084018e+00      
H    -5.08415353e+00     -2.65750028e+00     3.02531046e+00      
O    -5.01860033e+00     -1.53780758e+00     -2.07619126e-01     
H    -5.67352804e+00     -1.79809344e+00     -8.58623286e-01     
H    -4.12869316e+00     -1.70319650e+00     -5.28970471e-01     
O    2.51924109e+00      1.26134784e+00      4.25111651e-01      
H    2.64629504e+00      2.20898457e+00      5.01046972e-01      
H    3.38862532e+00      8.73054273e-01      3.09577564e-01      
29
1643.023302
N    3.74159178e-02      -1.38263806e-03     5.67639740e-02      
H    3.79681608e-02      -8.43181668e-01     -5.53361753e-01     
H    9.59612002e-01      4.73414550e-01      9.15371013e-02      
H    -7.03976046e-01     6.24321893e-01      -3.33888341e-01     
C    -3.13267019e-01     -3.63915757e-01     1.44215783e+00      
H    4.14378062e-01      -1.05930863e+00     1.85056189e+00      
H    -3.49029191e-01     5.29993479e-01      2.05755662e+00      
C    -1.68238118e+00     -1.03067499e+00     1.41410056e+00      
O    -2.20236893e+00     -1.42818729e+00     3.86430987e-01      
O    -2.17585449e+00     -1.11249940e+00     2.62919990e+00      
H    -3.10639239e+00     -1.49624909e+00     2.58526749e+00      
O    -1.92705354e+00     1.80152834e+00      -3.98300749e-01     
H    -2.82179760e+00     1.63794407e+00      -4.98236628e-02     
H    -2.01773926e+00     2.54805659e+00      -9.93363369e-01     
O    1.91991594e-01      -2.51025299e+00     -1.09279891e+00     
H    -6.59530211e-01     -2.97257529e+00     -1.10753961e+00     
H    5.82404225e-01      -2.98120457e+00     -1.84450262e+00     
O    -4.35090190e+00     1.12359131e+00      6.85217333e-01      
H    -4.68641500e+00     1.30590017e+00      1.56648296e+00      
H    -4.76491629e+00     2.78113500e-01      4.63035772e-01      
O    -4.62620929e+00     -1.95996920e+00     2.52891833e+00      
H    -5.02975974e+00     -2.14664435e+00     1.65832298e+00      
H    -5.09571882e+00     -2.66479232e+00     3.00822546e+00      
O    -5.01824564e+00     -1.53823753e+00     -2.08753630e-01     
H    -5.68348809e+00     -1.79505305e+00     -8.50615099e-01     
H    -4.12349829e+00     -1.69886979e+00     -5.18491856e-01     
O    2.51961535e+00      1.26155154e+00      4.25087171e-01      
H    2.64241180e+00      2.20951272e+00      5.01402385e-01      
H    3.38707412e+00      8.69514317e-01      3.09373896e-01      
