29
1628.712845
N    3.64168927e-02      -1.72678367e-03     5.52158595e-02      
H    8.65341439e-02      -8.76448261e-01     -5.12107837e-01     
H    9.56502538e-01      4.77828167e-01      4.75828342e-02      
H    -6.95857461e-01     6.73455785e-01      -2.76438344e-01     
C    -3.19322068e-01     -3.66674151e-01     1.44223252e+00      
H    4.25007658e-01      -1.05004710e+00     1.83953258e+00      
H    -3.36311373e-01     5.34981412e-01      2.04660453e+00      
C    -1.68116884e+00     -1.03008851e+00     1.41368593e+00      
O    -2.20211480e+00     -1.42801908e+00     3.86396608e-01      
O    -2.17517924e+00     -1.11218503e+00     2.62934582e+00      
H    -3.10803207e+00     -1.50060486e+00     2.58314751e+00      
O    -1.92845140e+00     1.80240629e+00      -3.98986307e-01     
H    -2.81575870e+00     1.62397025e+00      -4.04462998e-02     
H    -2.00427000e+00     2.54728551e+00      -9.96192096e-01     
O    1.89479141e-01      -2.51576845e+00     -1.09735558e+00     
H    -6.76101474e-01     -2.93145803e+00     -1.05113333e+00     
H    6.38671056e-01      -2.93984254e+00     -1.83344156e+00     
O    -4.35152993e+00     1.12332523e+00      6.85550245e-01      
H    -4.68270232e+00     1.31145681e+00      1.56663139e+00      
H    -4.75786006e+00     2.76405103e-01      4.57993204e-01      
O    -4.63670981e+00     -1.97014263e+00     2.52554329e+00      
H    -4.93917210e+00     -2.02964077e+00     1.60817399e+00      
H    -5.02103303e+00     -2.61739812e+00     3.11954412e+00      
O    -5.01783747e+00     -1.54135213e+00     -2.15539161e-01     
H    -5.73375222e+00     -1.77323277e+00     -8.14425180e-01     
H    -4.09229794e+00     -1.67360581e+00     -4.54055044e-01     
O    2.51776295e+00      1.26050710e+00      4.25212790e-01      
H    2.66153727e+00      2.20688977e+00      4.99658450e-01      
H    3.39487453e+00      8.87171584e-01      3.10515071e-01      
29
1628.712845
N    3.63572590e-02      -1.75183859e-03     5.55970856e-02      
H    8.26467685e-02      -8.71720751e-01     -5.18203300e-01     
H    9.56861434e-01      4.76659949e-01      5.11433081e-02      
H    -6.95945821e-01     6.68502928e-01      -2.83491761e-01     
C    -3.18599827e-01     -3.66298316e-01     1.44216479e+00      
H    4.23710327e-01      -1.05088760e+00     1.84127513e+00      
H    -3.37618156e-01     5.34113982e-01      2.04832671e+00      
C    -1.68127706e+00     -1.03015806e+00     1.41367427e+00      
O    -2.20220728e+00     -1.42802552e+00     3.86434529e-01      
O    -2.17528414e+00     -1.11223558e+00     2.62934808e+00      
H    -3.10781012e+00     -1.50007138e+00     2.58356972e+00      
O    -1.92827538e+00     1.80230187e+00      -3.98905295e-01     
H    -2.81656296e+00     1.62561351e+00      -4.14932767e-02     
H    -2.00576562e+00     2.54733480e+00      -9.95924029e-01     
O    1.89444681e-01      -2.51584484e+00     -1.09736989e+00     
H    -6.76338029e-01     -2.93086015e+00     -1.05055436e+00     
H    6.39573115e-01      -2.93913559e+00     -1.83326910e+00     
O    -4.35180075e+00     1.12306291e+00      6.85790471e-01      
H    -4.68043312e+00     1.31485635e+00      1.56665323e+00      
H    -4.75628497e+00     2.76873279e-01      4.54041384e-01      
O    -4.63569327e+00     -1.96916993e+00     2.52581519e+00      
H    -4.94810401e+00     -2.04038766e+00     1.61322844e+00      
H    -5.02813919e+00     -2.62195464e+00     3.10879946e+00      
O    -5.01829420e+00     -1.54014354e+00     -2.12708275e-01     
H    -5.71122614e+00     -1.78172823e+00     -8.31480846e-01     
H    -4.10529289e+00     -1.68424852e+00     -4.80642862e-01     
O    2.51785178e+00      1.26056451e+00      4.25205865e-01      
H    2.66063915e+00      2.20701736e+00      4.99739021e-01      
H    3.39447563e+00      8.86297224e-01      3.10433445e-01      
29
1628.712845
N    3.63274421e-02      -1.76436605e-03     5.57876986e-02      
H    8.07030808e-02      -8.69356996e-01     -5.21251032e-01     
H    9.57040882e-01      4.76075840e-01      5.29235450e-02      
H    -6.95990002e-01     6.66026499e-01      -2.87018470e-01     
C    -3.18238706e-01     -3.66110398e-01     1.44213092e+00      
H    4.23061661e-01      -1.05130785e+00     1.84214640e+00      
H    -3.38271548e-01     5.33680267e-01      2.04918780e+00      
C    -1.68133117e+00     -1.03019284e+00     1.41366844e+00      
O    -2.20225352e+00     -1.42802874e+00     3.86453489e-01      
O    -2.17533658e+00     -1.11226086e+00     2.62934920e+00      
H    -3.10769914e+00     -1.49980464e+00     2.58378082e+00      
O    -1.92818737e+00     1.80224966e+00      -3.98864789e-01     
H    -2.81696509e+00     1.62643514e+00      -4.20167651e-02     
H    -2.00651343e+00     2.54735944e+00      -9.95789995e-01     
O    1.89427450e-01      -2.51588304e+00     -1.09737705e+00     
H    -6.76456306e-01     -2.93056122e+00     -1.05026488e+00     
H    6.40024145e-01      -2.93878211e+00     -1.83318287e+00     
O    -4.35193616e+00     1.12293175e+00      6.85910584e-01      
H    -4.67929852e+00     1.31655611e+00      1.56666415e+00      
H    -4.75549743e+00     2.77107368e-01      4.52065474e-01      
O    -4.63518499e+00     -1.96868358e+00     2.52595113e+00      
H    -4.95256997e+00     -2.04576110e+00     1.61575567e+00      
H    -5.03169226e+00     -2.62423289e+00     3.10342713e+00      
O    -5.01852257e+00     -1.53953924e+00     -2.11292832e-01     
H    -5.69996310e+00     -1.78597596e+00     -8.40008679e-01     
H    -4.11179037e+00     -1.68956987e+00     -4.93936771e-01     
O    2.51789620e+00      1.26059322e+00      4.25202402e-01      
H    2.66019008e+00      2.20708115e+00      4.99779307e-01      
H    3.39427617e+00      8.85860043e-01      3.10392632e-01      
29
1628.712845
N    3.62976253e-02      -1.77689351e-03     5.59783117e-02      
H    7.87593932e-02      -8.66993240e-01     -5.24298764e-01     
H    9.57220330e-01      4.75491730e-01      5.47037820e-02      
H    -6.96034182e-01     6.63550070e-01      -2.90545179e-01     
C    -3.17877586e-01     -3.65922481e-01     1.44209705e+00      
H    4.22412995e-01      -1.05172810e+00     1.84301768e+00      
H    -3.38924939e-01     5.33246552e-01      2.05004889e+00      
C    -1.68138528e+00     -1.03022761e+00     1.41366262e+00      
O    -2.20229976e+00     -1.42803196e+00     3.86472449e-01      
O    -2.17538903e+00     -1.11228613e+00     2.62935033e+00      
H    -3.10758816e+00     -1.49953790e+00     2.58399193e+00      
O    -1.92809936e+00     1.80219745e+00      -3.98824283e-01     
H    -2.81736722e+00     1.62725677e+00      -4.25402535e-02     
H    -2.00726124e+00     2.54738409e+00      -9.95655962e-01     
O    1.89410220e-01      -2.51592123e+00     -1.09738421e+00     
H    -6.76574583e-01     -2.93026228e+00     -1.04997540e+00     
H    6.40475174e-01      -2.93842864e+00     -1.83309664e+00     
O    -4.35207157e+00     1.12280059e+00      6.86030697e-01      
H    -4.67816392e+00     1.31825588e+00      1.56667507e+00      
H    -4.75470988e+00     2.77341456e-01      4.50089564e-01      
O    -4.63467672e+00     -1.96819723e+00     2.52608708e+00      
H    -4.95703592e+00     -2.05113455e+00     1.61828289e+00      
H    -5.03524534e+00     -2.62651115e+00     3.09805479e+00      
O    -5.01875093e+00     -1.53893495e+00     -2.09877388e-01     
H    -5.68870007e+00     -1.79022369e+00     -8.48536513e-01     
H    -4.11828785e+00     -1.69489122e+00     -5.07230680e-01     
O    2.51794061e+00      1.26062192e+00      4.25198940e-01      
H    2.65974102e+00      2.20714494e+00      4.99819593e-01      
H    3.39407672e+00      8.85422863e-01      3.10351819e-01      
29
1628.712845
N    3.62678084e-02      -1.78942097e-03     5.61689247e-02      
H    7.68157055e-02      -8.64629485e-01     -5.27346496e-01     
H    9.57399778e-01      4.74907621e-01      5.64840189e-02      
H    -6.96078362e-01     6.61073642e-01      -2.94071888e-01     
C    -3.17516465e-01     -3.65734563e-01     1.44206318e+00      
H    4.21764330e-01      -1.05214836e+00     1.84388895e+00      
H    -3.39578331e-01     5.32812837e-01      2.05090998e+00      
C    -1.68143939e+00     -1.03026239e+00     1.41365679e+00      
O    -2.20234600e+00     -1.42803518e+00     3.86491409e-01      
O    -2.17544148e+00     -1.11231141e+00     2.62935146e+00      
H    -3.10747718e+00     -1.49927116e+00     2.58420303e+00      
O    -1.92801135e+00     1.80214524e+00      -3.98783777e-01     
H    -2.81776934e+00     1.62807840e+00      -4.30637419e-02     
H    -2.00800904e+00     2.54740873e+00      -9.95521928e-01     
O    1.89392990e-01      -2.51595943e+00     -1.09739137e+00     
H    -6.76692861e-01     -2.92996334e+00     -1.04968592e+00     
H    6.40926204e-01      -2.93807516e+00     -1.83301041e+00     
O    -4.35220698e+00     1.12266944e+00      6.86150810e-01      
H    -4.67702931e+00     1.31995565e+00      1.56668598e+00      
H    -4.75392234e+00     2.77575544e-01      4.48113654e-01      
O    -4.63416844e+00     -1.96771088e+00     2.52622302e+00      
H    -4.96150188e+00     -2.05650799e+00     1.62081012e+00      
H    -5.03879841e+00     -2.62878941e+00     3.09268246e+00      
O    -5.01897930e+00     -1.53833065e+00     -2.08461945e-01     
H    -5.67743703e+00     -1.79447141e+00     -8.57064346e-01     
H    -4.12478533e+00     -1.70021258e+00     -5.20524589e-01     
O    2.51798503e+00      1.26065063e+00      4.25195477e-01      
H    2.65929196e+00      2.20720873e+00      4.99859878e-01      
H    3.39387727e+00      8.84985682e-01      3.10311006e-01      
29
1628.712845
N    3.62379915e-02      -1.80194842e-03     5.63595377e-02      
H    7.48720178e-02      -8.62265730e-01     -5.30394227e-01     
H    9.57579226e-01      4.74323512e-01      5.82642558e-02      
H    -6.96122542e-01     6.58597213e-01      -2.97598596e-01     
C    -3.17155344e-01     -3.65546646e-01     1.44202932e+00      
H    4.21115664e-01      -1.05256861e+00     1.84476023e+00      
H    -3.40231723e-01     5.32379122e-01      2.05177108e+00      
C    -1.68149350e+00     -1.03029717e+00     1.41365096e+00      
O    -2.20239224e+00     -1.42803841e+00     3.86510370e-01      
O    -2.17549393e+00     -1.11233669e+00     2.62935259e+00      
H    -3.10736621e+00     -1.49900442e+00     2.58441413e+00      
O    -1.92792334e+00     1.80209304e+00      -3.98743271e-01     
H    -2.81817147e+00     1.62890004e+00      -4.35872304e-02     
H    -2.00875685e+00     2.54743337e+00      -9.95387894e-01     
O    1.89375760e-01      -2.51599762e+00     -1.09739852e+00     
H    -6.76811138e-01     -2.92966440e+00     -1.04939643e+00     
H    6.41377233e-01      -2.93772169e+00     -1.83292417e+00     
O    -4.35234239e+00     1.12253828e+00      6.86270924e-01      
H    -4.67589471e+00     1.32165542e+00      1.56669690e+00      
H    -4.75313479e+00     2.77809632e-01      4.46137744e-01      
O    -4.63366017e+00     -1.96722453e+00     2.52635897e+00      
H    -4.96596784e+00     -2.06188143e+00     1.62333735e+00      
H    -5.04235149e+00     -2.63106767e+00     3.08731013e+00      
O    -5.01920766e+00     -1.53772635e+00     -2.07046502e-01     
H    -5.66617399e+00     -1.79871914e+00     -8.65592179e-01     
H    -4.13128280e+00     -1.70553393e+00     -5.33818497e-01     
O    2.51802945e+00      1.26067933e+00      4.25192015e-01      
H    2.65884290e+00      2.20727253e+00      4.99900164e-01      
H    3.39367782e+00      8.84548502e-01      3.10270194e-01      
29
1628.712845
N    3.62230831e-02      -1.80821215e-03     5.64548442e-02      
H    7.39001739e-02      -8.61083853e-01     -5.31918093e-01     
H    9.57668950e-01      4.74031458e-01      5.91543743e-02      
H    -6.96144633e-01     6.57358999e-01      -2.99361951e-01     
C    -3.16974784e-01     -3.65452687e-01     1.44201238e+00      
H    4.20791331e-01      -1.05277873e+00     1.84519587e+00      
H    -3.40558418e-01     5.32162265e-01      2.05220162e+00      
C    -1.68152056e+00     -1.03031456e+00     1.41364804e+00      
O    -2.20241536e+00     -1.42804002e+00     3.86519850e-01      
O    -2.17552016e+00     -1.11234933e+00     2.62935315e+00      
H    -3.10731072e+00     -1.49887105e+00     2.58451969e+00      
O    -1.92787933e+00     1.80206693e+00      -3.98723018e-01     
H    -2.81837254e+00     1.62931085e+00      -4.38489746e-02     
H    -2.00913076e+00     2.54744570e+00      -9.95320877e-01     
O    1.89367144e-01      -2.51601672e+00     -1.09740210e+00     
H    -6.76870277e-01     -2.92951494e+00     -1.04925169e+00     
H    6.41602748e-01      -2.93754495e+00     -1.83288106e+00     
O    -4.35241009e+00     1.12247270e+00      6.86330980e-01      
H    -4.67532741e+00     1.32250530e+00      1.56670236e+00      
H    -4.75274102e+00     2.77926677e-01      4.45149789e-01      
O    -4.63340603e+00     -1.96698135e+00     2.52642694e+00      
H    -4.96820082e+00     -2.06456816e+00     1.62460096e+00      
H    -5.04412803e+00     -2.63220679e+00     3.08462396e+00      
O    -5.01932184e+00     -1.53742420e+00     -2.06338781e-01     
H    -5.66054247e+00     -1.80084301e+00     -8.69856095e-01     
H    -4.13453154e+00     -1.70819461e+00     -5.40465452e-01     
O    2.51805166e+00      1.26069368e+00      4.25190284e-01      
H    2.65861836e+00      2.20730442e+00      4.99920307e-01      
H    3.39357809e+00      8.84329912e-01      3.10249787e-01      
29
1628.712845
N    3.62081747e-02      -1.81447588e-03     5.65501508e-02      
H    7.29283301e-02      -8.59901975e-01     -5.33441959e-01     
H    9.57758674e-01      4.73739403e-01      6.00444928e-02      
H    -6.96166723e-01     6.56120785e-01      -3.01125305e-01     
C    -3.16794224e-01     -3.65358728e-01     1.44199545e+00      
H    4.20466999e-01      -1.05298886e+00     1.84563150e+00      
H    -3.40885114e-01     5.31945407e-01      2.05263217e+00      
C    -1.68154761e+00     -1.03033194e+00     1.41364513e+00      
O    -2.20243848e+00     -1.42804163e+00     3.86529330e-01      
O    -2.17554638e+00     -1.11236196e+00     2.62935371e+00      
H    -3.10725523e+00     -1.49873768e+00     2.58462524e+00      
O    -1.92783533e+00     1.80204083e+00      -3.98702765e-01     
H    -2.81857360e+00     1.62972167e+00      -4.41107188e-02     
H    -2.00950466e+00     2.54745802e+00      -9.95253861e-01     
O    1.89358529e-01      -2.51603582e+00     -1.09740568e+00     
H    -6.76929416e-01     -2.92936547e+00     -1.04910695e+00     
H    6.41828263e-01      -2.93736821e+00     -1.83283794e+00     
O    -4.35247780e+00     1.12240712e+00      6.86391037e-01      
H    -4.67476011e+00     1.32335518e+00      1.56670782e+00      
H    -4.75234725e+00     2.78043721e-01      4.44161834e-01      
O    -4.63315189e+00     -1.96673818e+00     2.52649491e+00      
H    -4.97043379e+00     -2.06725488e+00     1.62586457e+00      
H    -5.04590456e+00     -2.63334592e+00     3.08193779e+00      
O    -5.01943603e+00     -1.53712206e+00     -2.05631059e-01     
H    -5.65491095e+00     -1.80296687e+00     -8.74120012e-01     
H    -4.13778028e+00     -1.71085529e+00     -5.47112406e-01     
O    2.51807386e+00      1.26070804e+00      4.25188552e-01      
H    2.65839383e+00      2.20733632e+00      4.99940449e-01      
H    3.39347836e+00      8.84111321e-01      3.10229381e-01      
29
1628.712845
N    3.61485409e-02      -1.83953080e-03     5.69313768e-02      
H    6.90409547e-02      -8.55174465e-01     -5.39537423e-01     
H    9.58117570e-01      4.72571185e-01      6.36049666e-02      
H    -6.96255083e-01     6.51167927e-01      -3.08178723e-01     
C    -3.16071982e-01     -3.64982894e-01     1.44192771e+00      
H    4.19169667e-01      -1.05382936e+00     1.84737406e+00      
H    -3.42191898e-01     5.31077977e-01      2.05435435e+00      
C    -1.68165583e+00     -1.03040150e+00     1.41363347e+00      
O    -2.20253096e+00     -1.42804807e+00     3.86567250e-01      
O    -2.17565128e+00     -1.11241252e+00     2.62935597e+00      
H    -3.10703327e+00     -1.49820420e+00     2.58504744e+00      
O    -1.92765931e+00     1.80193641e+00      -3.98621753e-01     
H    -2.81937786e+00     1.63136493e+00      -4.51576956e-02     
H    -2.01100028e+00     2.54750730e+00      -9.94985793e-01     
O    1.89324069e-01      -2.51611220e+00     -1.09742000e+00     
H    -6.77165970e-01     -2.92876759e+00     -1.04852799e+00     
H    6.42730321e-01      -2.93666127e+00     -1.83266548e+00     
O    -4.35274862e+00     1.12214480e+00      6.86631263e-01      
H    -4.67249091e+00     1.32675472e+00      1.56672966e+00      
H    -4.75077215e+00     2.78511897e-01      4.40210014e-01      
O    -4.63213535e+00     -1.96576548e+00     2.52676681e+00      
H    -4.97936571e+00     -2.07800176e+00     1.63091903e+00      
H    -5.05301072e+00     -2.63790244e+00     3.07119313e+00      
O    -5.01989275e+00     -1.53591346e+00     -2.02800173e-01     
H    -5.63238487e+00     -1.81146233e+00     -8.91175678e-01     
H    -4.15077524e+00     -1.72149799e+00     -5.73700224e-01     
O    2.51816270e+00      1.26076544e+00      4.25181628e-01      
H    2.65749571e+00      2.20746390e+00      5.00021021e-01      
H    3.39307946e+00      8.83236961e-01      3.10147755e-01      
29
1628.712845
N    3.61336325e-02      -1.84579453e-03     5.70266834e-02      
H    6.80691109e-02      -8.53992587e-01     -5.41061289e-01     
H    9.58207294e-01      4.72279130e-01      6.44950851e-02      
H    -6.96277173e-01     6.49929713e-01      -3.09942077e-01     
C    -3.15891422e-01     -3.64888935e-01     1.44191078e+00      
H    4.18845335e-01      -1.05403949e+00     1.84780969e+00      
H    -3.42518594e-01     5.30861119e-01      2.05478490e+00      
C    -1.68168288e+00     -1.03041888e+00     1.41363056e+00      
O    -2.20255408e+00     -1.42804968e+00     3.86576730e-01      
O    -2.17567750e+00     -1.11242515e+00     2.62935653e+00      
H    -3.10697778e+00     -1.49807083e+00     2.58515299e+00      
O    -1.92761531e+00     1.80191031e+00      -3.98601500e-01     
H    -2.81957892e+00     1.63177575e+00      -4.54194398e-02     
H    -2.01137418e+00     2.54751962e+00      -9.94918777e-01     
O    1.89315454e-01      -2.51613130e+00     -1.09742358e+00     
H    -6.77225109e-01     -2.92861812e+00     -1.04838325e+00     
H    6.42955836e-01      -2.93648453e+00     -1.83262236e+00     
O    -4.35281633e+00     1.12207922e+00      6.86691320e-01      
H    -4.67192361e+00     1.32760460e+00      1.56673512e+00      
H    -4.75037838e+00     2.78628941e-01      4.39222059e-01      
O    -4.63188121e+00     -1.96552231e+00     2.52683478e+00      
H    -4.98159868e+00     -2.08068848e+00     1.63218264e+00      
H    -5.05478725e+00     -2.63904157e+00     3.06850696e+00      
O    -5.02000694e+00     -1.53561132e+00     -2.02092451e-01     
H    -5.62675335e+00     -1.81358619e+00     -8.95439595e-01     
H    -4.15402398e+00     -1.72415867e+00     -5.80347178e-01     
O    2.51818490e+00      1.26077980e+00      4.25179896e-01      
H    2.65727118e+00      2.20749580e+00      5.00041163e-01      
H    3.39297973e+00      8.83018370e-01      3.10127349e-01      
29
1628.712845
N    3.61187241e-02      -1.85205826e-03     5.71219899e-02      
H    6.70972670e-02      -8.52810710e-01     -5.42585155e-01     
H    9.58297018e-01      4.71987076e-01      6.53852036e-02      
H    -6.96299264e-01     6.48691499e-01      -3.11705432e-01     
C    -3.15710862e-01     -3.64794976e-01     1.44189384e+00      
H    4.18521002e-01      -1.05424961e+00     1.84824533e+00      
H    -3.42845289e-01     5.30644262e-01      2.05521544e+00      
C    -1.68170994e+00     -1.03043627e+00     1.41362764e+00      
O    -2.20257720e+00     -1.42805129e+00     3.86586210e-01      
O    -2.17570373e+00     -1.11243779e+00     2.62935709e+00      
H    -3.10692229e+00     -1.49793746e+00     2.58525855e+00      
O    -1.92757130e+00     1.80188420e+00      -3.98581247e-01     
H    -2.81977999e+00     1.63218656e+00      -4.56811840e-02     
H    -2.01174809e+00     2.54753195e+00      -9.94851760e-01     
O    1.89306838e-01      -2.51615040e+00     -1.09742716e+00     
H    -6.77284248e-01     -2.92846866e+00     -1.04823851e+00     
H    6.43181351e-01      -2.93630779e+00     -1.83257925e+00     
O    -4.35288403e+00     1.12201364e+00      6.86751376e-01      
H    -4.67135631e+00     1.32845448e+00      1.56674058e+00      
H    -4.74998461e+00     2.78745986e-01      4.38234104e-01      
O    -4.63162707e+00     -1.96527913e+00     2.52690275e+00      
H    -4.98383166e+00     -2.08337521e+00     1.63344625e+00      
H    -5.05656379e+00     -2.64018069e+00     3.06582079e+00      
O    -5.02012112e+00     -1.53530917e+00     -2.01384730e-01     
H    -5.62112183e+00     -1.81571006e+00     -8.99703511e-01     
H    -4.15727272e+00     -1.72681935e+00     -5.86994133e-01     
O    2.51820711e+00      1.26079415e+00      4.25178165e-01      
H    2.65704664e+00      2.20752769e+00      5.00061306e-01      
H    3.39288000e+00      8.82799780e-01      3.10106942e-01      
29
1628.712845
N    3.60889072e-02      -1.86458571e-03     5.73126029e-02      
H    6.51535793e-02      -8.50446955e-01     -5.45632886e-01     
H    9.58476466e-01      4.71402967e-01      6.71654405e-02      
H    -6.96343444e-01     6.46215070e-01      -3.15232140e-01     
C    -3.15349741e-01     -3.64607059e-01     1.44185998e+00      
H    4.17872336e-01      -1.05466986e+00     1.84911661e+00      
H    -3.43498681e-01     5.30210547e-01      2.05607654e+00      
C    -1.68176405e+00     -1.03047105e+00     1.41362181e+00      
O    -2.20262344e+00     -1.42805452e+00     3.86605171e-01      
O    -2.17575618e+00     -1.11246307e+00     2.62935822e+00      
H    -3.10681132e+00     -1.49767072e+00     2.58546965e+00      
O    -1.92748329e+00     1.80183200e+00      -3.98540741e-01     
H    -2.82018212e+00     1.63300820e+00      -4.62046725e-02     
H    -2.01249590e+00     2.54755659e+00      -9.94717726e-01     
O    1.89289608e-01      -2.51618859e+00     -1.09743431e+00     
H    -6.77402525e-01     -2.92816972e+00     -1.04794902e+00     
H    6.43632380e-01      -2.93595432e+00     -1.83249301e+00     
O    -4.35301944e+00     1.12188248e+00      6.86871490e-01      
H    -4.67022171e+00     1.33015425e+00      1.56675150e+00      
H    -4.74919706e+00     2.78980074e-01      4.36258194e-01      
O    -4.63111880e+00     -1.96479278e+00     2.52703870e+00      
H    -4.98829762e+00     -2.08874865e+00     1.63597348e+00      
H    -5.06011687e+00     -2.64245895e+00     3.06044846e+00      
O    -5.02034948e+00     -1.53470487e+00     -1.99969287e-01     
H    -5.60985879e+00     -1.81995779e+00     -9.08231344e-01     
H    -4.16377019e+00     -1.73214070e+00     -6.00288041e-01     
O    2.51825153e+00      1.26082285e+00      4.25174703e-01      
H    2.65659758e+00      2.20759149e+00      5.00101592e-01      
H    3.39268055e+00      8.82362600e-01      3.10066130e-01      
29
1628.712845
N    3.60590903e-02      -1.87711317e-03     5.75032159e-02      
H    6.32098916e-02      -8.48083200e-01     -5.48680618e-01     
H    9.58655914e-01      4.70818858e-01      6.89456774e-02      
H    -6.96387624e-01     6.43738642e-01      -3.18758849e-01     
C    -3.14988620e-01     -3.64419141e-01     1.44182611e+00      
H    4.17223671e-01      -1.05509012e+00     1.84998788e+00      
H    -3.44152073e-01     5.29776832e-01      2.05693763e+00      
C    -1.68181816e+00     -1.03050583e+00     1.41361598e+00      
O    -2.20266968e+00     -1.42805774e+00     3.86624131e-01      
O    -2.17580863e+00     -1.11248835e+00     2.62935935e+00      
H    -3.10670034e+00     -1.49740398e+00     2.58568075e+00      
O    -1.92739528e+00     1.80177979e+00      -3.98500235e-01     
H    -2.82058424e+00     1.63382983e+00      -4.67281609e-02     
H    -2.01324370e+00     2.54758123e+00      -9.94583692e-01     
O    1.89272378e-01      -2.51622679e+00     -1.09744147e+00     
H    -6.77520803e-01     -2.92787078e+00     -1.04765954e+00     
H    6.44083410e-01      -2.93560084e+00     -1.83240678e+00     
O    -4.35315485e+00     1.12175133e+00      6.86991603e-01      
H    -4.66908710e+00     1.33185402e+00      1.56676241e+00      
H    -4.74840952e+00     2.79214162e-01      4.34282284e-01      
O    -4.63061052e+00     -1.96430643e+00     2.52717464e+00      
H    -4.99276358e+00     -2.09412209e+00     1.63850071e+00      
H    -5.06366994e+00     -2.64473721e+00     3.05507613e+00      
O    -5.02057785e+00     -1.53410057e+00     -1.98553844e-01     
H    -5.59859575e+00     -1.82420551e+00     -9.16759177e-01     
H    -4.17026767e+00     -1.73746206e+00     -6.13581950e-01     
O    2.51829595e+00      1.26085156e+00      4.25171240e-01      
H    2.65614852e+00      2.20765528e+00      5.00141877e-01      
H    3.39248110e+00      8.81925419e-01      3.10025317e-01      
29
1628.712845
N    3.60292735e-02      -1.88964063e-03     5.76938290e-02      
H    6.12662040e-02      -8.45719444e-01     -5.51728350e-01     
H    9.58835362e-01      4.70234748e-01      7.07259144e-02      
H    -6.96431804e-01     6.41262213e-01      -3.22285558e-01     
C    -3.14627500e-01     -3.64231224e-01     1.44179224e+00      
H    4.16575005e-01      -1.05551037e+00     1.85085916e+00      
H    -3.44805464e-01     5.29343117e-01      2.05779872e+00      
C    -1.68187227e+00     -1.03054060e+00     1.41361016e+00      
O    -2.20271592e+00     -1.42806096e+00     3.86643091e-01      
O    -2.17586108e+00     -1.11251362e+00     2.62936048e+00      
H    -3.10658936e+00     -1.49713724e+00     2.58589186e+00      
O    -1.92730727e+00     1.80172758e+00      -3.98459729e-01     
H    -2.82098637e+00     1.63465146e+00      -4.72516493e-02     
H    -2.01399151e+00     2.54760588e+00      -9.94449659e-01     
O    1.89255148e-01      -2.51626498e+00     -1.09744863e+00     
H    -6.77639080e-01     -2.92757184e+00     -1.04737006e+00     
H    6.44534439e-01      -2.93524737e+00     -1.83232055e+00     
O    -4.35329026e+00     1.12162017e+00      6.87111716e-01      
H    -4.66795250e+00     1.33355379e+00      1.56677333e+00      
H    -4.74762197e+00     2.79448250e-01      4.32306374e-01      
O    -4.63010225e+00     -1.96382008e+00     2.52731059e+00      
H    -4.99722953e+00     -2.09949554e+00     1.64102793e+00      
H    -5.06722302e+00     -2.64701547e+00     3.04970379e+00      
O    -5.02080621e+00     -1.53349628e+00     -1.97138400e-01     
H    -5.58733272e+00     -1.82845324e+00     -9.25287011e-01     
H    -4.17676515e+00     -1.74278341e+00     -6.26875859e-01     
O    2.51834036e+00      1.26088026e+00      4.25167778e-01      
H    2.65569946e+00      2.20771907e+00      5.00182163e-01      
H    3.39228165e+00      8.81488239e-01      3.09984504e-01      
29
1628.712845
N    3.59994566e-02      -1.90216809e-03     5.78844420e-02      
H    5.93225163e-02      -8.43355689e-01     -5.54776082e-01     
H    9.59014810e-01      4.69650639e-01      7.25061513e-02      
H    -6.96475985e-01     6.38785784e-01      -3.25812267e-01     
C    -3.14266379e-01     -3.64043306e-01     1.44175837e+00      
H    4.15926339e-01      -1.05593062e+00     1.85173043e+00      
H    -3.45458856e-01     5.28909402e-01      2.05865981e+00      
C    -1.68192638e+00     -1.03057538e+00     1.41360433e+00      
O    -2.20276216e+00     -1.42806418e+00     3.86662051e-01      
O    -2.17591352e+00     -1.11253890e+00     2.62936160e+00      
H    -3.10647838e+00     -1.49687050e+00     2.58610296e+00      
O    -1.92721926e+00     1.80167537e+00      -3.98419223e-01     
H    -2.82138850e+00     1.63547309e+00      -4.77751377e-02     
H    -2.01473932e+00     2.54763052e+00      -9.94315625e-01     
O    1.89237917e-01      -2.51630318e+00     -1.09745579e+00     
H    -6.77757357e-01     -2.92727291e+00     -1.04708058e+00     
H    6.44985469e-01      -2.93489389e+00     -1.83223432e+00     
O    -4.35342567e+00     1.12148901e+00      6.87231829e-01      
H    -4.66681790e+00     1.33525355e+00      1.56678425e+00      
H    -4.74683443e+00     2.79682339e-01      4.30330464e-01      
O    -4.62959397e+00     -1.96333373e+00     2.52744653e+00      
H    -5.00169549e+00     -2.10486898e+00     1.64355516e+00      
H    -5.07077609e+00     -2.64929372e+00     3.04433146e+00      
O    -5.02103458e+00     -1.53289198e+00     -1.95722957e-01     
H    -5.57606968e+00     -1.83270097e+00     -9.33814844e-01     
H    -4.18326263e+00     -1.74810476e+00     -6.40169768e-01     
O    2.51838478e+00      1.26090897e+00      4.25164315e-01      
H    2.65525039e+00      2.20778286e+00      5.00222449e-01      
H    3.39208219e+00      8.81051058e-01      3.09943691e-01      
29
1628.712845
N    3.59398229e-02      -1.92722301e-03     5.82656681e-02      
H    5.54351409e-02      -8.38628179e-01     -5.60871545e-01     
H    9.59373706e-01      4.68482421e-01      7.60666252e-02      
H    -6.96564345e-01     6.33832927e-01      -3.32865684e-01     
C    -3.13544138e-01     -3.63667471e-01     1.44169064e+00      
H    4.14629008e-01      -1.05677112e+00     1.85347298e+00      
H    -3.46765639e-01     5.28041972e-01      2.06038199e+00      
C    -1.68203460e+00     -1.03064493e+00     1.41359267e+00      
O    -2.20285464e+00     -1.42807062e+00     3.86699972e-01      
O    -2.17601842e+00     -1.11258945e+00     2.62936386e+00      
H    -3.10625643e+00     -1.49633702e+00     2.58652517e+00      
O    -1.92704324e+00     1.80157095e+00      -3.98338211e-01     
H    -2.82219276e+00     1.63711635e+00      -4.88221146e-02     
H    -2.01623494e+00     2.54767981e+00      -9.94047558e-01     
O    1.89203457e-01      -2.51637957e+00     -1.09747010e+00     
H    -6.77993912e-01     -2.92667503e+00     -1.04650161e+00     
H    6.45887528e-01      -2.93418694e+00     -1.83206186e+00     
O    -4.35369649e+00     1.12122669e+00      6.87472055e-01      
H    -4.66454870e+00     1.33865309e+00      1.56680609e+00      
H    -4.74525934e+00     2.80150515e-01      4.26378644e-01      
O    -4.62857743e+00     -1.96236103e+00     2.52771843e+00      
H    -5.01062740e+00     -2.11561587e+00     1.64860961e+00      
H    -5.07788225e+00     -2.65385024e+00     3.03358680e+00      
O    -5.02149131e+00     -1.53168339e+00     -1.92892071e-01     
H    -5.55354360e+00     -1.84119643e+00     -9.50870510e-01     
H    -4.19625758e+00     -1.75874747e+00     -6.66757586e-01     
O    2.51847361e+00      1.26096638e+00      4.25157390e-01      
H    2.65435227e+00      2.20791045e+00      5.00303020e-01      
H    3.39168329e+00      8.80176698e-01      3.09862065e-01      
