29
1668.501111
N    3.68267387e-02      -1.21516023e-03     5.50355916e-02      
H    6.94899369e-02      -8.62444613e-01     -5.31066339e-01     
H    9.59149896e-01      4.70811381e-01      7.06852068e-02      
H    -7.02655069e-01     6.52169797e-01      -2.91145809e-01     
C    -3.16761475e-01     -3.64998524e-01     1.44195994e+00      
H    4.19782175e-01      -1.05327277e+00     1.84561745e+00      
H    -3.41593954e-01     5.31411015e-01      2.05375062e+00      
C    -1.68068612e+00     -1.03005437e+00     1.41433184e+00      
O    -2.20287764e+00     -1.42823849e+00     3.86073037e-01      
O    -2.17577776e+00     -1.11233602e+00     2.62916061e+00      
H    -3.10689352e+00     -1.50065773e+00     2.58850600e+00      
O    -1.92080163e+00     1.79758792e+00      -3.96917556e-01     
H    -2.85182064e+00     1.69760491e+00      -9.23006945e-02     
H    -2.08559950e+00     2.55191919e+00      -9.79747644e-01     
O    1.89630883e-01      -2.51550624e+00     -1.09699899e+00     
H    -6.75332134e-01     -2.93330227e+00     -1.05469940e+00     
H    6.36106118e-01      -2.94162098e+00     -1.83397409e+00     
O    -4.35850369e+00     1.11750351e+00      6.91919674e-01      
H    -4.62423356e+00     1.39907578e+00      1.56761711e+00      
H    -4.70349498e+00     2.79542133e-01      3.54954962e-01      
O    -4.63207505e+00     -1.96544641e+00     2.52674878e+00      
H    -4.97966833e+00     -2.08354784e+00     1.63160594e+00      
H    -5.05439235e+00     -2.63851945e+00     3.06939979e+00      
O    -5.01957139e+00     -1.53754101e+00     -2.05598387e-01     
H    -5.65783539e+00     -1.80260849e+00     -8.71901838e-01     
H    -4.13586736e+00     -1.70566541e+00     -5.44986066e-01     
O    2.51295485e+00      1.25788572e+00      4.25242185e-01      
H    2.71506972e+00      2.19962676e+00      4.94637853e-01      
H    3.41657506e+00      9.36347047e-01      3.13380095e-01      
29
1668.501111
N    3.66646435e-02      -1.36812101e-03     5.54618846e-02      
H    6.98636133e-02      -8.61218015e-01     -5.32422177e-01     
H    9.58846952e-01      4.71397360e-01      6.84700875e-02      
H    -7.01044027e-01     6.52538436e-01      -2.94522360e-01     
C    -3.16679382e-01     -3.65041596e-01     1.44196035e+00      
H    4.19791215e-01      -1.05330685e+00     1.84583878e+00      
H    -3.41580092e-01     5.31436184e-01      2.05368628e+00      
C    -1.68091502e+00     -1.03013246e+00     1.41415870e+00      
O    -2.20277941e+00     -1.42819008e+00     3.86191850e-01      
O    -2.17573303e+00     -1.11234882e+00     2.62920917e+00      
H    -3.10695620e+00     -1.50011103e+00     2.58758859e+00      
O    -1.92253806e+00     1.79868810e+00      -3.97353731e-01     
H    -2.84360941e+00     1.68083951e+00      -8.03840727e-02     
H    -2.06676274e+00     2.55081005e+00      -9.83590690e-01     
O    1.89558487e-01      -2.51564819e+00     -1.09710245e+00     
H    -6.75761023e-01     -2.93224334e+00     -1.05322892e+00     
H    6.37649412e-01      -2.94046942e+00     -1.83366850e+00     
O    -4.35703107e+00     1.11869662e+00      6.90567543e-01      
H    -4.63658155e+00     1.38057057e+00      1.56739252e+00      
H    -4.71551116e+00     2.79226052e-01      3.76762703e-01      
O    -4.63221719e+00     -1.96564777e+00     2.52671930e+00      
H    -4.97847619e+00     -2.08081796e+00     1.63080241e+00      
H    -5.05315867e+00     -2.63779563e+00     3.07119121e+00      
O    -5.01959464e+00     -1.53728520e+00     -2.05252694e-01     
H    -5.65428852e+00     -1.80376002e+00     -8.74588340e-01     
H    -4.13796996e+00     -1.70829322e+00     -5.48841128e-01     
O    2.51424570e+00      1.25859847e+00      4.25227911e-01      
H    2.70078848e+00      2.20157010e+00      4.95973574e-01      
H    3.41075102e+00      9.23178820e-01      3.12582213e-01      
29
1668.501111
N    3.65835959e-02      -1.44460139e-03     5.56750312e-02      
H    7.00504514e-02      -8.60604715e-01     -5.33100096e-01     
H    9.58695480e-01      4.71690349e-01      6.73625279e-02      
H    -7.00238507e-01     6.52722756e-01      -2.96210636e-01     
C    -3.16638335e-01     -3.65063132e-01     1.44196055e+00      
H    4.19795734e-01      -1.05332390e+00     1.84594945e+00      
H    -3.41573161e-01     5.31448769e-01      2.05365411e+00      
C    -1.68102947e+00     -1.03017150e+00     1.41407214e+00      
O    -2.20273030e+00     -1.42816588e+00     3.86251257e-01      
O    -2.17571066e+00     -1.11235523e+00     2.62923345e+00      
H    -3.10698754e+00     -1.49983768e+00     2.58712988e+00      
O    -1.92340627e+00     1.79923818e+00      -3.97571819e-01     
H    -2.83950380e+00     1.67245681e+00      -7.44257617e-02     
H    -2.05734436e+00     2.55025549e+00      -9.85512213e-01     
O    1.89522289e-01      -2.51571916e+00     -1.09715418e+00     
H    -6.75975468e-01     -2.93171387e+00     -1.05249368e+00     
H    6.38421058e-01      -2.93989364e+00     -1.83351570e+00     
O    -4.35629476e+00     1.11929318e+00      6.89891478e-01      
H    -4.64275554e+00     1.37131797e+00      1.56728022e+00      
H    -4.72151925e+00     2.79068011e-01      3.87666573e-01      
O    -4.63228826e+00     -1.96574844e+00     2.52670456e+00      
H    -4.97788011e+00     -2.07945302e+00     1.63040064e+00      
H    -5.05254183e+00     -2.63743372e+00     3.07208692e+00      
O    -5.01960626e+00     -1.53715729e+00     -2.05079848e-01     
H    -5.65251509e+00     -1.80433578e+00     -8.75931591e-01     
H    -4.13902126e+00     -1.70960712e+00     -5.50768659e-01     
O    2.51489113e+00      1.25895485e+00      4.25220774e-01      
H    2.69364786e+00      2.20254177e+00      4.96641434e-01      
H    3.40783900e+00      9.16594707e-01      3.12183272e-01      
29
1668.501111
N    3.65025483e-02      -1.52108178e-03     5.58881777e-02      
H    7.02372896e-02      -8.59991416e-01     -5.33778015e-01     
H    9.58544009e-01      4.71983338e-01      6.62549683e-02      
H    -6.99432986e-01     6.52907076e-01      -2.97898912e-01     
C    -3.16597289e-01     -3.65084668e-01     1.44196076e+00      
H    4.19800254e-01      -1.05334094e+00     1.84606011e+00      
H    -3.41566230e-01     5.31461353e-01      2.05362194e+00      
C    -1.68114392e+00     -1.03021055e+00     1.41398557e+00      
O    -2.20268118e+00     -1.42814167e+00     3.86310663e-01      
O    -2.17568829e+00     -1.11236163e+00     2.62925772e+00      
H    -3.10701889e+00     -1.49956433e+00     2.58667117e+00      
O    -1.92427448e+00     1.79978827e+00      -3.97789907e-01     
H    -2.83539818e+00     1.66407411e+00      -6.84674508e-02     
H    -2.04792598e+00     2.54970092e+00      -9.87433736e-01     
O    1.89486091e-01      -2.51579013e+00     -1.09720591e+00     
H    -6.76189913e-01     -2.93118440e+00     -1.05175844e+00     
H    6.39192705e-01      -2.93931786e+00     -1.83336290e+00     
O    -4.35555845e+00     1.11988973e+00      6.89215412e-01      
H    -4.64892954e+00     1.36206537e+00      1.56716793e+00      
H    -4.72752734e+00     2.78909971e-01      3.98570443e-01      
O    -4.63235933e+00     -1.96584912e+00     2.52668982e+00      
H    -4.97728404e+00     -2.07808808e+00     1.62999887e+00      
H    -5.05192500e+00     -2.63707181e+00     3.07298262e+00      
O    -5.01961789e+00     -1.53702939e+00     -2.04907001e-01     
H    -5.65074165e+00     -1.80491155e+00     -8.77274842e-01     
H    -4.14007256e+00     -1.71092102e+00     -5.52696190e-01     
O    2.51553656e+00      1.25931123e+00      4.25213638e-01      
H    2.68650724e+00      2.20351344e+00      4.97309294e-01      
H    3.40492699e+00      9.10010594e-01      3.11784331e-01      
29
1668.501111
N    3.64215006e-02      -1.59756217e-03     5.61013242e-02      
H    7.04241278e-02      -8.59378117e-01     -5.34455934e-01     
H    9.58392537e-01      4.72276327e-01      6.51474086e-02      
H    -6.98627465e-01     6.53091396e-01      -2.99587187e-01     
C    -3.16556242e-01     -3.65106203e-01     1.44196096e+00      
H    4.19804774e-01      -1.05335798e+00     1.84617078e+00      
H    -3.41559299e-01     5.31473938e-01      2.05358977e+00      
C    -1.68125837e+00     -1.03024959e+00     1.41389900e+00      
O    -2.20263207e+00     -1.42811747e+00     3.86370070e-01      
O    -2.17566593e+00     -1.11236803e+00     2.62928200e+00      
H    -3.10705023e+00     -1.49929098e+00     2.58621246e+00      
O    -1.92514269e+00     1.80033836e+00      -3.98007995e-01     
H    -2.83129257e+00     1.65569141e+00      -6.25091399e-02     
H    -2.03850761e+00     2.54914636e+00      -9.89355258e-01     
O    1.89449893e-01      -2.51586110e+00     -1.09725765e+00     
H    -6.76404358e-01     -2.93065493e+00     -1.05102319e+00     
H    6.39964352e-01      -2.93874208e+00     -1.83321010e+00     
O    -4.35482214e+00     1.12048629e+00      6.88539347e-01      
H    -4.65510353e+00     1.35281276e+00      1.56705563e+00      
H    -4.73353543e+00     2.78751930e-01      4.09474313e-01      
O    -4.63243040e+00     -1.96594980e+00     2.52667508e+00      
H    -4.97668797e+00     -2.07672314e+00     1.62959710e+00      
H    -5.05130816e+00     -2.63670991e+00     3.07387833e+00      
O    -5.01962951e+00     -1.53690148e+00     -2.04734155e-01     
H    -5.64896822e+00     -1.80548731e+00     -8.78618093e-01     
H    -4.14112386e+00     -1.71223493e+00     -5.54623722e-01     
O    2.51618199e+00      1.25966761e+00      4.25206501e-01      
H    2.67936663e+00      2.20448510e+00      4.97977154e-01      
H    3.40201497e+00      9.03426481e-01      3.11385391e-01      
29
1668.501111
N    3.63404530e-02      -1.67404256e-03     5.63144707e-02      
H    7.06109660e-02      -8.58764818e-01     -5.35133853e-01     
H    9.58241065e-01      4.72569316e-01      6.40398490e-02      
H    -6.97821944e-01     6.53275716e-01      -3.01275463e-01     
C    -3.16515196e-01     -3.65127739e-01     1.44196117e+00      
H    4.19809294e-01      -1.05337502e+00     1.84628145e+00      
H    -3.41552368e-01     5.31486523e-01      2.05355760e+00      
C    -1.68137282e+00     -1.03028863e+00     1.41381243e+00      
O    -2.20258295e+00     -1.42809326e+00     3.86429477e-01      
O    -2.17564356e+00     -1.11237443e+00     2.62930628e+00      
H    -3.10708157e+00     -1.49901764e+00     2.58575376e+00      
O    -1.92601090e+00     1.80088845e+00      -3.98226083e-01     
H    -2.82718696e+00     1.64730870e+00      -5.65508290e-02     
H    -2.02908923e+00     2.54859179e+00      -9.91276781e-01     
O    1.89413695e-01      -2.51593207e+00     -1.09730938e+00     
H    -6.76618803e-01     -2.93012547e+00     -1.05028795e+00     
H    6.40735999e-01      -2.93816630e+00     -1.83305731e+00     
O    -4.35408583e+00     1.12108285e+00      6.87863281e-01      
H    -4.66127752e+00     1.34356016e+00      1.56694333e+00      
H    -4.73954352e+00     2.78593890e-01      4.20378184e-01      
O    -4.63250148e+00     -1.96605048e+00     2.52666034e+00      
H    -4.97609190e+00     -2.07535820e+00     1.62919534e+00      
H    -5.05069132e+00     -2.63634800e+00     3.07477404e+00      
O    -5.01964114e+00     -1.53677357e+00     -2.04561309e-01     
H    -5.64719478e+00     -1.80606307e+00     -8.79961343e-01     
H    -4.14217516e+00     -1.71354883e+00     -5.56551253e-01     
O    2.51682742e+00      1.26002398e+00      4.25199364e-01      
H    2.67222601e+00      2.20545677e+00      4.98645015e-01      
H    3.39910295e+00      8.96842367e-01      3.10986450e-01      
29
1668.501111
N    3.62999292e-02      -1.71228276e-03     5.64210440e-02      
H    7.07043851e-02      -8.58458169e-01     -5.35472812e-01     
H    9.58165330e-01      4.72715810e-01      6.34860692e-02      
H    -6.97419184e-01     6.53367876e-01      -3.02119601e-01     
C    -3.16494673e-01     -3.65138507e-01     1.44196127e+00      
H    4.19811553e-01      -1.05338355e+00     1.84633678e+00      
H    -3.41548902e-01     5.31492815e-01      2.05354152e+00      
C    -1.68143004e+00     -1.03030815e+00     1.41376915e+00      
O    -2.20255839e+00     -1.42808116e+00     3.86459180e-01      
O    -2.17563238e+00     -1.11237764e+00     2.62931842e+00      
H    -3.10709724e+00     -1.49888096e+00     2.58552440e+00      
O    -1.92644500e+00     1.80116349e+00      -3.98335127e-01     
H    -2.82513415e+00     1.64311735e+00      -5.35716736e-02     
H    -2.02438004e+00     2.54831451e+00      -9.92237543e-01     
O    1.89395596e-01      -2.51596755e+00     -1.09733524e+00     
H    -6.76726026e-01     -2.92986073e+00     -1.04992033e+00     
H    6.41121822e-01      -2.93787841e+00     -1.83298091e+00     
O    -4.35371768e+00     1.12138113e+00      6.87525248e-01      
H    -4.66436452e+00     1.33893386e+00      1.56688719e+00      
H    -4.74254757e+00     2.78514870e-01      4.25830119e-01      
O    -4.63253701e+00     -1.96610081e+00     2.52665297e+00      
H    -4.97579386e+00     -2.07467573e+00     1.62899445e+00      
H    -5.05038290e+00     -2.63616704e+00     3.07522190e+00      
O    -5.01964695e+00     -1.53670962e+00     -2.04474885e-01     
H    -5.64630806e+00     -1.80635095e+00     -8.80632969e-01     
H    -4.14270081e+00     -1.71420578e+00     -5.57515018e-01     
O    2.51715014e+00      1.26020217e+00      4.25195795e-01      
H    2.66865570e+00      2.20594261e+00      4.98978945e-01      
H    3.39764694e+00      8.93550311e-01      3.10786979e-01      
29
1668.501111
N    3.62594054e-02      -1.75052295e-03     5.65276173e-02      
H    7.07978042e-02      -8.58151519e-01     -5.35811772e-01     
H    9.58089594e-01      4.72862305e-01      6.29322893e-02      
H    -6.97016424e-01     6.53460036e-01      -3.02963738e-01     
C    -3.16474149e-01     -3.65149275e-01     1.44196137e+00      
H    4.19813813e-01      -1.05339207e+00     1.84639211e+00      
H    -3.41545437e-01     5.31499107e-01      2.05352543e+00      
C    -1.68148727e+00     -1.03032768e+00     1.41372587e+00      
O    -2.20253384e+00     -1.42806906e+00     3.86488883e-01      
O    -2.17562120e+00     -1.11238084e+00     2.62933056e+00      
H    -3.10711291e+00     -1.49874429e+00     2.58529505e+00      
O    -1.92687911e+00     1.80143853e+00      -3.98444171e-01     
H    -2.82308134e+00     1.63892600e+00      -5.05925181e-02     
H    -2.01967085e+00     2.54803723e+00      -9.93198304e-01     
O    1.89377497e-01      -2.51600304e+00     -1.09736111e+00     
H    -6.76833248e-01     -2.92959600e+00     -1.04955271e+00     
H    6.41507645e-01      -2.93759052e+00     -1.83290451e+00     
O    -4.35334952e+00     1.12167940e+00      6.87187216e-01      
H    -4.66745152e+00     1.33430755e+00      1.56683104e+00      
H    -4.74555161e+00     2.78435849e-01      4.31282054e-01      
O    -4.63257255e+00     -1.96615115e+00     2.52664560e+00      
H    -4.97549582e+00     -2.07399326e+00     1.62879357e+00      
H    -5.05007448e+00     -2.63598609e+00     3.07566975e+00      
O    -5.01965276e+00     -1.53664567e+00     -2.04388462e-01     
H    -5.64542135e+00     -1.80663884e+00     -8.81304594e-01     
H    -4.14322646e+00     -1.71486274e+00     -5.58478784e-01     
O    2.51747285e+00      1.26038036e+00      4.25192227e-01      
H    2.66508539e+00      2.20642844e+00      4.99312875e-01      
H    3.39619093e+00      8.90258254e-01      3.10587509e-01      
29
1668.501111
N    3.60973102e-02      -1.90348373e-03     5.69539103e-02      
H    7.11714806e-02      -8.56924921e-01     -5.37167610e-01     
H    9.57786650e-01      4.73448283e-01      6.07171701e-02      
H    -6.95405382e-01     6.53828676e-01      -3.06340290e-01     
C    -3.16392057e-01     -3.65192347e-01     1.44196179e+00      
H    4.19822853e-01      -1.05342615e+00     1.84661345e+00      
H    -3.41531575e-01     5.31524277e-01      2.05346109e+00      
C    -1.68171617e+00     -1.03040576e+00     1.41355273e+00      
O    -2.20243560e+00     -1.42802064e+00     3.86607697e-01      
O    -2.17557646e+00     -1.11239364e+00     2.62937912e+00      
H    -3.10717559e+00     -1.49819759e+00     2.58437763e+00      
O    -1.92861553e+00     1.80253871e+00      -3.98880347e-01     
H    -2.81487012e+00     1.62216060e+00      -3.86758963e-02     
H    -2.00083409e+00     2.54692809e+00      -9.97041350e-01     
O    1.89305101e-01      -2.51614498e+00     -1.09746457e+00     
H    -6.77262138e-01     -2.92853706e+00     -1.04808223e+00     
H    6.43050939e-01      -2.93643896e+00     -1.83259891e+00     
O    -4.35187690e+00     1.12287252e+00      6.85835084e-01      
H    -4.67979950e+00     1.31580235e+00      1.56660644e+00      
H    -4.75756779e+00     2.78119769e-01      4.53089794e-01      
O    -4.63271469e+00     -1.96635251e+00     2.52661612e+00      
H    -4.97430368e+00     -2.07126338e+00     1.62799003e+00      
H    -5.04884080e+00     -2.63526227e+00     3.07746117e+00      
O    -5.01967602e+00     -1.53638985e+00     -2.04042770e-01     
H    -5.64187447e+00     -1.80779036e+00     -8.83991096e-01     
H    -4.14532906e+00     -1.71749054e+00     -5.62333846e-01     
O    2.51876371e+00      1.26109312e+00      4.25177953e-01      
H    2.65080415e+00      2.20837178e+00      5.00648595e-01      
H    3.39036689e+00      8.77090028e-01      3.09789627e-01      
29
1668.501111
N    3.60567864e-02      -1.94172392e-03     5.70604836e-02      
H    7.12648997e-02      -8.56618271e-01     -5.37506570e-01     
H    9.57710914e-01      4.73594778e-01      6.01633902e-02      
H    -6.95002622e-01     6.53920836e-01      -3.07184427e-01     
C    -3.16371533e-01     -3.65203115e-01     1.44196189e+00      
H    4.19825113e-01      -1.05343467e+00     1.84666878e+00      
H    -3.41528110e-01     5.31530569e-01      2.05344500e+00      
C    -1.68177340e+00     -1.03042529e+00     1.41350945e+00      
O    -2.20241105e+00     -1.42800854e+00     3.86637400e-01      
O    -2.17556528e+00     -1.11239684e+00     2.62939126e+00      
H    -3.10719126e+00     -1.49806092e+00     2.58414828e+00      
O    -1.92904964e+00     1.80281375e+00      -3.98989391e-01     
H    -2.81281731e+00     1.61796925e+00      -3.56967408e-02     
H    -1.99612490e+00     2.54665081e+00      -9.98002111e-01     
O    1.89287002e-01      -2.51618047e+00     -1.09749044e+00     
H    -6.77369360e-01     -2.92827233e+00     -1.04771461e+00     
H    6.43436762e-01      -2.93615107e+00     -1.83252251e+00     
O    -4.35150874e+00     1.12317079e+00      6.85497052e-01      
H    -4.68288650e+00     1.31117604e+00      1.56655029e+00      
H    -4.76057183e+00     2.78040748e-01      4.58541729e-01      
O    -4.63275023e+00     -1.96640285e+00     2.52660875e+00      
H    -4.97400564e+00     -2.07058091e+00     1.62778915e+00      
H    -5.04853238e+00     -2.63508132e+00     3.07790902e+00      
O    -5.01968183e+00     -1.53632590e+00     -2.03956347e-01     
H    -5.64098776e+00     -1.80807825e+00     -8.84662721e-01     
H    -4.14585471e+00     -1.71814750e+00     -5.63297612e-01     
O    2.51908642e+00      1.26127131e+00      4.25174385e-01      
H    2.64723384e+00      2.20885761e+00      5.00982525e-01      
H    3.38891088e+00      8.73797971e-01      3.09590157e-01      
29
1668.501111
N    3.60162626e-02      -1.97996412e-03     5.71670569e-02      
H    7.13583188e-02      -8.56311622e-01     -5.37845529e-01     
H    9.57635179e-01      4.73741272e-01      5.96096104e-02      
H    -6.94599862e-01     6.54012996e-01      -3.08028565e-01     
C    -3.16351010e-01     -3.65213883e-01     1.44196199e+00      
H    4.19827372e-01      -1.05344320e+00     1.84672411e+00      
H    -3.41524644e-01     5.31536861e-01      2.05342892e+00      
C    -1.68183062e+00     -1.03044481e+00     1.41346617e+00      
O    -2.20238649e+00     -1.42799644e+00     3.86667103e-01      
O    -2.17555410e+00     -1.11240005e+00     2.62940340e+00      
H    -3.10720693e+00     -1.49792424e+00     2.58391892e+00      
O    -1.92948374e+00     1.80308879e+00      -3.99098435e-01     
H    -2.81076450e+00     1.61377790e+00      -3.27175854e-02     
H    -1.99141571e+00     2.54637353e+00      -9.98962873e-01     
O    1.89268903e-01      -2.51621595e+00     -1.09751630e+00     
H    -6.77476583e-01     -2.92800759e+00     -1.04734699e+00     
H    6.43822585e-01      -2.93586318e+00     -1.83244611e+00     
O    -4.35114059e+00     1.12346907e+00      6.85159019e-01      
H    -4.68597350e+00     1.30654974e+00      1.56649415e+00      
H    -4.76357588e+00     2.77961728e-01      4.63993664e-01      
O    -4.63278576e+00     -1.96645318e+00     2.52660138e+00      
H    -4.97370760e+00     -2.06989844e+00     1.62758826e+00      
H    -5.04822396e+00     -2.63490036e+00     3.07835688e+00      
O    -5.01968764e+00     -1.53626195e+00     -2.03869923e-01     
H    -5.64010104e+00     -1.80836613e+00     -8.85334347e-01     
H    -4.14638036e+00     -1.71880445e+00     -5.64261377e-01     
O    2.51940914e+00      1.26144950e+00      4.25170816e-01      
H    2.64366353e+00      2.20934345e+00      5.01316455e-01      
H    3.38745487e+00      8.70505915e-01      3.09390686e-01      
29
1668.501111
N    3.59352150e-02      -2.05644451e-03     5.73802034e-02      
H    7.15451570e-02      -8.55698323e-01     -5.38523448e-01     
H    9.57483707e-01      4.74034261e-01      5.85020508e-02      
H    -6.93794341e-01     6.54197316e-01      -3.09716841e-01     
C    -3.16309964e-01     -3.65235419e-01     1.44196220e+00      
H    4.19831892e-01      -1.05346024e+00     1.84683478e+00      
H    -3.41517713e-01     5.31549446e-01      2.05339675e+00      
C    -1.68194507e+00     -1.03048385e+00     1.41337960e+00      
O    -2.20233737e+00     -1.42797223e+00     3.86726510e-01      
O    -2.17553173e+00     -1.11240645e+00     2.62942768e+00      
H    -3.10723827e+00     -1.49765090e+00     2.58346022e+00      
O    -1.93035195e+00     1.80363888e+00      -3.99316523e-01     
H    -2.80665889e+00     1.60539519e+00      -2.67592745e-02     
H    -1.98199733e+00     2.54581896e+00      -1.00088440e+00     
O    1.89232705e-01      -2.51628692e+00     -1.09756803e+00     
H    -6.77691028e-01     -2.92747813e+00     -1.04661175e+00     
H    6.44594232e-01      -2.93528740e+00     -1.83229332e+00     
O    -4.35040428e+00     1.12406563e+00      6.84482953e-01      
H    -4.69214749e+00     1.29729714e+00      1.56638185e+00      
H    -4.76958397e+00     2.77803688e-01      4.74897535e-01      
O    -4.63285684e+00     -1.96655386e+00     2.52658664e+00      
H    -4.97311153e+00     -2.06853350e+00     1.62718650e+00      
H    -5.04760712e+00     -2.63453845e+00     3.07925259e+00      
O    -5.01969927e+00     -1.53613404e+00     -2.03697077e-01     
H    -5.63832760e+00     -1.80894189e+00     -8.86677597e-01     
H    -4.14743166e+00     -1.72011835e+00     -5.66188908e-01     
O    2.52005457e+00      1.26180587e+00      4.25163679e-01      
H    2.63652291e+00      2.21031512e+00      5.01984316e-01      
H    3.38454285e+00      8.63921801e-01      3.08991745e-01      
29
1668.501111
N    3.58541673e-02      -2.13292490e-03     5.75933499e-02      
H    7.17319952e-02      -8.55085024e-01     -5.39201367e-01     
H    9.57332235e-01      4.74327250e-01      5.73944911e-02      
H    -6.92988820e-01     6.54381636e-01      -3.11405116e-01     
C    -3.16268917e-01     -3.65256954e-01     1.44196240e+00      
H    4.19836412e-01      -1.05347728e+00     1.84694545e+00      
H    -3.41510782e-01     5.31562031e-01      2.05336458e+00      
C    -1.68205952e+00     -1.03052289e+00     1.41329303e+00      
O    -2.20228826e+00     -1.42794803e+00     3.86785917e-01      
O    -2.17550937e+00     -1.11241285e+00     2.62945196e+00      
H    -3.10726961e+00     -1.49737755e+00     2.58300151e+00      
O    -1.93122016e+00     1.80418897e+00      -3.99534611e-01     
H    -2.80255328e+00     1.59701249e+00      -2.08009636e-02     
H    -1.97257896e+00     2.54526440e+00      -1.00280592e+00     
O    1.89196507e-01      -2.51635789e+00     -1.09761977e+00     
H    -6.77905473e-01     -2.92694866e+00     -1.04587650e+00     
H    6.45365879e-01      -2.93471162e+00     -1.83214052e+00     
O    -4.34966797e+00     1.12466219e+00      6.83806888e-01      
H    -4.69832148e+00     1.28804453e+00      1.56626955e+00      
H    -4.77559206e+00     2.77645647e-01      4.85801405e-01      
O    -4.63292791e+00     -1.96665454e+00     2.52657190e+00      
H    -4.97251546e+00     -2.06716856e+00     1.62678473e+00      
H    -5.04699028e+00     -2.63417655e+00     3.08014830e+00      
O    -5.01971089e+00     -1.53600613e+00     -2.03524231e-01     
H    -5.63655417e+00     -1.80951765e+00     -8.88020848e-01     
H    -4.14848296e+00     -1.72143226e+00     -5.68116440e-01     
O    2.52070000e+00      1.26216225e+00      4.25156542e-01      
H    2.62938230e+00      2.21128678e+00      5.02652176e-01      
H    3.38163083e+00      8.57337688e-01      3.08592805e-01      
29
1668.501111
N    3.57731197e-02      -2.20940529e-03     5.78064964e-02      
H    7.19188334e-02      -8.54471725e-01     -5.39879286e-01     
H    9.57180764e-01      4.74620239e-01      5.62869315e-02      
H    -6.92183299e-01     6.54565956e-01      -3.13093392e-01     
C    -3.16227871e-01     -3.65278490e-01     1.44196261e+00      
H    4.19840932e-01      -1.05349432e+00     1.84705611e+00      
H    -3.41503851e-01     5.31574615e-01      2.05333241e+00      
C    -1.68217397e+00     -1.03056194e+00     1.41320646e+00      
O    -2.20223914e+00     -1.42792382e+00     3.86845323e-01      
O    -2.17548700e+00     -1.11241925e+00     2.62947623e+00      
H    -3.10730096e+00     -1.49710420e+00     2.58254280e+00      
O    -1.93208837e+00     1.80473906e+00      -3.99752699e-01     
H    -2.79844766e+00     1.58862979e+00      -1.48426527e-02     
H    -1.96316058e+00     2.54470983e+00      -1.00472744e+00     
O    1.89160309e-01      -2.51642886e+00     -1.09767150e+00     
H    -6.78119918e-01     -2.92641919e+00     -1.04514126e+00     
H    6.46137526e-01      -2.93413584e+00     -1.83198772e+00     
O    -4.34893166e+00     1.12525874e+00      6.83130822e-01      
H    -4.70449548e+00     1.27879193e+00      1.56615726e+00      
H    -4.78160015e+00     2.77487607e-01      4.96705275e-01      
O    -4.63299898e+00     -1.96675522e+00     2.52655716e+00      
H    -4.97191939e+00     -2.06580362e+00     1.62638296e+00      
H    -5.04637345e+00     -2.63381464e+00     3.08104400e+00      
O    -5.01972252e+00     -1.53587823e+00     -2.03351384e-01     
H    -5.63478073e+00     -1.81009342e+00     -8.89364099e-01     
H    -4.14953426e+00     -1.72274616e+00     -5.70043971e-01     
O    2.52134543e+00      1.26251863e+00      4.25149406e-01      
H    2.62224168e+00      2.21225845e+00      5.03320036e-01      
H    3.37871882e+00      8.50753575e-01      3.08193864e-01      
29
1668.501111
N    3.56920721e-02      -2.28588567e-03     5.80196430e-02      
H    7.21056715e-02      -8.53858425e-01     -5.40557205e-01     
H    9.57029292e-01      4.74913228e-01      5.51793719e-02      
H    -6.91377779e-01     6.54750276e-01      -3.14781668e-01     
C    -3.16186824e-01     -3.65300026e-01     1.44196281e+00      
H    4.19845451e-01      -1.05351137e+00     1.84716678e+00      
H    -3.41496920e-01     5.31587200e-01      2.05330024e+00      
C    -1.68228842e+00     -1.03060098e+00     1.41311990e+00      
O    -2.20219003e+00     -1.42789962e+00     3.86904730e-01      
O    -2.17546463e+00     -1.11242566e+00     2.62950051e+00      
H    -3.10733230e+00     -1.49683085e+00     2.58208409e+00      
O    -1.93295658e+00     1.80528914e+00      -3.99970787e-01     
H    -2.79434205e+00     1.58024709e+00      -8.88434175e-03     
H    -1.95374220e+00     2.54415527e+00      -1.00664896e+00     
O    1.89124111e-01      -2.51649983e+00     -1.09772323e+00     
H    -6.78334363e-01     -2.92588972e+00     -1.04440602e+00     
H    6.46909172e-01      -2.93356006e+00     -1.83183492e+00     
O    -4.34819535e+00     1.12585530e+00      6.82454757e-01      
H    -4.71066947e+00     1.26953933e+00      1.56604496e+00      
H    -4.78760824e+00     2.77329566e-01      5.07609145e-01      
O    -4.63307005e+00     -1.96685589e+00     2.52654242e+00      
H    -4.97132331e+00     -2.06443868e+00     1.62598119e+00      
H    -5.04575661e+00     -2.63345273e+00     3.08193971e+00      
O    -5.01973414e+00     -1.53575032e+00     -2.03178538e-01     
H    -5.63300730e+00     -1.81066918e+00     -8.90707350e-01     
H    -4.15058556e+00     -1.72406006e+00     -5.71971502e-01     
O    2.52199086e+00      1.26287501e+00      4.25142269e-01      
H    2.61510106e+00      2.21323012e+00      5.03987896e-01      
H    3.37580680e+00      8.44169462e-01      3.07794923e-01      
29
1668.501111
N    3.55299769e-02      -2.43884645e-03     5.84459360e-02      
H    7.24793479e-02      -8.52631827e-01     -5.41913043e-01     
H    9.56726348e-01      4.75499207e-01      5.29642526e-02      
H    -6.89766737e-01     6.55118915e-01      -3.18158219e-01     
C    -3.16104731e-01     -3.65343098e-01     1.44196322e+00      
H    4.19854491e-01      -1.05354545e+00     1.84738811e+00      
H    -3.41483058e-01     5.31612369e-01      2.05323590e+00      
C    -1.68251732e+00     -1.03067907e+00     1.41294676e+00      
O    -2.20209180e+00     -1.42785121e+00     3.87023543e-01      
O    -2.17541990e+00     -1.11243846e+00     2.62954907e+00      
H    -3.10739498e+00     -1.49628415e+00     2.58116668e+00      
O    -1.93469301e+00     1.80638932e+00      -4.00406962e-01     
H    -2.78613082e+00     1.56348169e+00      3.03228007e-03      
H    -1.93490544e+00     2.54304613e+00      -1.01049201e+00     
O    1.89051715e-01      -2.51664178e+00     -1.09782669e+00     
H    -6.78763252e-01     -2.92483079e+00     -1.04293554e+00     
H    6.48452466e-01      -2.93240850e+00     -1.83152933e+00     
O    -4.34672273e+00     1.12704841e+00      6.81102626e-01      
H    -4.72301746e+00     1.25103412e+00      1.56582037e+00      
H    -4.79962442e+00     2.77013485e-01      5.29416886e-01      
O    -4.63321219e+00     -1.96705725e+00     2.52651294e+00      
H    -4.97013117e+00     -2.06170880e+00     1.62517766e+00      
H    -5.04452293e+00     -2.63272891e+00     3.08373113e+00      
O    -5.01975739e+00     -1.53549451e+00     -2.02832845e-01     
H    -5.62946043e+00     -1.81182071e+00     -8.93393852e-01     
H    -4.15268816e+00     -1.72668787e+00     -5.75826564e-01     
O    2.52328171e+00      1.26358776e+00      4.25127995e-01      
H    2.60081982e+00      2.21517346e+00      5.05323617e-01      
H    3.36998276e+00      8.31001235e-01      3.06997041e-01      
