29
3122.002320
N    3.00251887e-02      8.69212772e-03      6.09509119e-02      
H    7.58715096e-02      -9.71301099e-01     -6.22551959e-01     
H    9.87619066e-01      4.88475649e-01      6.15516801e-02      
H    -6.48407521e-01     6.10161158e-01      -2.77665653e-01     
C    -3.12333818e-01     -3.65214867e-01     1.44697029e+00      
H    3.69435104e-01      -1.00644051e+00     1.81944447e+00      
H    -3.38996530e-01     4.87245679e-01      2.02269180e+00      
C    -1.68148064e+00     -1.03046204e+00     1.41344357e+00      
O    -2.20250548e+00     -1.42793689e+00     3.86678941e-01      
O    -2.17144691e+00     -1.11063966e+00     2.62945017e+00      
H    -3.17166691e+00     -1.52612780e+00     2.58432974e+00      
O    -1.92794792e+00     1.80191579e+00      -3.98637301e-01     
H    -2.81514427e+00     1.63023649e+00      -4.55251839e-02     
H    -2.00920194e+00     2.54662805e+00      -9.94931233e-01     
O    1.89577959e-01      -2.51601416e+00     -1.09736047e+00     
H    -6.79255875e-01     -2.93137152e+00     -1.04962003e+00     
H    6.42032937e-01      -2.93922569e+00     -1.83344329e+00     
O    -4.35260671e+00     1.12219491e+00      6.86481256e-01      
H    -4.67374531e+00     1.32484301e+00      1.56642631e+00      
H    -4.75106642e+00     2.79596841e-01      4.42783828e-01      
O    -4.63264186e+00     -1.96615451e+00     2.52673973e+00      
H    -4.97710083e+00     -2.07356783e+00     1.62562175e+00      
H    -5.05128515e+00     -2.63743051e+00     3.07760535e+00      
O    -5.01970298e+00     -1.53646505e+00     -2.04211729e-01     
H    -5.64353802e+00     -1.80726697e+00     -8.82661316e-01     
H    -4.14397129e+00     -1.71674933e+00     -5.61068730e-01     
O    2.51811468e+00      1.26067044e+00      4.25169465e-01      
H    2.65843864e+00      2.20816484e+00      5.00161556e-01      
H    3.39323385e+00      8.83948335e-01      3.10334553e-01      
29
3122.002320
N    3.15634809e-02      6.06234496e-03      5.98983748e-02      
H    7.46497928e-02      -9.42860379e-01     -6.01036392e-01     
H    9.80198830e-01      4.84645561e-01      6.16199425e-02      
H    -6.60358367e-01     6.21031958e-01      -2.84412243e-01     
C    -3.13358639e-01     -3.65203853e-01     1.44571812e+00      
H    3.82030911e-01      -1.01818266e+00     1.82620905e+00      
H    -3.39632024e-01     4.98312182e-01      2.03039217e+00      
C    -1.68151091e+00     -1.03043821e+00     1.41349250e+00      
O    -2.20250029e+00     -1.42796388e+00     3.86646278e-01      
O    -2.17248489e+00     -1.11107656e+00     2.62942634e+00      
H    -3.15553625e+00     -1.51921358e+00     2.58445639e+00      
O    -1.92789777e+00     1.80193400e+00      -3.98643541e-01     
H    -2.81610213e+00     1.63031319e+00      -4.53024397e-02     
H    -2.00946457e+00     2.54684170e+00      -9.94978382e-01     
O    1.89518794e-01      -2.51602912e+00     -1.09737356e+00     
H    -6.78703829e-01     -2.93079528e+00     -1.04941939e+00     
H    6.42094526e-01      -2.93867295e+00     -1.83327039e+00     
O    -4.35260834e+00     1.12221517e+00      6.86488729e-01      
H    -4.67371536e+00     1.32489599e+00      1.56649942e+00      
H    -4.75118974e+00     2.79267083e-01      4.42634352e-01      
O    -4.63264230e+00     -1.96617884e+00     2.52671252e+00      
H    -4.97655056e+00     -2.07333295e+00     1.62631426e+00      
H    -5.05082827e+00     -2.63697893e+00     3.07734538e+00      
O    -5.01969333e+00     -1.53647823e+00     -2.04212701e-01     
H    -5.64356550e+00     -1.80725388e+00     -8.82657948e-01     
H    -4.14404791e+00     -1.71660616e+00     -5.60903126e-01     
O    2.51811558e+00      1.26068701e+00      4.25173371e-01      
H    2.65831517e+00      2.20797365e+00      5.00116351e-01      
H    3.39324512e+00      8.83879787e-01      3.10298057e-01      
29
3122.002320
N    3.23326271e-02      4.74745357e-03      5.93721063e-02      
H    7.40389344e-02      -9.28640019e-01     -5.90278608e-01     
H    9.76488712e-01      4.82730516e-01      6.16540737e-02      
H    -6.66333789e-01     6.26467357e-01      -2.87785538e-01     
C    -3.13871050e-01     -3.65198346e-01     1.44509203e+00      
H    3.88328815e-01      -1.02405374e+00     1.82959134e+00      
H    -3.39949771e-01     5.03845434e-01      2.03424235e+00      
C    -1.68152604e+00     -1.03042629e+00     1.41351697e+00      
O    -2.20249770e+00     -1.42797737e+00     3.86629947e-01      
O    -2.17300388e+00     -1.11129500e+00     2.62941442e+00      
H    -3.14747092e+00     -1.51575648e+00     2.58451972e+00      
O    -1.92787269e+00     1.80194310e+00      -3.98646660e-01     
H    -2.81658106e+00     1.63035154e+00      -4.51910676e-02     
H    -2.00959589e+00     2.54694853e+00      -9.95001956e-01     
O    1.89489211e-01      -2.51603660e+00     -1.09738011e+00     
H    -6.78427807e-01     -2.93050715e+00     -1.04931907e+00     
H    6.42125320e-01      -2.93839658e+00     -1.83318395e+00     
O    -4.35260915e+00     1.12222530e+00      6.86492466e-01      
H    -4.67370038e+00     1.32492249e+00      1.56653597e+00      
H    -4.75125140e+00     2.79102204e-01      4.42559614e-01      
O    -4.63264252e+00     -1.96619100e+00     2.52669891e+00      
H    -4.97627542e+00     -2.07321552e+00     1.62666052e+00      
H    -5.05059983e+00     -2.63675314e+00     3.07721539e+00      
O    -5.01968851e+00     -1.53648482e+00     -2.04213186e-01     
H    -5.64357923e+00     -1.80724733e+00     -8.82656264e-01     
H    -4.14408622e+00     -1.71653457e+00     -5.60820324e-01     
O    2.51811603e+00      1.26069530e+00      4.25175324e-01      
H    2.65825344e+00      2.20787806e+00      5.00093748e-01      
H    3.39325075e+00      8.83845512e-01      3.10279809e-01      
29
3122.002320
N    3.31017732e-02      3.43256219e-03      5.88458378e-02      
H    7.34280760e-02      -9.14419659e-01     -5.79520825e-01     
H    9.72778594e-01      4.80815472e-01      6.16882049e-02      
H    -6.72309212e-01     6.31902757e-01      -2.91158834e-01     
C    -3.14383460e-01     -3.65192839e-01     1.44446594e+00      
H    3.94626718e-01      -1.02992481e+00     1.83297362e+00      
H    -3.40267518e-01     5.09378686e-01      2.03809253e+00      
C    -1.68154118e+00     -1.03041438e+00     1.41354144e+00      
O    -2.20249510e+00     -1.42799087e+00     3.86613615e-01      
O    -2.17352287e+00     -1.11151345e+00     2.62940251e+00      
H    -3.13940558e+00     -1.51229937e+00     2.58458304e+00      
O    -1.92784762e+00     1.80195220e+00      -3.98649780e-01     
H    -2.81706000e+00     1.63038989e+00      -4.50796955e-02     
H    -2.00972720e+00     2.54705535e+00      -9.95025530e-01     
O    1.89459629e-01      -2.51604408e+00     -1.09738666e+00     
H    -6.78151784e-01     -2.93021903e+00     -1.04921875e+00     
H    6.42156115e-01      -2.93812021e+00     -1.83309750e+00     
O    -4.35260996e+00     1.12223543e+00      6.86496203e-01      
H    -4.67368541e+00     1.32494898e+00      1.56657252e+00      
H    -4.75131306e+00     2.78937325e-01      4.42484876e-01      
O    -4.63264274e+00     -1.96620317e+00     2.52668530e+00      
H    -4.97600029e+00     -2.07309808e+00     1.62700677e+00      
H    -5.05037139e+00     -2.63652735e+00     3.07708541e+00      
O    -5.01968369e+00     -1.53649141e+00     -2.04213672e-01     
H    -5.64359297e+00     -1.80724079e+00     -8.82654580e-01     
H    -4.14412452e+00     -1.71646299e+00     -5.60737522e-01     
O    2.51811648e+00      1.26070359e+00      4.25177277e-01      
H    2.65819170e+00      2.20778247e+00      5.00071146e-01      
H    3.39325638e+00      8.83811238e-01      3.10261561e-01      
29
3122.002320
N    3.38709194e-02      2.11767081e-03      5.83195693e-02      
H    7.28172176e-02      -9.00199300e-01     -5.68763041e-01     
H    9.69068476e-01      4.78900427e-01      6.17223361e-02      
H    -6.78284635e-01     6.37338157e-01      -2.94532129e-01     
C    -3.14895871e-01     -3.65187332e-01     1.44383985e+00      
H    4.00924622e-01      -1.03579589e+00     1.83635591e+00      
H    -3.40585265e-01     5.14911937e-01      2.04194271e+00      
C    -1.68155631e+00     -1.03040246e+00     1.41356590e+00      
O    -2.20249251e+00     -1.42800436e+00     3.86597284e-01      
O    -2.17404186e+00     -1.11173190e+00     2.62939059e+00      
H    -3.13134025e+00     -1.50884226e+00     2.58464637e+00      
O    -1.92782254e+00     1.80196131e+00      -3.98652900e-01     
H    -2.81753893e+00     1.63042825e+00      -4.49683234e-02     
H    -2.00985852e+00     2.54716218e+00      -9.95049104e-01     
O    1.89430046e-01      -2.51605157e+00     -1.09739320e+00     
H    -6.77875761e-01     -2.92993090e+00     -1.04911843e+00     
H    6.42186909e-01      -2.93784385e+00     -1.83301105e+00     
O    -4.35261077e+00     1.12224556e+00      6.86499940e-01      
H    -4.67367043e+00     1.32497547e+00      1.56660908e+00      
H    -4.75137472e+00     2.78772446e-01      4.42410138e-01      
O    -4.63264296e+00     -1.96621533e+00     2.52667169e+00      
H    -4.97572515e+00     -2.07298064e+00     1.62735303e+00      
H    -5.05014296e+00     -2.63630155e+00     3.07695542e+00      
O    -5.01967886e+00     -1.53649799e+00     -2.04214158e-01     
H    -5.64360670e+00     -1.80723424e+00     -8.82652896e-01     
H    -4.14416283e+00     -1.71639140e+00     -5.60654721e-01     
O    2.51811693e+00      1.26071188e+00      4.25179230e-01      
H    2.65812997e+00      2.20768688e+00      5.00048543e-01      
H    3.39326201e+00      8.83776964e-01      3.10243313e-01      
29
3122.002320
N    3.46400655e-02      8.02779425e-04      5.77933008e-02      
H    7.22063592e-02      -8.85978940e-01     -5.58005258e-01     
H    9.65358358e-01      4.76985383e-01      6.17564673e-02      
H    -6.84260058e-01     6.42773557e-01      -2.97905424e-01     
C    -3.15408282e-01     -3.65181825e-01     1.44321376e+00      
H    4.07222526e-01      -1.04166696e+00     1.83973820e+00      
H    -3.40903012e-01     5.20445189e-01      2.04579290e+00      
C    -1.68157145e+00     -1.03039055e+00     1.41359037e+00      
O    -2.20248991e+00     -1.42801786e+00     3.86580953e-01      
O    -2.17456085e+00     -1.11195035e+00     2.62937867e+00      
H    -3.12327492e+00     -1.50538515e+00     2.58470969e+00      
O    -1.92779747e+00     1.80197041e+00      -3.98656020e-01     
H    -2.81801786e+00     1.63046660e+00      -4.48569514e-02     
H    -2.00998984e+00     2.54726901e+00      -9.95072679e-01     
O    1.89400464e-01      -2.51605905e+00     -1.09739975e+00     
H    -6.77599738e-01     -2.92964278e+00     -1.04901811e+00     
H    6.42217703e-01      -2.93756748e+00     -1.83292460e+00     
O    -4.35261159e+00     1.12225570e+00      6.86503676e-01      
H    -4.67365546e+00     1.32500196e+00      1.56664563e+00      
H    -4.75143638e+00     2.78607567e-01      4.42335400e-01      
O    -4.63264318e+00     -1.96622750e+00     2.52665808e+00      
H    -4.97545002e+00     -2.07286320e+00     1.62769929e+00      
H    -5.04991452e+00     -2.63607576e+00     3.07682543e+00      
O    -5.01967404e+00     -1.53650458e+00     -2.04214644e-01     
H    -5.64362044e+00     -1.80722769e+00     -8.82651213e-01     
H    -4.14420114e+00     -1.71631981e+00     -5.60571919e-01     
O    2.51811738e+00      1.26072016e+00      4.25181184e-01      
H    2.65806824e+00      2.20759129e+00      5.00025940e-01      
H    3.39326765e+00      8.83742690e-01      3.10225064e-01      
29
3122.002320
N    3.50246386e-02      1.45333734e-04      5.75301666e-02      
H    7.19009300e-02      -8.78868760e-01     -5.52626366e-01     
H    9.63503299e-01      4.76027861e-01      6.17735329e-02      
H    -6.87247769e-01     6.45491256e-01      -2.99592071e-01     
C    -3.15664487e-01     -3.65179072e-01     1.44290071e+00      
H    4.10371478e-01      -1.04460250e+00     1.84142935e+00      
H    -3.41061885e-01     5.23211815e-01      2.04771799e+00      
C    -1.68157902e+00     -1.03038459e+00     1.41360260e+00      
O    -2.20248861e+00     -1.42802461e+00     3.86572787e-01      
O    -2.17482034e+00     -1.11205957e+00     2.62937272e+00      
H    -3.11924225e+00     -1.50365660e+00     2.58474135e+00      
O    -1.92778493e+00     1.80197496e+00      -3.98657579e-01     
H    -2.81825733e+00     1.63048577e+00      -4.48012653e-02     
H    -2.01005550e+00     2.54732242e+00      -9.95084466e-01     
O    1.89385673e-01      -2.51606279e+00     -1.09740302e+00     
H    -6.77461727e-01     -2.92949872e+00     -1.04896795e+00     
H    6.42233101e-01      -2.93742929e+00     -1.83288138e+00     
O    -4.35261199e+00     1.12226076e+00      6.86505545e-01      
H    -4.67364797e+00     1.32501521e+00      1.56666391e+00      
H    -4.75146721e+00     2.78525127e-01      4.42298031e-01      
O    -4.63264329e+00     -1.96623358e+00     2.52665127e+00      
H    -4.97531245e+00     -2.07280448e+00     1.62787242e+00      
H    -5.04980030e+00     -2.63596287e+00     3.07676044e+00      
O    -5.01967163e+00     -1.53650788e+00     -2.04214887e-01     
H    -5.64362731e+00     -1.80722442e+00     -8.82650371e-01     
H    -4.14422030e+00     -1.71628402e+00     -5.60530518e-01     
O    2.51811761e+00      1.26072431e+00      4.25182160e-01      
H    2.65803737e+00      2.20754350e+00      5.00014639e-01      
H    3.39327046e+00      8.83725552e-01      3.10215940e-01      
29
3122.002320
N    3.54092117e-02      -5.12111957e-04     5.72670323e-02      
H    7.15955008e-02      -8.71758580e-01     -5.47247474e-01     
H    9.61648240e-01      4.75070338e-01      6.17905985e-02      
H    -6.90235480e-01     6.48208956e-01      -3.01278719e-01     
C    -3.15920692e-01     -3.65176318e-01     1.44258767e+00      
H    4.13520429e-01      -1.04753804e+00     1.84312049e+00      
H    -3.41220759e-01     5.25978440e-01      2.04964308e+00      
C    -1.68158658e+00     -1.03037863e+00     1.41361483e+00      
O    -2.20248732e+00     -1.42803135e+00     3.86564621e-01      
O    -2.17507984e+00     -1.11216879e+00     2.62936676e+00      
H    -3.11520958e+00     -1.50192805e+00     2.58477302e+00      
O    -1.92777239e+00     1.80197952e+00      -3.98659139e-01     
H    -2.81849680e+00     1.63050495e+00      -4.47455793e-02     
H    -2.01012115e+00     2.54737583e+00      -9.95096253e-01     
O    1.89370881e-01      -2.51606653e+00     -1.09740629e+00     
H    -6.77323716e-01     -2.92935465e+00     -1.04891779e+00     
H    6.42248498e-01      -2.93729111e+00     -1.83283816e+00     
O    -4.35261240e+00     1.12226583e+00      6.86507413e-01      
H    -4.67364048e+00     1.32502846e+00      1.56668219e+00      
H    -4.75149804e+00     2.78442688e-01      4.42260662e-01      
O    -4.63264340e+00     -1.96623966e+00     2.52664447e+00      
H    -4.97517488e+00     -2.07274576e+00     1.62804554e+00      
H    -5.04968608e+00     -2.63584997e+00     3.07669545e+00      
O    -5.01966921e+00     -1.53651117e+00     -2.04215130e-01     
H    -5.64363417e+00     -1.80722115e+00     -8.82649529e-01     
H    -4.14423945e+00     -1.71624823e+00     -5.60489117e-01     
O    2.51811783e+00      1.26072845e+00      4.25183137e-01      
H    2.65800650e+00      2.20749570e+00      5.00003338e-01      
H    3.39327328e+00      8.83708415e-01      3.10206816e-01      
29
3122.002320
N    3.69475039e-02      -3.14189472e-03     5.62144953e-02      
H    7.03737840e-02      -8.43317860e-01     -5.25731908e-01     
H    9.54228004e-01      4.71240250e-01      6.18588609e-02      
H    -7.02186326e-01     6.59079756e-01      -3.08025309e-01     
C    -3.16945514e-01     -3.65165304e-01     1.44133549e+00      
H    4.26116237e-01      -1.05928018e+00     1.84988507e+00      
H    -3.41856253e-01     5.37044944e-01      2.05734344e+00      
C    -1.68161686e+00     -1.03035481e+00     1.41366377e+00      
O    -2.20248212e+00     -1.42805835e+00     3.86531959e-01      
O    -2.17611782e+00     -1.11260569e+00     2.62934292e+00      
H    -3.09907892e+00     -1.49501383e+00     2.58489966e+00      
O    -1.92772225e+00     1.80199772e+00      -3.98665379e-01     
H    -2.81945466e+00     1.63058165e+00      -4.45228351e-02     
H    -2.01038379e+00     2.54758949e+00      -9.95143401e-01     
O    1.89311717e-01      -2.51608149e+00     -1.09741939e+00     
H    -6.76771670e-01     -2.92877841e+00     -1.04871715e+00     
H    6.42310086e-01      -2.93673837e+00     -1.83266526e+00     
O    -4.35261402e+00     1.12228609e+00      6.86514887e-01      
H    -4.67361054e+00     1.32508144e+00      1.56675529e+00      
H    -4.75162136e+00     2.78112930e-01      4.42111186e-01      
O    -4.63264384e+00     -1.96626400e+00     2.52661725e+00      
H    -4.97462462e+00     -2.07251088e+00     1.62873806e+00      
H    -5.04922920e+00     -2.63539839e+00     3.07643547e+00      
O    -5.01965957e+00     -1.53652435e+00     -2.04216102e-01     
H    -5.64366165e+00     -1.80720805e+00     -8.82646161e-01     
H    -4.14431607e+00     -1.71610505e+00     -5.60323513e-01     
O    2.51811873e+00      1.26074503e+00      4.25187043e-01      
H    2.65788304e+00      2.20730452e+00      4.99958132e-01      
H    3.39328454e+00      8.83639867e-01      3.10170320e-01      
29
3122.002320
N    3.73320770e-02      -3.79934041e-03     5.59513610e-02      
H    7.00683548e-02      -8.36207680e-01     -5.20353016e-01     
H    9.52372945e-01      4.70282727e-01      6.18759265e-02      
H    -7.05174037e-01     6.61797456e-01      -3.09711957e-01     
C    -3.17201719e-01     -3.65162550e-01     1.44102245e+00      
H    4.29265188e-01      -1.06221572e+00     1.85157621e+00      
H    -3.42015127e-01     5.39811569e-01      2.05926853e+00      
C    -1.68162442e+00     -1.03034885e+00     1.41367600e+00      
O    -2.20248083e+00     -1.42806509e+00     3.86523793e-01      
O    -2.17637732e+00     -1.11271491e+00     2.62933696e+00      
H    -3.09504625e+00     -1.49328528e+00     2.58493133e+00      
O    -1.92770971e+00     1.80200228e+00      -3.98666939e-01     
H    -2.81969413e+00     1.63060083e+00      -4.44671491e-02     
H    -2.01044944e+00     2.54764290e+00      -9.95155188e-01     
O    1.89296925e-01      -2.51608523e+00     -1.09742266e+00     
H    -6.76633659e-01     -2.92863434e+00     -1.04866699e+00     
H    6.42325483e-01      -2.93660019e+00     -1.83262204e+00     
O    -4.35261443e+00     1.12229116e+00      6.86516755e-01      
H    -4.67360305e+00     1.32509469e+00      1.56677357e+00      
H    -4.75165219e+00     2.78030491e-01      4.42073817e-01      
O    -4.63264395e+00     -1.96627008e+00     2.52661045e+00      
H    -4.97448705e+00     -2.07245216e+00     1.62891118e+00      
H    -5.04911498e+00     -2.63528549e+00     3.07637048e+00      
O    -5.01965715e+00     -1.53652764e+00     -2.04216345e-01     
H    -5.64366851e+00     -1.80720478e+00     -8.82645319e-01     
H    -4.14433522e+00     -1.71606926e+00     -5.60282112e-01     
O    2.51811895e+00      1.26074917e+00      4.25188020e-01      
H    2.65785217e+00      2.20725672e+00      4.99946831e-01      
H    3.39328736e+00      8.83622730e-01      3.10161196e-01      
29
3122.002320
N    3.77166501e-02      -4.45678611e-03     5.56882268e-02      
H    6.97629256e-02      -8.29097500e-01     -5.14974124e-01     
H    9.50517886e-01      4.69325205e-01      6.18929921e-02      
H    -7.08161748e-01     6.64515155e-01      -3.11398604e-01     
C    -3.17457924e-01     -3.65159797e-01     1.44070940e+00      
H    4.32414140e-01      -1.06515126e+00     1.85326736e+00      
H    -3.42174000e-01     5.42578195e-01      2.06119362e+00      
C    -1.68163199e+00     -1.03034289e+00     1.41368823e+00      
O    -2.20247953e+00     -1.42807184e+00     3.86515627e-01      
O    -2.17663681e+00     -1.11282413e+00     2.62933101e+00      
H    -3.09101358e+00     -1.49155673e+00     2.58496299e+00      
O    -1.92769717e+00     1.80200683e+00      -3.98668498e-01     
H    -2.81993360e+00     1.63062000e+00      -4.44114630e-02     
H    -2.01051510e+00     2.54769631e+00      -9.95166975e-01     
O    1.89282134e-01      -2.51608897e+00     -1.09742593e+00     
H    -6.76495648e-01     -2.92849028e+00     -1.04861683e+00     
H    6.42340881e-01      -2.93646200e+00     -1.83257882e+00     
O    -4.35261483e+00     1.12229622e+00      6.86518624e-01      
H    -4.67359556e+00     1.32510794e+00      1.56679185e+00      
H    -4.75168302e+00     2.77948051e-01      4.42036448e-01      
O    -4.63264406e+00     -1.96627616e+00     2.52660364e+00      
H    -4.97434948e+00     -2.07239344e+00     1.62908431e+00      
H    -5.04900076e+00     -2.63517260e+00     3.07630549e+00      
O    -5.01965474e+00     -1.53653094e+00     -2.04216588e-01     
H    -5.64367538e+00     -1.80720151e+00     -8.82644477e-01     
H    -4.14435438e+00     -1.71603347e+00     -5.60240711e-01     
O    2.51811918e+00      1.26075332e+00      4.25188996e-01      
H    2.65782130e+00      2.20720893e+00      4.99935530e-01      
H    3.39329017e+00      8.83605592e-01      3.10152072e-01      
29
3122.002320
N    3.84857962e-02      -5.77167749e-03     5.51619583e-02      
H    6.91520672e-02      -8.14877140e-01     -5.04216341e-01     
H    9.46807768e-01      4.67410161e-01      6.19271233e-02      
H    -7.14137171e-01     6.69950555e-01      -3.14771899e-01     
C    -3.17970335e-01     -3.65154290e-01     1.44008331e+00      
H    4.38712044e-01      -1.07102233e+00     1.85664965e+00      
H    -3.42491747e-01     5.48111447e-01      2.06504381e+00      
C    -1.68164713e+00     -1.03033098e+00     1.41371270e+00      
O    -2.20247693e+00     -1.42808534e+00     3.86499296e-01      
O    -2.17715580e+00     -1.11304258e+00     2.62931909e+00      
H    -3.08294825e+00     -1.48809962e+00     2.58502631e+00      
O    -1.92767210e+00     1.80201593e+00      -3.98671618e-01     
H    -2.82041253e+00     1.63065835e+00      -4.43000910e-02     
H    -2.01064642e+00     2.54780314e+00      -9.95190550e-01     
O    1.89252552e-01      -2.51609645e+00     -1.09743248e+00     
H    -6.76219625e-01     -2.92820216e+00     -1.04851651e+00     
H    6.42371675e-01      -2.93618563e+00     -1.83249237e+00     
O    -4.35261565e+00     1.12230636e+00      6.86522360e-01      
H    -4.67358059e+00     1.32513443e+00      1.56682840e+00      
H    -4.75174468e+00     2.77783172e-01      4.41961710e-01      
O    -4.63264428e+00     -1.96628833e+00     2.52659003e+00      
H    -4.97407435e+00     -2.07227600e+00     1.62943057e+00      
H    -5.04877232e+00     -2.63494681e+00     3.07617550e+00      
O    -5.01964992e+00     -1.53653753e+00     -2.04217074e-01     
H    -5.64368912e+00     -1.80719496e+00     -8.82642794e-01     
H    -4.14439269e+00     -1.71596188e+00     -5.60157909e-01     
O    2.51811963e+00      1.26076160e+00      4.25190950e-01      
H    2.65775957e+00      2.20711334e+00      4.99912927e-01      
H    3.39329581e+00      8.83571318e-01      3.10133823e-01      
29
3122.002320
N    3.92549424e-02      -7.08656887e-03     5.46356898e-02      
H    6.85412088e-02      -8.00656781e-01     -4.93458557e-01     
H    9.43097650e-01      4.65495116e-01      6.19612545e-02      
H    -7.20112594e-01     6.75385955e-01      -3.18145194e-01     
C    -3.18482746e-01     -3.65148783e-01     1.43945722e+00      
H    4.45009948e-01      -1.07689341e+00     1.86003194e+00      
H    -3.42809494e-01     5.53644698e-01      2.06889399e+00      
C    -1.68166226e+00     -1.03031906e+00     1.41373716e+00      
O    -2.20247434e+00     -1.42809883e+00     3.86482965e-01      
O    -2.17767479e+00     -1.11326103e+00     2.62930717e+00      
H    -3.07488292e+00     -1.48464251e+00     2.58508964e+00      
O    -1.92764702e+00     1.80202504e+00      -3.98674738e-01     
H    -2.82089146e+00     1.63069671e+00      -4.41887189e-02     
H    -2.01077774e+00     2.54790997e+00      -9.95214124e-01     
O    1.89222969e-01      -2.51610394e+00     -1.09743902e+00     
H    -6.75943602e-01     -2.92791403e+00     -1.04841619e+00     
H    6.42402469e-01      -2.93590927e+00     -1.83240592e+00     
O    -4.35261646e+00     1.12231649e+00      6.86526097e-01      
H    -4.67356561e+00     1.32516092e+00      1.56686496e+00      
H    -4.75180634e+00     2.77618293e-01      4.41886972e-01      
O    -4.63264450e+00     -1.96630049e+00     2.52657642e+00      
H    -4.97379921e+00     -2.07215856e+00     1.62977683e+00      
H    -5.04854389e+00     -2.63472101e+00     3.07604551e+00      
O    -5.01964509e+00     -1.53654411e+00     -2.04217560e-01     
H    -5.64370285e+00     -1.80718841e+00     -8.82641110e-01     
H    -4.14443100e+00     -1.71589029e+00     -5.60075108e-01     
O    2.51812008e+00      1.26076989e+00      4.25192903e-01      
H    2.65769784e+00      2.20701775e+00      4.99890324e-01      
H    3.39330144e+00      8.83537044e-01      3.10115575e-01      
29
3122.002320
N    4.00240885e-02      -8.40146025e-03     5.41094213e-02      
H    6.79303504e-02      -7.86436421e-01     -4.82700774e-01     
H    9.39387532e-01      4.63580072e-01      6.19953857e-02      
H    -7.26088017e-01     6.80821355e-01      -3.21518490e-01     
C    -3.18995156e-01     -3.65143276e-01     1.43883113e+00      
H    4.51307851e-01      -1.08276448e+00     1.86341422e+00      
H    -3.43127241e-01     5.59177950e-01      2.07274417e+00      
C    -1.68167740e+00     -1.03030715e+00     1.41376163e+00      
O    -2.20247174e+00     -1.42811233e+00     3.86466633e-01      
O    -2.17819378e+00     -1.11347948e+00     2.62929526e+00      
H    -3.06681758e+00     -1.48118540e+00     2.58515296e+00      
O    -1.92762195e+00     1.80203414e+00      -3.98677858e-01     
H    -2.82137040e+00     1.63073506e+00      -4.40773468e-02     
H    -2.01090905e+00     2.54801679e+00      -9.95237698e-01     
O    1.89193387e-01      -2.51611142e+00     -1.09744557e+00     
H    -6.75667579e-01     -2.92762591e+00     -1.04831587e+00     
H    6.42433264e-01      -2.93563290e+00     -1.83231947e+00     
O    -4.35261727e+00     1.12232662e+00      6.86529834e-01      
H    -4.67355064e+00     1.32518741e+00      1.56690151e+00      
H    -4.75186800e+00     2.77453414e-01      4.41812234e-01      
O    -4.63264472e+00     -1.96631266e+00     2.52656281e+00      
H    -4.97352408e+00     -2.07204112e+00     1.63012308e+00      
H    -5.04831545e+00     -2.63449522e+00     3.07591553e+00      
O    -5.01964027e+00     -1.53655070e+00     -2.04218046e-01     
H    -5.64371659e+00     -1.80718187e+00     -8.82639426e-01     
H    -4.14446930e+00     -1.71581871e+00     -5.59992306e-01     
O    2.51812053e+00      1.26077818e+00      4.25194856e-01      
H    2.65763610e+00      2.20692216e+00      4.99867722e-01      
H    3.39330707e+00      8.83502770e-01      3.10097327e-01      
29
3122.002320
N    4.07932347e-02      -9.71635164e-03     5.35831528e-02      
H    6.73194920e-02      -7.72216061e-01     -4.71942990e-01     
H    9.35677414e-01      4.61665027e-01      6.20295169e-02      
H    -7.32063439e-01     6.86256754e-01      -3.24891785e-01     
C    -3.19507567e-01     -3.65137769e-01     1.43820504e+00      
H    4.57605755e-01      -1.08863556e+00     1.86679651e+00      
H    -3.43444988e-01     5.64711202e-01      2.07659435e+00      
C    -1.68169253e+00     -1.03029523e+00     1.41378610e+00      
O    -2.20246915e+00     -1.42812582e+00     3.86450302e-01      
O    -2.17871277e+00     -1.11369792e+00     2.62928334e+00      
H    -3.05875225e+00     -1.47772830e+00     2.58521629e+00      
O    -1.92759687e+00     1.80204324e+00      -3.98680977e-01     
H    -2.82184933e+00     1.63077341e+00      -4.39659747e-02     
H    -2.01104037e+00     2.54812362e+00      -9.95261272e-01     
O    1.89163804e-01      -2.51611890e+00     -1.09745212e+00     
H    -6.75391557e-01     -2.92733778e+00     -1.04821555e+00     
H    6.42464058e-01      -2.93535653e+00     -1.83223303e+00     
O    -4.35261808e+00     1.12233675e+00      6.86533571e-01      
H    -4.67353566e+00     1.32521391e+00      1.56693806e+00      
H    -4.75192966e+00     2.77288535e-01      4.41737496e-01      
O    -4.63264494e+00     -1.96632482e+00     2.52654920e+00      
H    -4.97324894e+00     -2.07192369e+00     1.63046934e+00      
H    -5.04808701e+00     -2.63426943e+00     3.07578554e+00      
O    -5.01963545e+00     -1.53655729e+00     -2.04218531e-01     
H    -5.64373032e+00     -1.80717532e+00     -8.82637742e-01     
H    -4.14450761e+00     -1.71574712e+00     -5.59909504e-01     
O    2.51812098e+00      1.26078647e+00      4.25196809e-01      
H    2.65757437e+00      2.20682657e+00      4.99845119e-01      
H    3.39331270e+00      8.83468495e-01      3.10079079e-01      
29
3122.002320
N    4.23315269e-02      -1.23461344e-02     5.25306157e-02      
H    6.60977752e-02      -7.43775341e-01     -4.50427423e-01     
H    9.28257178e-01      4.57834939e-01      6.20977793e-02      
H    -7.44014285e-01     6.97127554e-01      -3.31638375e-01     
C    -3.20532388e-01     -3.65126755e-01     1.43695287e+00      
H    4.70201562e-01      -1.10037771e+00     1.87356109e+00      
H    -3.44080482e-01     5.75777705e-01      2.08429472e+00      
C    -1.68172280e+00     -1.03027140e+00     1.41383503e+00      
O    -2.20246396e+00     -1.42815281e+00     3.86417639e-01      
O    -2.17975075e+00     -1.11413482e+00     2.62925951e+00      
H    -3.04262159e+00     -1.47081408e+00     2.58534294e+00      
O    -1.92754672e+00     1.80206145e+00      -3.98687217e-01     
H    -2.82280719e+00     1.63085011e+00      -4.37432305e-02     
H    -2.01130300e+00     2.54833727e+00      -9.95308421e-01     
O    1.89104639e-01      -2.51613386e+00     -1.09746521e+00     
H    -6.74839511e-01     -2.92676154e+00     -1.04801491e+00     
H    6.42525647e-01      -2.93480379e+00     -1.83206013e+00     
O    -4.35261971e+00     1.12235701e+00      6.86541044e-01      
H    -4.67350571e+00     1.32526689e+00      1.56701117e+00      
H    -4.75205298e+00     2.76958777e-01      4.41588020e-01      
O    -4.63264538e+00     -1.96634915e+00     2.52652199e+00      
H    -4.97269867e+00     -2.07168881e+00     1.63116185e+00      
H    -5.04763013e+00     -2.63381785e+00     3.07552557e+00      
O    -5.01962580e+00     -1.53657047e+00     -2.04219503e-01     
H    -5.64375780e+00     -1.80716223e+00     -8.82634374e-01     
H    -4.14458423e+00     -1.71560395e+00     -5.59743900e-01     
O    2.51812188e+00      1.26080304e+00      4.25200715e-01      
H    2.65745090e+00      2.20663538e+00      4.99799914e-01      
H    3.39332397e+00      8.83399947e-01      3.10042583e-01      
