29
3701.585798
N    3.61089776e-02      -1.87305607e-03     5.67615292e-02      
H    7.10959056e-02      -8.57439431e-01     -5.36505800e-01     
H    9.58556846e-01      4.73497281e-01      6.17639538e-02      
H    -6.96148992e-01     6.53776927e-01      -3.04693326e-01     
C    -3.16397822e-01     -3.65158335e-01     1.44197054e+00      
H    4.19624772e-01      -1.05324697e+00     1.84640201e+00      
H    -3.41516109e-01     5.31350767e-01      2.05336926e+00      
C    -1.68158148e+00     -1.03036662e+00     1.41346599e+00      
O    -2.20246130e+00     -1.42803822e+00     3.86597145e-01      
O    -2.17617846e+00     -1.11263156e+00     2.62942379e+00      
H    -3.09583999e+00     -1.49295313e+00     2.58529562e+00      
O    -1.92751039e+00     1.80198528e+00      -3.98713548e-01     
H    -2.82275708e+00     1.62966551e+00      -4.30744032e-02     
H    -2.01026287e+00     2.54833221e+00      -9.95842295e-01     
O    1.89325152e-01      -2.51608281e+00     -1.09740761e+00     
H    -6.76799813e-01     -2.92890226e+00     -1.04888731e+00     
H    6.42261732e-01      -2.93701298e+00     -1.83276605e+00     
O    -4.35363937e+00     1.12048165e+00      6.86376998e-01      
H    -4.67150077e+00     1.32277093e+00      1.55918028e+00      
H    -4.73739389e+00     3.08714236e-01      4.51483747e-01      
O    -4.62698688e+00     -1.96212385e+00     2.53381082e+00      
H    -5.03507055e+00     -2.08695649e+00     1.46185684e+00      
H    -5.08193002e+00     -2.68906736e+00     3.12910111e+00      
O    -5.01983290e+00     -1.53618467e+00     -2.03514414e-01     
H    -5.65016489e+00     -1.80973047e+00     -8.89788364e-01     
H    -4.13496837e+00     -1.71814238e+00     -5.64321567e-01     
O    2.51811739e+00      1.26073638e+00      4.25186124e-01      
H    2.65794756e+00      2.20740810e+00      4.99975631e-01      
H    3.39329691e+00      8.83673650e-01      3.10182553e-01      
29
3701.585798
N    3.61263227e-02      -1.86154289e-03     5.67563379e-02      
H    7.10680898e-02      -8.57464128e-01     -5.36501772e-01     
H    9.58402165e-01      4.73411784e-01      6.17791478e-02      
H    -6.96164470e-01     6.53743784e-01      -3.04682998e-01     
C    -3.16406642e-01     -3.65161454e-01     1.44196830e+00      
H    4.19673162e-01      -1.05328750e+00     1.84642720e+00      
H    -3.41521708e-01     5.31390999e-01      2.05340026e+00      
C    -1.68158654e+00     -1.03036665e+00     1.41350932e+00      
O    -2.20246716e+00     -1.42803987e+00     3.86584931e-01      
O    -2.17603355e+00     -1.11257048e+00     2.62940655e+00      
H    -3.09866605e+00     -1.49433258e+00     2.58518080e+00      
O    -1.92756962e+00     1.80198612e+00      -3.98700726e-01     
H    -2.82181175e+00     1.62988496e+00      -4.34643542e-02     
H    -2.01026027e+00     2.54811983e+00      -9.95661678e-01     
O    1.89329189e-01      -2.51608061e+00     -1.09740892e+00     
H    -6.76861783e-01     -2.92894333e+00     -1.04886985e+00     
H    6.42266122e-01      -2.93701342e+00     -1.83276247e+00     
O    -4.35338283e+00     1.12093023e+00      6.86410536e-01      
H    -4.67203196e+00     1.32334193e+00      1.56106489e+00      
H    -4.74093534e+00     3.01105129e-01      4.49159291e-01      
O    -4.62840107e+00     -1.96315584e+00     2.53201583e+00      
H    -5.02002785e+00     -2.08337445e+00     1.50349058e+00      
H    -5.07381193e+00     -2.67570656e+00     3.11596719e+00      
O    -5.01979077e+00     -1.53626794e+00     -2.03689715e-01     
H    -5.64853564e+00     -1.80910150e+00     -8.88003234e-01     
H    -4.13729572e+00     -1.71765094e+00     -5.63342754e-01     
O    2.51811761e+00      1.26073647e+00      4.25185866e-01      
H    2.65794686e+00      2.20740610e+00      4.99976907e-01      
H    3.39329241e+00      8.83673773e-01      3.10184057e-01      
29
3701.585798
N    3.61349952e-02      -1.85578629e-03     5.67537422e-02      
H    7.10541819e-02      -8.57476477e-01     -5.36499759e-01     
H    9.58324825e-01      4.73369036e-01      6.17867448e-02      
H    -6.96172209e-01     6.53727213e-01      -3.04677834e-01     
C    -3.16411053e-01     -3.65163013e-01     1.44196718e+00      
H    4.19697358e-01      -1.05330777e+00     1.84643980e+00      
H    -3.41524508e-01     5.31411114e-01      2.05341576e+00      
C    -1.68158907e+00     -1.03036666e+00     1.41353098e+00      
O    -2.20247008e+00     -1.42804070e+00     3.86578824e-01      
O    -2.17596110e+00     -1.11253994e+00     2.62939793e+00      
H    -3.10007909e+00     -1.49502231e+00     2.58512339e+00      
O    -1.92759924e+00     1.80198654e+00      -3.98694315e-01     
H    -2.82133908e+00     1.62999468e+00      -4.36593297e-02     
H    -2.01025897e+00     2.54801363e+00      -9.95571370e-01     
O    1.89331207e-01      -2.51607951e+00     -1.09740957e+00     
H    -6.76892768e-01     -2.92896386e+00     -1.04886112e+00     
H    6.42268317e-01      -2.93701364e+00     -1.83276067e+00     
O    -4.35325456e+00     1.12115452e+00      6.86427305e-01      
H    -4.67229755e+00     1.32362744e+00      1.56200720e+00      
H    -4.74270607e+00     2.97300576e-01      4.47997064e-01      
O    -4.62910816e+00     -1.96367184e+00     2.53111834e+00      
H    -5.01250650e+00     -2.08158343e+00     1.52430745e+00      
H    -5.06975288e+00     -2.66902617e+00     3.10940024e+00      
O    -5.01976971e+00     -1.53630958e+00     -2.03777365e-01     
H    -5.64772102e+00     -1.80878702e+00     -8.87110669e-01     
H    -4.13845939e+00     -1.71740522e+00     -5.62853347e-01     
O    2.51811773e+00      1.26073652e+00      4.25185736e-01      
H    2.65794652e+00      2.20740510e+00      4.99977545e-01      
H    3.39329016e+00      8.83673834e-01      3.10184809e-01      
29
3701.585798
N    3.61436677e-02      -1.85002970e-03     5.67511465e-02      
H    7.10402740e-02      -8.57488826e-01     -5.36497745e-01     
H    9.58247484e-01      4.73326287e-01      6.17943418e-02      
H    -6.96179947e-01     6.53710641e-01      -3.04672670e-01     
C    -3.16415463e-01     -3.65164573e-01     1.44196606e+00      
H    4.19721553e-01      -1.05332804e+00     1.84645239e+00      
H    -3.41527308e-01     5.31431230e-01      2.05343126e+00      
C    -1.68159160e+00     -1.03036667e+00     1.41355264e+00      
O    -2.20247301e+00     -1.42804153e+00     3.86572717e-01      
O    -2.17588864e+00     -1.11250940e+00     2.62938932e+00      
H    -3.10149212e+00     -1.49571204e+00     2.58506598e+00      
O    -1.92762885e+00     1.80198695e+00      -3.98687903e-01     
H    -2.82086641e+00     1.63010441e+00      -4.38543052e-02     
H    -2.01025767e+00     2.54790744e+00      -9.95481061e-01     
O    1.89333226e-01      -2.51607841e+00     -1.09741023e+00     
H    -6.76923753e-01     -2.92898440e+00     -1.04885239e+00     
H    6.42270512e-01      -2.93701386e+00     -1.83275888e+00     
O    -4.35312629e+00     1.12137880e+00      6.86444074e-01      
H    -4.67256314e+00     1.32391294e+00      1.56294951e+00      
H    -4.74447680e+00     2.93496023e-01      4.46834836e-01      
O    -4.62981525e+00     -1.96418784e+00     2.53022084e+00      
H    -5.00498515e+00     -2.07979241e+00     1.54512432e+00      
H    -5.06569383e+00     -2.66234577e+00     3.10283328e+00      
O    -5.01974864e+00     -1.53635122e+00     -2.03865015e-01     
H    -5.64690640e+00     -1.80847253e+00     -8.86218105e-01     
H    -4.13962307e+00     -1.71715951e+00     -5.62363941e-01     
O    2.51811784e+00      1.26073656e+00      4.25185607e-01      
H    2.65794617e+00      2.20740410e+00      4.99978183e-01      
H    3.39328791e+00      8.83673896e-01      3.10185561e-01      
29
3701.585798
N    3.61523402e-02      -1.84427311e-03     5.67485508e-02      
H    7.10263661e-02      -8.57501174e-01     -5.36495732e-01     
H    9.58170144e-01      4.73283539e-01      6.18019387e-02      
H    -6.96187686e-01     6.53694070e-01      -3.04667506e-01     
C    -3.16419873e-01     -3.65166132e-01     1.44196494e+00      
H    4.19745748e-01      -1.05334831e+00     1.84646499e+00      
H    -3.41530107e-01     5.31451345e-01      2.05344676e+00      
C    -1.68159413e+00     -1.03036668e+00     1.41357431e+00      
O    -2.20247594e+00     -1.42804236e+00     3.86566611e-01      
O    -2.17581619e+00     -1.11247886e+00     2.62938070e+00      
H    -3.10290515e+00     -1.49640176e+00     2.58500857e+00      
O    -1.92765847e+00     1.80198737e+00      -3.98681492e-01     
H    -2.82039374e+00     1.63021413e+00      -4.40492807e-02     
H    -2.01025637e+00     2.54780124e+00      -9.95390753e-01     
O    1.89335244e-01      -2.51607731e+00     -1.09741088e+00     
H    -6.76954738e-01     -2.92900493e+00     -1.04884366e+00     
H    6.42272707e-01      -2.93701408e+00     -1.83275709e+00     
O    -4.35299802e+00     1.12160309e+00      6.86460843e-01      
H    -4.67282873e+00     1.32419844e+00      1.56389182e+00      
H    -4.74624752e+00     2.89691469e-01      4.45672608e-01      
O    -4.63052234e+00     -1.96470384e+00     2.52932335e+00      
H    -4.99746380e+00     -2.07800138e+00     1.56594119e+00      
H    -5.06163478e+00     -2.65566537e+00     3.09626633e+00      
O    -5.01972758e+00     -1.53639285e+00     -2.03952665e-01     
H    -5.64609178e+00     -1.80815805e+00     -8.85325540e-01     
H    -4.14078674e+00     -1.71691379e+00     -5.61874534e-01     
O    2.51811795e+00      1.26073661e+00      4.25185478e-01      
H    2.65794582e+00      2.20740310e+00      4.99978821e-01      
H    3.39328566e+00      8.83673957e-01      3.10186312e-01      
29
3701.585798
N    3.61610128e-02      -1.83851652e-03     5.67459552e-02      
H    7.10124582e-02      -8.57513523e-01     -5.36493718e-01     
H    9.58092803e-01      4.73240791e-01      6.18095357e-02      
H    -6.96195425e-01     6.53677499e-01      -3.04662342e-01     
C    -3.16424283e-01     -3.65167692e-01     1.44196382e+00      
H    4.19769943e-01      -1.05336857e+00     1.84647759e+00      
H    -3.41532907e-01     5.31471461e-01      2.05346226e+00      
C    -1.68159666e+00     -1.03036670e+00     1.41359597e+00      
O    -2.20247887e+00     -1.42804319e+00     3.86560504e-01      
O    -2.17574374e+00     -1.11244832e+00     2.62937208e+00      
H    -3.10431818e+00     -1.49709149e+00     2.58495116e+00      
O    -1.92768809e+00     1.80198779e+00      -3.98675081e-01     
H    -2.81992107e+00     1.63032385e+00      -4.42442562e-02     
H    -2.01025507e+00     2.54769505e+00      -9.95300444e-01     
O    1.89337262e-01      -2.51607621e+00     -1.09741153e+00     
H    -6.76985723e-01     -2.92902546e+00     -1.04883493e+00     
H    6.42274902e-01      -2.93701430e+00     -1.83275530e+00     
O    -4.35286975e+00     1.12182738e+00      6.86477612e-01      
H    -4.67309433e+00     1.32448394e+00      1.56483412e+00      
H    -4.74801825e+00     2.85886916e-01      4.44510380e-01      
O    -4.63122944e+00     -1.96521983e+00     2.52842585e+00      
H    -4.98994245e+00     -2.07621036e+00     1.58675806e+00      
H    -5.05757574e+00     -2.64898497e+00     3.08969937e+00      
O    -5.01970652e+00     -1.53643449e+00     -2.04040316e-01     
H    -5.64527715e+00     -1.80784357e+00     -8.84432975e-01     
H    -4.14195041e+00     -1.71666807e+00     -5.61385128e-01     
O    2.51811806e+00      1.26073665e+00      4.25185349e-01      
H    2.65794547e+00      2.20740211e+00      4.99979459e-01      
H    3.39328341e+00      8.83674018e-01      3.10187064e-01      
29
3701.585798
N    3.61653490e-02      -1.83563823e-03     5.67446573e-02      
H    7.10055043e-02      -8.57519697e-01     -5.36492711e-01     
H    9.58054133e-01      4.73219416e-01      6.18133342e-02      
H    -6.96199295e-01     6.53669213e-01      -3.04659760e-01     
C    -3.16426488e-01     -3.65168472e-01     1.44196326e+00      
H    4.19782040e-01      -1.05337871e+00     1.84648389e+00      
H    -3.41534307e-01     5.31481519e-01      2.05347001e+00      
C    -1.68159793e+00     -1.03036670e+00     1.41360680e+00      
O    -2.20248033e+00     -1.42804361e+00     3.86557450e-01      
O    -2.17570751e+00     -1.11243305e+00     2.62936777e+00      
H    -3.10502470e+00     -1.49743635e+00     2.58492246e+00      
O    -1.92770289e+00     1.80198799e+00      -3.98671876e-01     
H    -2.81968473e+00     1.63037871e+00      -4.43417440e-02     
H    -2.01025442e+00     2.54764195e+00      -9.95255290e-01     
O    1.89338271e-01      -2.51607566e+00     -1.09741186e+00     
H    -6.77001215e-01     -2.92903573e+00     -1.04883057e+00     
H    6.42276000e-01      -2.93701441e+00     -1.83275440e+00     
O    -4.35280561e+00     1.12193953e+00      6.86485997e-01      
H    -4.67322712e+00     1.32462670e+00      1.56530528e+00      
H    -4.74890361e+00     2.83984639e-01      4.43929266e-01      
O    -4.63158298e+00     -1.96547783e+00     2.52797710e+00      
H    -4.98618177e+00     -2.07531485e+00     1.59716650e+00      
H    -5.05554621e+00     -2.64564478e+00     3.08641589e+00      
O    -5.01969599e+00     -1.53645531e+00     -2.04084141e-01     
H    -5.64486984e+00     -1.80768633e+00     -8.83986692e-01     
H    -4.14253225e+00     -1.71654522e+00     -5.61140425e-01     
O    2.51811811e+00      1.26073667e+00      4.25185284e-01      
H    2.65794529e+00      2.20740161e+00      4.99979778e-01      
H    3.39328228e+00      8.83674049e-01      3.10187440e-01      
29
3701.585798
N    3.61696853e-02      -1.83275993e-03     5.67433595e-02      
H    7.09985503e-02      -8.57525871e-01     -5.36491705e-01     
H    9.58015463e-01      4.73198042e-01      6.18171327e-02      
H    -6.96203164e-01     6.53660927e-01      -3.04657178e-01     
C    -3.16428693e-01     -3.65169251e-01     1.44196270e+00      
H    4.19794138e-01      -1.05338884e+00     1.84649018e+00      
H    -3.41535706e-01     5.31491576e-01      2.05347776e+00      
C    -1.68159919e+00     -1.03036671e+00     1.41361764e+00      
O    -2.20248179e+00     -1.42804402e+00     3.86554397e-01      
O    -2.17567128e+00     -1.11241778e+00     2.62936346e+00      
H    -3.10573122e+00     -1.49778121e+00     2.58489375e+00      
O    -1.92771770e+00     1.80198820e+00      -3.98668670e-01     
H    -2.81944840e+00     1.63043358e+00      -4.44392317e-02     
H    -2.01025377e+00     2.54758885e+00      -9.95210136e-01     
O    1.89339281e-01      -2.51607511e+00     -1.09741219e+00     
H    -6.77016708e-01     -2.92904600e+00     -1.04882620e+00     
H    6.42277097e-01      -2.93701452e+00     -1.83275350e+00     
O    -4.35274148e+00     1.12205167e+00      6.86494381e-01      
H    -4.67335992e+00     1.32476945e+00      1.56577643e+00      
H    -4.74978897e+00     2.82082362e-01      4.43348152e-01      
O    -4.63193653e+00     -1.96573583e+00     2.52752836e+00      
H    -4.98242110e+00     -2.07441934e+00     1.60757493e+00      
H    -5.05351669e+00     -2.64230458e+00     3.08313242e+00      
O    -5.01968545e+00     -1.53647612e+00     -2.04127966e-01     
H    -5.64446253e+00     -1.80752908e+00     -8.83540410e-01     
H    -4.14311409e+00     -1.71642236e+00     -5.60895721e-01     
O    2.51811817e+00      1.26073670e+00      4.25185219e-01      
H    2.65794512e+00      2.20740111e+00      4.99980097e-01      
H    3.39328116e+00      8.83674080e-01      3.10187816e-01      
29
3701.585798
N    3.61870303e-02      -1.82124675e-03     5.67381681e-02      
H    7.09707345e-02      -8.57550569e-01     -5.36487677e-01     
H    9.57860781e-01      4.73112546e-01      6.18323267e-02      
H    -6.96218642e-01     6.53627785e-01      -3.04646850e-01     
C    -3.16437513e-01     -3.65172371e-01     1.44196046e+00      
H    4.19842528e-01      -1.05342938e+00     1.84651538e+00      
H    -3.41541306e-01     5.31531808e-01      2.05350876e+00      
C    -1.68160425e+00     -1.03036673e+00     1.41366096e+00      
O    -2.20248765e+00     -1.42804568e+00     3.86542183e-01      
O    -2.17552638e+00     -1.11235670e+00     2.62934622e+00      
H    -3.10855728e+00     -1.49916067e+00     2.58477893e+00      
O    -1.92777694e+00     1.80198904e+00      -3.98655848e-01     
H    -2.81850306e+00     1.63065302e+00      -4.48291827e-02     
H    -2.01025117e+00     2.54737647e+00      -9.95029518e-01     
O    1.89343317e-01      -2.51607291e+00     -1.09741349e+00     
H    -6.77078678e-01     -2.92908706e+00     -1.04880874e+00     
H    6.42281487e-01      -2.93701496e+00     -1.83274992e+00     
O    -4.35248494e+00     1.12250025e+00      6.86527919e-01      
H    -4.67389110e+00     1.32534045e+00      1.56766105e+00      
H    -4.75333043e+00     2.74473256e-01      4.41023696e-01      
O    -4.63335071e+00     -1.96676783e+00     2.52573336e+00      
H    -4.96737840e+00     -2.07083730e+00     1.64920867e+00      
H    -5.04539859e+00     -2.62894378e+00     3.06999850e+00      
O    -5.01964333e+00     -1.53655940e+00     -2.04303266e-01     
H    -5.64283329e+00     -1.80690012e+00     -8.81755280e-01     
H    -4.14544143e+00     -1.71593092e+00     -5.59916909e-01     
O    2.51811839e+00      1.26073678e+00      4.25184961e-01      
H    2.65794442e+00      2.20739911e+00      4.99981373e-01      
H    3.39327666e+00      8.83674202e-01      3.10189320e-01      
29
3701.585798
N    3.61913666e-02      -1.81836845e-03     5.67368703e-02      
H    7.09637805e-02      -8.57556743e-01     -5.36486671e-01     
H    9.57822111e-01      4.73091172e-01      6.18361252e-02      
H    -6.96222511e-01     6.53619499e-01      -3.04644268e-01     
C    -3.16439718e-01     -3.65173150e-01     1.44195990e+00      
H    4.19854626e-01      -1.05343951e+00     1.84652167e+00      
H    -3.41542705e-01     5.31541865e-01      2.05351651e+00      
C    -1.68160551e+00     -1.03036674e+00     1.41367180e+00      
O    -2.20248911e+00     -1.42804609e+00     3.86539130e-01      
O    -2.17549015e+00     -1.11234143e+00     2.62934191e+00      
H    -3.10926380e+00     -1.49950553e+00     2.58475022e+00      
O    -1.92779175e+00     1.80198925e+00      -3.98652642e-01     
H    -2.81826673e+00     1.63070789e+00      -4.49266704e-02     
H    -2.01025052e+00     2.54732337e+00      -9.94984364e-01     
O    1.89344327e-01      -2.51607236e+00     -1.09741382e+00     
H    -6.77094171e-01     -2.92909733e+00     -1.04880437e+00     
H    6.42282584e-01      -2.93701507e+00     -1.83274902e+00     
O    -4.35242081e+00     1.12261239e+00      6.86536303e-01      
H    -4.67402390e+00     1.32548320e+00      1.56813220e+00      
H    -4.75421579e+00     2.72570979e-01      4.40442582e-01      
O    -4.63370426e+00     -1.96702583e+00     2.52528462e+00      
H    -4.96361773e+00     -2.06994179e+00     1.65961710e+00      
H    -5.04336907e+00     -2.62560358e+00     3.06671503e+00      
O    -5.01963279e+00     -1.53658021e+00     -2.04347091e-01     
H    -5.64242598e+00     -1.80674287e+00     -8.81308998e-01     
H    -4.14602327e+00     -1.71580806e+00     -5.59672205e-01     
O    2.51811845e+00      1.26073681e+00      4.25184896e-01      
H    2.65794425e+00      2.20739861e+00      4.99981692e-01      
H    3.39327554e+00      8.83674233e-01      3.10189696e-01      
29
3701.585798
N    3.61957028e-02      -1.81549016e-03     5.67355724e-02      
H    7.09568266e-02      -8.57562917e-01     -5.36485664e-01     
H    9.57783441e-01      4.73069797e-01      6.18399237e-02      
H    -6.96226381e-01     6.53611213e-01      -3.04641686e-01     
C    -3.16441923e-01     -3.65173930e-01     1.44195934e+00      
H    4.19866723e-01      -1.05344965e+00     1.84652797e+00      
H    -3.41544105e-01     5.31551923e-01      2.05352426e+00      
C    -1.68160678e+00     -1.03036674e+00     1.41368263e+00      
O    -2.20249057e+00     -1.42804651e+00     3.86536076e-01      
O    -2.17545392e+00     -1.11232616e+00     2.62933760e+00      
H    -3.10997032e+00     -1.49985039e+00     2.58472152e+00      
O    -1.92780655e+00     1.80198945e+00      -3.98649437e-01     
H    -2.81803039e+00     1.63076275e+00      -4.50241582e-02     
H    -2.01024987e+00     2.54727027e+00      -9.94939210e-01     
O    1.89345336e-01      -2.51607181e+00     -1.09741415e+00     
H    -6.77109663e-01     -2.92910760e+00     -1.04880001e+00     
H    6.42283682e-01      -2.93701518e+00     -1.83274812e+00     
O    -4.35235667e+00     1.12272454e+00      6.86544688e-01      
H    -4.67415669e+00     1.32562596e+00      1.56860336e+00      
H    -4.75510115e+00     2.70668702e-01      4.39861468e-01      
O    -4.63405780e+00     -1.96728383e+00     2.52483587e+00      
H    -4.95985705e+00     -2.06904628e+00     1.67002554e+00      
H    -5.04133954e+00     -2.62226339e+00     3.06343155e+00      
O    -5.01962226e+00     -1.53660103e+00     -2.04390916e-01     
H    -5.64201867e+00     -1.80658563e+00     -8.80862715e-01     
H    -4.14660511e+00     -1.71568521e+00     -5.59427502e-01     
O    2.51811850e+00      1.26073683e+00      4.25184831e-01      
H    2.65794407e+00      2.20739811e+00      4.99982011e-01      
H    3.39327441e+00      8.83674264e-01      3.10190072e-01      
29
3701.585798
N    3.62043754e-02      -1.80973357e-03     5.67329768e-02      
H    7.09429187e-02      -8.57575266e-01     -5.36483650e-01     
H    9.57706100e-01      4.73027049e-01      6.18475207e-02      
H    -6.96234120e-01     6.53594642e-01      -3.04636522e-01     
C    -3.16446333e-01     -3.65175490e-01     1.44195822e+00      
H    4.19890918e-01      -1.05346991e+00     1.84654057e+00      
H    -3.41546905e-01     5.31572039e-01      2.05353976e+00      
C    -1.68160931e+00     -1.03036676e+00     1.41370429e+00      
O    -2.20249350e+00     -1.42804734e+00     3.86529969e-01      
O    -2.17538147e+00     -1.11229562e+00     2.62932898e+00      
H    -3.11138335e+00     -1.50054012e+00     2.58466411e+00      
O    -1.92783617e+00     1.80198987e+00      -3.98643026e-01     
H    -2.81755772e+00     1.63087247e+00      -4.52191337e-02     
H    -2.01024857e+00     2.54716408e+00      -9.94848901e-01     
O    1.89347354e-01      -2.51607071e+00     -1.09741480e+00     
H    -6.77140648e-01     -2.92912813e+00     -1.04879128e+00     
H    6.42285877e-01      -2.93701540e+00     -1.83274633e+00     
O    -4.35222840e+00     1.12294883e+00      6.86561457e-01      
H    -4.67442229e+00     1.32591146e+00      1.56954566e+00      
H    -4.75687188e+00     2.66864149e-01      4.38699240e-01      
O    -4.63476490e+00     -1.96779982e+00     2.52393837e+00      
H    -4.95233570e+00     -2.06725526e+00     1.69084241e+00      
H    -5.03728050e+00     -2.61558299e+00     3.05686459e+00      
O    -5.01960120e+00     -1.53664267e+00     -2.04478567e-01     
H    -5.64120404e+00     -1.80627115e+00     -8.79970150e-01     
H    -4.14776878e+00     -1.71543949e+00     -5.58938096e-01     
O    2.51811861e+00      1.26073687e+00      4.25184702e-01      
H    2.65794372e+00      2.20739712e+00      4.99982649e-01      
H    3.39327216e+00      8.83674325e-01      3.10190824e-01      
29
3701.585798
N    3.62130479e-02      -1.80397698e-03     5.67303811e-02      
H    7.09290108e-02      -8.57587614e-01     -5.36481637e-01     
H    9.57628760e-01      4.72984301e-01      6.18551176e-02      
H    -6.96241859e-01     6.53578071e-01      -3.04631358e-01     
C    -3.16450743e-01     -3.65177049e-01     1.44195710e+00      
H    4.19915113e-01      -1.05349018e+00     1.84655317e+00      
H    -3.41549704e-01     5.31592154e-01      2.05355526e+00      
C    -1.68161184e+00     -1.03036677e+00     1.41372596e+00      
O    -2.20249643e+00     -1.42804817e+00     3.86523863e-01      
O    -2.17530902e+00     -1.11226508e+00     2.62932036e+00      
H    -3.11279638e+00     -1.50122984e+00     2.58460670e+00      
O    -1.92786579e+00     1.80199029e+00      -3.98636615e-01     
H    -2.81708505e+00     1.63098219e+00      -4.54141092e-02     
H    -2.01024727e+00     2.54705788e+00      -9.94758593e-01     
O    1.89349372e-01      -2.51606961e+00     -1.09741545e+00     
H    -6.77171633e-01     -2.92914866e+00     -1.04878255e+00     
H    6.42288072e-01      -2.93701562e+00     -1.83274454e+00     
O    -4.35210013e+00     1.12317312e+00      6.86578226e-01      
H    -4.67468788e+00     1.32619696e+00      1.57048797e+00      
H    -4.75864260e+00     2.63059595e-01      4.37537012e-01      
O    -4.63547199e+00     -1.96831582e+00     2.52304088e+00      
H    -4.94481435e+00     -2.06546423e+00     1.71165928e+00      
H    -5.03322145e+00     -2.60890259e+00     3.05029764e+00      
O    -5.01958014e+00     -1.53668430e+00     -2.04566217e-01     
H    -5.64038942e+00     -1.80595667e+00     -8.79077585e-01     
H    -4.14893245e+00     -1.71519377e+00     -5.58448689e-01     
O    2.51811872e+00      1.26073692e+00      4.25184573e-01      
H    2.65794337e+00      2.20739612e+00      4.99983287e-01      
H    3.39326991e+00      8.83674386e-01      3.10191575e-01      
29
3701.585798
N    3.62217204e-02      -1.79822039e-03     5.67277854e-02      
H    7.09151029e-02      -8.57599963e-01     -5.36479623e-01     
H    9.57551419e-01      4.72941552e-01      6.18627146e-02      
H    -6.96249597e-01     6.53561499e-01      -3.04626194e-01     
C    -3.16455153e-01     -3.65178609e-01     1.44195598e+00      
H    4.19939308e-01      -1.05351045e+00     1.84656576e+00      
H    -3.41552504e-01     5.31612270e-01      2.05357076e+00      
C    -1.68161437e+00     -1.03036678e+00     1.41374762e+00      
O    -2.20249936e+00     -1.42804900e+00     3.86517756e-01      
O    -2.17523656e+00     -1.11223454e+00     2.62931175e+00      
H    -3.11420941e+00     -1.50191957e+00     2.58454929e+00      
O    -1.92789540e+00     1.80199070e+00      -3.98630203e-01     
H    -2.81661238e+00     1.63109192e+00      -4.56090847e-02     
H    -2.01024597e+00     2.54695169e+00      -9.94668284e-01     
O    1.89351391e-01      -2.51606851e+00     -1.09741611e+00     
H    -6.77202618e-01     -2.92916920e+00     -1.04877382e+00     
H    6.42290267e-01      -2.93701584e+00     -1.83274275e+00     
O    -4.35197186e+00     1.12339740e+00      6.86594995e-01      
H    -4.67495347e+00     1.32648246e+00      1.57143028e+00      
H    -4.76041333e+00     2.59255042e-01      4.36374784e-01      
O    -4.63617908e+00     -1.96883182e+00     2.52214338e+00      
H    -4.93729300e+00     -2.06367321e+00     1.73247615e+00      
H    -5.02916240e+00     -2.60222219e+00     3.04373068e+00      
O    -5.01955907e+00     -1.53672594e+00     -2.04653867e-01     
H    -5.63957480e+00     -1.80564218e+00     -8.78185021e-01     
H    -4.15009613e+00     -1.71494806e+00     -5.57959283e-01     
O    2.51811883e+00      1.26073696e+00      4.25184444e-01      
H    2.65794302e+00      2.20739512e+00      4.99983925e-01      
H    3.39326766e+00      8.83674448e-01      3.10192327e-01      
29
3701.585798
N    3.62303929e-02      -1.79246379e-03     5.67251897e-02      
H    7.09011950e-02      -8.57612312e-01     -5.36477610e-01     
H    9.57474079e-01      4.72898804e-01      6.18703116e-02      
H    -6.96257336e-01     6.53544928e-01      -3.04621030e-01     
C    -3.16459564e-01     -3.65180168e-01     1.44195486e+00      
H    4.19963504e-01      -1.05353072e+00     1.84657836e+00      
H    -3.41555304e-01     5.31632385e-01      2.05358626e+00      
C    -1.68161690e+00     -1.03036679e+00     1.41376928e+00      
O    -2.20250228e+00     -1.42804983e+00     3.86511649e-01      
O    -2.17516411e+00     -1.11220400e+00     2.62930313e+00      
H    -3.11562245e+00     -1.50260930e+00     2.58449188e+00      
O    -1.92792502e+00     1.80199112e+00      -3.98623792e-01     
H    -2.81613971e+00     1.63120164e+00      -4.58040602e-02     
H    -2.01024467e+00     2.54684549e+00      -9.94577976e-01     
O    1.89353409e-01      -2.51606741e+00     -1.09741676e+00     
H    -6.77233603e-01     -2.92918973e+00     -1.04876509e+00     
H    6.42292462e-01      -2.93701606e+00     -1.83274095e+00     
O    -4.35184359e+00     1.12362169e+00      6.86611764e-01      
H    -4.67521906e+00     1.32676797e+00      1.57237259e+00      
H    -4.76218406e+00     2.55450489e-01      4.35212557e-01      
O    -4.63688617e+00     -1.96934782e+00     2.52124589e+00      
H    -4.92977165e+00     -2.06188219e+00     1.75329302e+00      
H    -5.02510335e+00     -2.59554180e+00     3.03716373e+00      
O    -5.01953801e+00     -1.53676758e+00     -2.04741517e-01     
H    -5.63876018e+00     -1.80532770e+00     -8.77292456e-01     
H    -4.15125980e+00     -1.71470234e+00     -5.57469876e-01     
O    2.51811895e+00      1.26073701e+00      4.25184314e-01      
H    2.65794268e+00      2.20739412e+00      4.99984563e-01      
H    3.39326541e+00      8.83674509e-01      3.10193079e-01      
29
3701.585798
N    3.62477380e-02      -1.78095061e-03     5.67199984e-02      
H    7.08733792e-02      -8.57637009e-01     -5.36473582e-01     
H    9.57319398e-01      4.72813307e-01      6.18855056e-02      
H    -6.96272814e-01     6.53511785e-01      -3.04610702e-01     
C    -3.16468384e-01     -3.65183287e-01     1.44195262e+00      
H    4.20011894e-01      -1.05357125e+00     1.84660355e+00      
H    -3.41560903e-01     5.31672617e-01      2.05361726e+00      
C    -1.68162196e+00     -1.03036682e+00     1.41381261e+00      
O    -2.20250814e+00     -1.42805148e+00     3.86499435e-01      
O    -2.17501920e+00     -1.11214292e+00     2.62928589e+00      
H    -3.11844851e+00     -1.50398875e+00     2.58437706e+00      
O    -1.92798425e+00     1.80199196e+00      -3.98610970e-01     
H    -2.81519438e+00     1.63142109e+00      -4.61940112e-02     
H    -2.01024207e+00     2.54663311e+00      -9.94397359e-01     
O    1.89357446e-01      -2.51606521e+00     -1.09741807e+00     
H    -6.77295573e-01     -2.92923080e+00     -1.04874763e+00     
H    6.42296852e-01      -2.93701650e+00     -1.83273737e+00     
O    -4.35158705e+00     1.12407027e+00      6.86645302e-01      
H    -4.67575025e+00     1.32733897e+00      1.57425720e+00      
H    -4.76572551e+00     2.47841382e-01      4.32888101e-01      
O    -4.63830036e+00     -1.97037981e+00     2.51945090e+00      
H    -4.91472895e+00     -2.05830015e+00     1.79492676e+00      
H    -5.01698526e+00     -2.58218100e+00     3.02402981e+00      
O    -5.01949588e+00     -1.53685085e+00     -2.04916818e-01     
H    -5.63713093e+00     -1.80469873e+00     -8.75507326e-01     
H    -4.15358715e+00     -1.71421090e+00     -5.56491063e-01     
O    2.51811917e+00      1.26073710e+00      4.25184056e-01      
H    2.65794198e+00      2.20739212e+00      4.99985839e-01      
H    3.39326091e+00      8.83674632e-01      3.10194583e-01      
