29
3109.800416
N    4.15974242e-02      -9.31196708e-03     5.51765229e-02      
H    6.88273338e-02      -7.94075638e-01     -4.89503480e-01     
H    9.39141777e-01      4.63346352e-01      6.23249777e-02      
H    -7.47860420e-01     7.01580705e-01      -3.35339119e-01     
C    -3.12849942e-01     -3.63543579e-01     1.44736700e+00      
H    3.78085501e-01      -1.01375062e+00     1.82427443e+00      
H    -3.40299894e-01     4.72045324e-01      2.01476162e+00      
C    -1.68124528e+00     -1.03012996e+00     1.41333997e+00      
O    -2.20245411e+00     -1.42808627e+00     3.86750469e-01      
O    -2.16761584e+00     -1.10909958e+00     2.62954954e+00      
H    -3.23150186e+00     -1.55114132e+00     2.58345716e+00      
O    -1.92759672e+00     1.80200562e+00      -3.98656061e-01     
H    -2.82194466e+00     1.63112840e+00      -4.40493590e-02     
H    -2.01122959e+00     2.54835134e+00      -9.95213357e-01     
O    1.89184317e-01      -2.51608057e+00     -1.09743151e+00     
H    -6.75700267e-01     -2.92795148e+00     -1.04845281e+00     
H    6.42509868e-01      -2.93572482e+00     -1.83231155e+00     
O    -4.35260171e+00     1.12223951e+00      6.86510166e-01      
H    -4.67391089e+00     1.32497384e+00      1.56675384e+00      
H    -4.75169421e+00     2.78563885e-01      4.42526721e-01      
O    -4.63266984e+00     -1.96607774e+00     2.52681525e+00      
H    -4.97892470e+00     -2.07403749e+00     1.62275492e+00      
H    -5.05323452e+00     -2.63953494e+00     3.07931473e+00      
O    -5.01976626e+00     -1.53645543e+00     -2.04190559e-01     
H    -5.64392148e+00     -1.80733863e+00     -8.82958220e-01     
H    -4.14293369e+00     -1.71691831e+00     -5.61627632e-01     
O    2.51810496e+00      1.26077945e+00      4.25183205e-01      
H    2.65752935e+00      2.20704102e+00      4.99911382e-01      
H    3.39344748e+00      8.83310582e-01      3.10102423e-01      
29
3109.800416
N    4.02426576e-02      -7.44072614e-03     5.55675832e-02      
H    6.93666610e-02      -8.09941283e-01     -5.01250032e-01     
H    9.43840863e-01      4.65798588e-01      6.21999157e-02      
H    -7.34948041e-01     6.89596618e-01      -3.27667343e-01     
C    -3.13745732e-01     -3.63950387e-01     1.44601564e+00      
H    3.88518709e-01      -1.02366524e+00     1.82983152e+00      
H    -3.40609547e-01     4.86911916e-01      2.02444453e+00      
C    -1.68133439e+00     -1.03018915e+00     1.41341480e+00      
O    -2.20246176e+00     -1.42807592e+00     3.86699924e-01      
O    -2.16961159e+00     -1.10992149e+00     2.62950086e+00      
H    -3.20041245e+00     -1.53797372e+00     2.58380195e+00      
O    -1.92763437e+00     1.80200137e+00      -3.98657610e-01     
H    -2.82120243e+00     1.63098213e+00      -4.41955710e-02     
H    -2.01098531e+00     2.54813417e+00      -9.95189974e-01     
O    1.89223563e-01      -2.51607893e+00     -1.09742684e+00     
H    -6.76037123e-01     -2.92823024e+00     -1.04854397e+00     
H    6.42452224e-01      -2.93604730e+00     -1.83242159e+00     
O    -4.35260458e+00     1.12224862e+00      6.86510412e-01      
H    -4.67383955e+00     1.32499412e+00      1.56674507e+00      
H    -4.75166058e+00     2.78492366e-01      4.42441522e-01      
O    -4.63266329e+00     -1.96612127e+00     2.52676915e+00      
H    -4.97791847e+00     -2.07368519e+00     1.62416414e+00      
H    -5.05229030e+00     -2.63855725e+00     3.07862741e+00      
O    -5.01974079e+00     -1.53647102e+00     -2.04196823e-01     
H    -5.64385309e+00     -1.80730762e+00     -8.82880626e-01     
H    -4.14326971e+00     -1.71673289e+00     -5.61322303e-01     
O    2.51810829e+00      1.26076878e+00      4.25183677e-01      
H    2.65763320e+00      2.20713079e+00      4.99928721e-01      
H    3.39340533e+00      8.83401472e-01      3.10123959e-01      
29
3109.800416
N    3.95652743e-02      -6.50510568e-03     5.57631133e-02      
H    6.96363245e-02      -8.17874106e-01     -5.07123309e-01     
H    9.46190406e-01      4.67024705e-01      6.21373847e-02      
H    -7.28491851e-01     6.83604574e-01      -3.23831455e-01     
C    -3.14193628e-01     -3.64153791e-01     1.44533996e+00      
H    3.93735313e-01      -1.02862255e+00     1.83261006e+00      
H    -3.40764373e-01     4.94345212e-01      2.02928599e+00      
C    -1.68137894e+00     -1.03021874e+00     1.41345222e+00      
O    -2.20246559e+00     -1.42807074e+00     3.86674652e-01      
O    -2.17060946e+00     -1.11033245e+00     2.62947653e+00      
H    -3.18486775e+00     -1.53138993e+00     2.58397435e+00      
O    -1.92765320e+00     1.80199924e+00      -3.98658385e-01     
H    -2.82083131e+00     1.63090899e+00      -4.42686771e-02     
H    -2.01086317e+00     2.54802559e+00      -9.95178283e-01     
O    1.89243185e-01      -2.51607811e+00     -1.09742451e+00     
H    -6.76205552e-01     -2.92836962e+00     -1.04858956e+00     
H    6.42423402e-01      -2.93620854e+00     -1.83247661e+00     
O    -4.35260602e+00     1.12225318e+00      6.86510535e-01      
H    -4.67380387e+00     1.32500426e+00      1.56674068e+00      
H    -4.75164377e+00     2.78456607e-01      4.42398922e-01      
O    -4.63266001e+00     -1.96614303e+00     2.52674610e+00      
H    -4.97741535e+00     -2.07350905e+00     1.62486875e+00      
H    -5.05181819e+00     -2.63806840e+00     3.07828375e+00      
O    -5.01972806e+00     -1.53647881e+00     -2.04199955e-01     
H    -5.64381889e+00     -1.80729212e+00     -8.82841829e-01     
H    -4.14343772e+00     -1.71664018e+00     -5.61169638e-01     
O    2.51810995e+00      1.26076344e+00      4.25183912e-01      
H    2.65768513e+00      2.20717568e+00      4.99937390e-01      
H    3.39338426e+00      8.83446916e-01      3.10134727e-01      
29
3109.800416
N    3.88878910e-02      -5.56948521e-03     5.59586434e-02      
H    6.99059881e-02      -8.25806929e-01     -5.12996585e-01     
H    9.48539949e-01      4.68250823e-01      6.20748537e-02      
H    -7.22035662e-01     6.77612531e-01      -3.19995567e-01     
C    -3.14641523e-01     -3.64357195e-01     1.44466429e+00      
H    3.98951917e-01      -1.03357986e+00     1.83538861e+00      
H    -3.40919200e-01     5.01778508e-01      2.03412744e+00      
C    -1.68142350e+00     -1.03024834e+00     1.41348963e+00      
O    -2.20246942e+00     -1.42806556e+00     3.86649379e-01      
O    -2.17160734e+00     -1.11074341e+00     2.62945219e+00      
H    -3.16932305e+00     -1.52480613e+00     2.58414675e+00      
O    -1.92767202e+00     1.80199712e+00      -3.98659160e-01     
H    -2.82046019e+00     1.63083585e+00      -4.43417831e-02     
H    -2.01074103e+00     2.54791700e+00      -9.95166592e-01     
O    1.89262808e-01      -2.51607729e+00     -1.09742217e+00     
H    -6.76373980e-01     -2.92850900e+00     -1.04863514e+00     
H    6.42394580e-01      -2.93636978e+00     -1.83253163e+00     
O    -4.35260746e+00     1.12225773e+00      6.86510658e-01      
H    -4.67376820e+00     1.32501440e+00      1.56673629e+00      
H    -4.75162695e+00     2.78420847e-01      4.42356323e-01      
O    -4.63265673e+00     -1.96616479e+00     2.52672305e+00      
H    -4.97691223e+00     -2.07333290e+00     1.62557336e+00      
H    -5.05134608e+00     -2.63757956e+00     3.07794009e+00      
O    -5.01971532e+00     -1.53648660e+00     -2.04203087e-01     
H    -5.64378469e+00     -1.80727662e+00     -8.82803032e-01     
H    -4.14360573e+00     -1.71654747e+00     -5.61016974e-01     
O    2.51811162e+00      1.26075810e+00      4.25184148e-01      
H    2.65773706e+00      2.20722057e+00      4.99946059e-01      
H    3.39336319e+00      8.83492361e-01      3.10145495e-01      
29
3109.800416
N    3.82105077e-02      -4.63386474e-03     5.61541735e-02      
H    7.01756517e-02      -8.33739752e-01     -5.18869862e-01     
H    9.50889492e-01      4.69476941e-01      6.20123227e-02      
H    -7.15579472e-01     6.71620487e-01      -3.16159679e-01     
C    -3.15089418e-01     -3.64560599e-01     1.44398861e+00      
H    4.04168521e-01      -1.03853718e+00     1.83816715e+00      
H    -3.41074026e-01     5.09211804e-01      2.03896890e+00      
C    -1.68146805e+00     -1.03027793e+00     1.41352705e+00      
O    -2.20247324e+00     -1.42806038e+00     3.86624107e-01      
O    -2.17260521e+00     -1.11115437e+00     2.62942785e+00      
H    -3.15377835e+00     -1.51822233e+00     2.58431915e+00      
O    -1.92769085e+00     1.80199499e+00      -3.98659935e-01     
H    -2.82008908e+00     1.63076271e+00      -4.44148891e-02     
H    -2.01061889e+00     2.54780842e+00      -9.95154901e-01     
O    1.89282431e-01      -2.51607647e+00     -1.09741984e+00     
H    -6.76542408e-01     -2.92864838e+00     -1.04868072e+00     
H    6.42365758e-01      -2.93653102e+00     -1.83258665e+00     
O    -4.35260890e+00     1.12226229e+00      6.86510781e-01      
H    -4.67373253e+00     1.32502453e+00      1.56673190e+00      
H    -4.75161014e+00     2.78385088e-01      4.42313723e-01      
O    -4.63265345e+00     -1.96618655e+00     2.52670001e+00      
H    -4.97640911e+00     -2.07315676e+00     1.62627797e+00      
H    -5.05087397e+00     -2.63709071e+00     3.07759644e+00      
O    -5.01970259e+00     -1.53649439e+00     -2.04206219e-01     
H    -5.64375050e+00     -1.80726111e+00     -8.82764235e-01     
H    -4.14377373e+00     -1.71645477e+00     -5.60864309e-01     
O    2.51811328e+00      1.26075276e+00      4.25184383e-01      
H    2.65778899e+00      2.20726545e+00      4.99954728e-01      
H    3.39334212e+00      8.83537806e-01      3.10156264e-01      
29
3109.800416
N    3.75331244e-02      -3.69824427e-03     5.63497036e-02      
H    7.04453153e-02      -8.41672574e-01     -5.24743138e-01     
H    9.53239036e-01      4.70703059e-01      6.19497917e-02      
H    -7.09123282e-01     6.65628443e-01      -3.12323790e-01     
C    -3.15537313e-01     -3.64764003e-01     1.44331293e+00      
H    4.09385125e-01      -1.04349449e+00     1.84094569e+00      
H    -3.41228853e-01     5.16645100e-01      2.04381035e+00      
C    -1.68151261e+00     -1.03030753e+00     1.41356447e+00      
O    -2.20247707e+00     -1.42805521e+00     3.86598835e-01      
O    -2.17360308e+00     -1.11156532e+00     2.62940351e+00      
H    -3.13823365e+00     -1.51163853e+00     2.58449154e+00      
O    -1.92770967e+00     1.80199287e+00      -3.98660709e-01     
H    -2.81971796e+00     1.63068958e+00      -4.44879951e-02     
H    -2.01049675e+00     2.54769983e+00      -9.95143209e-01     
O    1.89302054e-01      -2.51607565e+00     -1.09741751e+00     
H    -6.76710836e-01     -2.92878777e+00     -1.04872630e+00     
H    6.42336936e-01      -2.93669226e+00     -1.83264167e+00     
O    -4.35261033e+00     1.12226685e+00      6.86510904e-01      
H    -4.67369686e+00     1.32503467e+00      1.56672752e+00      
H    -4.75159333e+00     2.78349328e-01      4.42271123e-01      
O    -4.63265018e+00     -1.96620831e+00     2.52667696e+00      
H    -4.97590599e+00     -2.07298061e+00     1.62698258e+00      
H    -5.05040186e+00     -2.63660187e+00     3.07725278e+00      
O    -5.01968986e+00     -1.53650218e+00     -2.04209352e-01     
H    -5.64371630e+00     -1.80724561e+00     -8.82725439e-01     
H    -4.14394174e+00     -1.71636206e+00     -5.60711644e-01     
O    2.51811495e+00      1.26074742e+00      4.25184619e-01      
H    2.65784091e+00      2.20731034e+00      4.99963397e-01      
H    3.39332105e+00      8.83583251e-01      3.10167032e-01      
29
3109.800416
N    3.71944327e-02      -3.23043404e-03     5.64474686e-02      
H    7.05801470e-02      -8.45638986e-01     -5.27679776e-01     
H    9.54413807e-01      4.71316117e-01      6.19185262e-02      
H    -7.05895188e-01     6.62632421e-01      -3.10405846e-01     
C    -3.15761260e-01     -3.64865705e-01     1.44297510e+00      
H    4.11993427e-01      -1.04597314e+00     1.84233496e+00      
H    -3.41306266e-01     5.20361748e-01      2.04623108e+00      
C    -1.68153489e+00     -1.03032233e+00     1.41358318e+00      
O    -2.20247898e+00     -1.42805262e+00     3.86586198e-01      
O    -2.17410202e+00     -1.11177080e+00     2.62939135e+00      
H    -3.13046130e+00     -1.50834664e+00     2.58457774e+00      
O    -1.92771908e+00     1.80199181e+00      -3.98661097e-01     
H    -2.81953240e+00     1.63065301e+00      -4.45245482e-02     
H    -2.01043568e+00     2.54764554e+00      -9.95137364e-01     
O    1.89311865e-01      -2.51607524e+00     -1.09741634e+00     
H    -6.76795051e-01     -2.92885746e+00     -1.04874910e+00     
H    6.42322525e-01      -2.93677288e+00     -1.83266918e+00     
O    -4.35261105e+00     1.12226913e+00      6.86510965e-01      
H    -4.67367902e+00     1.32503974e+00      1.56672532e+00      
H    -4.75158492e+00     2.78331448e-01      4.42249824e-01      
O    -4.63264854e+00     -1.96621919e+00     2.52666543e+00      
H    -4.97565443e+00     -2.07289254e+00     1.62733488e+00      
H    -5.05016580e+00     -2.63635745e+00     3.07708095e+00      
O    -5.01968349e+00     -1.53650607e+00     -2.04210918e-01     
H    -5.64369920e+00     -1.80723786e+00     -8.82706040e-01     
H    -4.14402575e+00     -1.71631570e+00     -5.60635312e-01     
O    2.51811578e+00      1.26074475e+00      4.25184737e-01      
H    2.65786688e+00      2.20733278e+00      4.99967731e-01      
H    3.39331052e+00      8.83605974e-01      3.10172416e-01      
29
3109.800416
N    3.68557411e-02      -2.76262381e-03     5.65452337e-02      
H    7.07149788e-02      -8.49605397e-01     -5.30616415e-01     
H    9.55588579e-01      4.71929176e-01      6.18872607e-02      
H    -7.02667093e-01     6.59636400e-01      -3.08487902e-01     
C    -3.15985208e-01     -3.64967407e-01     1.44263726e+00      
H    4.14601729e-01      -1.04845180e+00     1.84372424e+00      
H    -3.41383679e-01     5.24078396e-01      2.04865181e+00      
C    -1.68155716e+00     -1.03033712e+00     1.41360188e+00      
O    -2.20248089e+00     -1.42805003e+00     3.86573562e-01      
O    -2.17460096e+00     -1.11197628e+00     2.62937918e+00      
H    -3.12268895e+00     -1.50505474e+00     2.58466394e+00      
O    -1.92772850e+00     1.80199074e+00      -3.98661484e-01     
H    -2.81934685e+00     1.63061644e+00      -4.45611012e-02     
H    -2.01037461e+00     2.54759125e+00      -9.95131518e-01     
O    1.89321676e-01      -2.51607483e+00     -1.09741517e+00     
H    -6.76879265e-01     -2.92892715e+00     -1.04877189e+00     
H    6.42308114e-01      -2.93685350e+00     -1.83269669e+00     
O    -4.35261177e+00     1.12227140e+00      6.86511027e-01      
H    -4.67366118e+00     1.32504481e+00      1.56672313e+00      
H    -4.75157651e+00     2.78313569e-01      4.42228524e-01      
O    -4.63264690e+00     -1.96623007e+00     2.52665391e+00      
H    -4.97540287e+00     -2.07280447e+00     1.62768719e+00      
H    -5.04992975e+00     -2.63611302e+00     3.07690912e+00      
O    -5.01967712e+00     -1.53650997e+00     -2.04212484e-01     
H    -5.64368211e+00     -1.80723010e+00     -8.82686642e-01     
H    -4.14410975e+00     -1.71626935e+00     -5.60558980e-01     
O    2.51811661e+00      1.26074208e+00      4.25184854e-01      
H    2.65789284e+00      2.20735522e+00      4.99972066e-01      
H    3.39329998e+00      8.83628696e-01      3.10177800e-01      
29
3109.800416
N    3.55009745e-02      -8.91382873e-04     5.69362939e-02      
H    7.12543060e-02      -8.65471043e-01     -5.42362967e-01     
H    9.60287665e-01      4.74381412e-01      6.17621987e-02      
H    -6.89754713e-01     6.47652312e-01      -3.00816126e-01     
C    -3.16880998e-01     -3.65374215e-01     1.44128590e+00      
H    4.25034937e-01      -1.05836642e+00     1.84928132e+00      
H    -3.41693333e-01     5.38944988e-01      2.05833471e+00      
C    -1.68164628e+00     -1.03039632e+00     1.41367672e+00      
O    -2.20248855e+00     -1.42803967e+00     3.86523018e-01      
O    -2.17659670e+00     -1.11279820e+00     2.62933050e+00      
H    -3.09159955e+00     -1.49188714e+00     2.58500874e+00      
O    -1.92776614e+00     1.80198650e+00      -3.98663034e-01     
H    -2.81860461e+00     1.63047016e+00      -4.47073132e-02     
H    -2.01013033e+00     2.54737407e+00      -9.95108136e-01     
O    1.89360922e-01      -2.51607319e+00     -1.09741051e+00     
H    -6.77216121e-01     -2.92920591e+00     -1.04886305e+00     
H    6.42250470e-01      -2.93717598e+00     -1.83280673e+00     
O    -4.35261465e+00     1.12228052e+00      6.86511273e-01      
H    -4.67358984e+00     1.32506509e+00      1.56671435e+00      
H    -4.75154289e+00     2.78242049e-01      4.42143324e-01      
O    -4.63264034e+00     -1.96627359e+00     2.52660781e+00      
H    -4.97439663e+00     -2.07245217e+00     1.62909641e+00      
H    -5.04898553e+00     -2.63513534e+00     3.07622180e+00      
O    -5.01965166e+00     -1.53652555e+00     -2.04218748e-01     
H    -5.64361371e+00     -1.80719910e+00     -8.82609048e-01     
H    -4.14444577e+00     -1.71608393e+00     -5.60253650e-01     
O    2.51811995e+00      1.26073140e+00      4.25185326e-01      
H    2.65799670e+00      2.20744500e+00      4.99989404e-01      
H    3.39325784e+00      8.83719586e-01      3.10199336e-01      
29
3109.800416
N    3.51622829e-02      -4.23572639e-04     5.70340590e-02      
H    7.13891378e-02      -8.69437454e-01     -5.45299606e-01     
H    9.61462437e-01      4.74994471e-01      6.17309332e-02      
H    -6.86526618e-01     6.44656291e-01      -2.98898182e-01     
C    -3.17104946e-01     -3.65475917e-01     1.44094806e+00      
H    4.27643239e-01      -1.06084508e+00     1.85067060e+00      
H    -3.41770746e-01     5.42661636e-01      2.06075544e+00      
C    -1.68166855e+00     -1.03041111e+00     1.41369542e+00      
O    -2.20249046e+00     -1.42803708e+00     3.86510382e-01      
O    -2.17709564e+00     -1.11300368e+00     2.62931833e+00      
H    -3.08382720e+00     -1.48859524e+00     2.58509494e+00      
O    -1.92777556e+00     1.80198543e+00      -3.98663421e-01     
H    -2.81841906e+00     1.63043359e+00      -4.47438662e-02     
H    -2.01006926e+00     2.54731978e+00      -9.95102290e-01     
O    1.89370733e-01      -2.51607278e+00     -1.09740934e+00     
H    -6.77300335e-01     -2.92927560e+00     -1.04888584e+00     
H    6.42236059e-01      -2.93725660e+00     -1.83283424e+00     
O    -4.35261537e+00     1.12228279e+00      6.86511335e-01      
H    -4.67357200e+00     1.32507016e+00      1.56671216e+00      
H    -4.75153448e+00     2.78224170e-01      4.42122024e-01      
O    -4.63263870e+00     -1.96628447e+00     2.52659629e+00      
H    -4.97414507e+00     -2.07236410e+00     1.62944872e+00      
H    -5.04874948e+00     -2.63489091e+00     3.07604997e+00      
O    -5.01964529e+00     -1.53652945e+00     -2.04220314e-01     
H    -5.64359662e+00     -1.80719134e+00     -8.82589650e-01     
H    -4.14452977e+00     -1.71603758e+00     -5.60177318e-01     
O    2.51812078e+00      1.26072873e+00      4.25185443e-01      
H    2.65802266e+00      2.20746744e+00      4.99993739e-01      
H    3.39324730e+00      8.83742308e-01      3.10204720e-01      
29
3109.800416
N    3.48235912e-02      4.42375941e-05      5.71318240e-02      
H    7.15239695e-02      -8.73403866e-01     -5.48236244e-01     
H    9.62637208e-01      4.75607529e-01      6.16996677e-02      
H    -6.83298524e-01     6.41660269e-01      -2.96980238e-01     
C    -3.17328893e-01     -3.65577619e-01     1.44061023e+00      
H    4.30251541e-01      -1.06332373e+00     1.85205987e+00      
H    -3.41848159e-01     5.46378284e-01      2.06317617e+00      
C    -1.68169083e+00     -1.03042591e+00     1.41371413e+00      
O    -2.20249237e+00     -1.42803449e+00     3.86497745e-01      
O    -2.17759458e+00     -1.11320916e+00     2.62930617e+00      
H    -3.07605485e+00     -1.48530335e+00     2.58518114e+00      
O    -1.92778497e+00     1.80198437e+00      -3.98663809e-01     
H    -2.81823350e+00     1.63039702e+00      -4.47804193e-02     
H    -2.01000819e+00     2.54726549e+00      -9.95096445e-01     
O    1.89380544e-01      -2.51607237e+00     -1.09740817e+00     
H    -6.77384550e-01     -2.92934529e+00     -1.04890864e+00     
H    6.42221648e-01      -2.93733722e+00     -1.83286175e+00     
O    -4.35261609e+00     1.12228507e+00      6.86511396e-01      
H    -4.67355416e+00     1.32507523e+00      1.56670996e+00      
H    -4.75152607e+00     2.78206290e-01      4.42100725e-01      
O    -4.63263706e+00     -1.96629535e+00     2.52658476e+00      
H    -4.97389351e+00     -2.07227603e+00     1.62980102e+00      
H    -5.04851342e+00     -2.63464649e+00     3.07587814e+00      
O    -5.01963892e+00     -1.53653334e+00     -2.04221880e-01     
H    -5.64357952e+00     -1.80718359e+00     -8.82570251e-01     
H    -4.14461378e+00     -1.71599122e+00     -5.60100986e-01     
O    2.51812161e+00      1.26072606e+00      4.25185561e-01      
H    2.65804863e+00      2.20748988e+00      4.99998073e-01      
H    3.39323677e+00      8.83765031e-01      3.10210104e-01      
29
3109.800416
N    3.41462079e-02      9.79858061e-04      5.73273541e-02      
H    7.17936331e-02      -8.81336688e-01     -5.54109520e-01     
H    9.64986752e-01      4.76833647e-01      6.16371367e-02      
H    -6.76842334e-01     6.35668225e-01      -2.93144349e-01     
C    -3.17776788e-01     -3.65781023e-01     1.43993455e+00      
H    4.35468145e-01      -1.06828104e+00     1.85483841e+00      
H    -3.42002986e-01     5.53811580e-01      2.06801762e+00      
C    -1.68173539e+00     -1.03045551e+00     1.41375155e+00      
O    -2.20249620e+00     -1.42802932e+00     3.86472473e-01      
O    -2.17859245e+00     -1.11362011e+00     2.62928183e+00      
H    -3.06051015e+00     -1.47871955e+00     2.58535353e+00      
O    -1.92780379e+00     1.80198225e+00      -3.98664583e-01     
H    -2.81786238e+00     1.63032389e+00      -4.48535253e-02     
H    -2.00988605e+00     2.54715690e+00      -9.95084753e-01     
O    1.89400167e-01      -2.51607155e+00     -1.09740584e+00     
H    -6.77552978e-01     -2.92948468e+00     -1.04895422e+00     
H    6.42192826e-01      -2.93749846e+00     -1.83291677e+00     
O    -4.35261752e+00     1.12228963e+00      6.86511519e-01      
H    -4.67351849e+00     1.32508537e+00      1.56670558e+00      
H    -4.75150926e+00     2.78170530e-01      4.42058125e-01      
O    -4.63263379e+00     -1.96631711e+00     2.52656171e+00      
H    -4.97339039e+00     -2.07209988e+00     1.63050563e+00      
H    -5.04804131e+00     -2.63415765e+00     3.07553448e+00      
O    -5.01962619e+00     -1.53654113e+00     -2.04225013e-01     
H    -5.64354532e+00     -1.80716809e+00     -8.82531455e-01     
H    -4.14478179e+00     -1.71589851e+00     -5.59948321e-01     
O    2.51812328e+00      1.26072072e+00      4.25185797e-01      
H    2.65810055e+00      2.20753477e+00      5.00006742e-01      
H    3.39321570e+00      8.83810476e-01      3.10220872e-01      
29
3109.800416
N    3.34688246e-02      1.91547853e-03      5.75228842e-02      
H    7.20632967e-02      -8.89269511e-01     -5.59982797e-01     
H    9.67336295e-01      4.78059765e-01      6.15746057e-02      
H    -6.70386144e-01     6.29676181e-01      -2.89308461e-01     
C    -3.18224683e-01     -3.65984427e-01     1.43925887e+00      
H    4.40684749e-01      -1.07323836e+00     1.85761695e+00      
H    -3.42157812e-01     5.61244876e-01      2.07285908e+00      
C    -1.68177994e+00     -1.03048510e+00     1.41378897e+00      
O    -2.20250002e+00     -1.42802414e+00     3.86447201e-01      
O    -2.17959032e+00     -1.11403107e+00     2.62925749e+00      
H    -3.04496545e+00     -1.47213575e+00     2.58552593e+00      
O    -1.92782262e+00     1.80198012e+00      -3.98665358e-01     
H    -2.81749127e+00     1.63025075e+00      -4.49266313e-02     
H    -2.00976391e+00     2.54704832e+00      -9.95073062e-01     
O    1.89419790e-01      -2.51607073e+00     -1.09740351e+00     
H    -6.77721406e-01     -2.92962406e+00     -1.04899980e+00     
H    6.42164004e-01      -2.93765970e+00     -1.83297179e+00     
O    -4.35261896e+00     1.12229419e+00      6.86511642e-01      
H    -4.67348282e+00     1.32509550e+00      1.56670119e+00      
H    -4.75149245e+00     2.78134771e-01      4.42015525e-01      
O    -4.63263051e+00     -1.96633887e+00     2.52653867e+00      
H    -4.97288727e+00     -2.07192374e+00     1.63121024e+00      
H    -5.04756920e+00     -2.63366880e+00     3.07519083e+00      
O    -5.01961346e+00     -1.53654892e+00     -2.04228145e-01     
H    -5.64351113e+00     -1.80715258e+00     -8.82492658e-01     
H    -4.14494979e+00     -1.71580581e+00     -5.59795656e-01     
O    2.51812494e+00      1.26071538e+00      4.25186032e-01      
H    2.65815248e+00      2.20757965e+00      5.00015411e-01      
H    3.39319463e+00      8.83855921e-01      3.10231641e-01      
29
3109.800416
N    3.27914413e-02      2.85109900e-03      5.77184143e-02      
H    7.23329603e-02      -8.97202334e-01     -5.65856073e-01     
H    9.69685838e-01      4.79285883e-01      6.15120747e-02      
H    -6.63929955e-01     6.23684138e-01      -2.85472573e-01     
C    -3.18672578e-01     -3.66187831e-01     1.43858320e+00      
H    4.45901353e-01      -1.07819567e+00     1.86039550e+00      
H    -3.42312639e-01     5.68678172e-01      2.07770053e+00      
C    -1.68182450e+00     -1.03051470e+00     1.41382638e+00      
O    -2.20250385e+00     -1.42801896e+00     3.86421928e-01      
O    -2.18058820e+00     -1.11444203e+00     2.62923315e+00      
H    -3.02942075e+00     -1.46555195e+00     2.58569833e+00      
O    -1.92784144e+00     1.80197800e+00      -3.98666133e-01     
H    -2.81712015e+00     1.63017761e+00      -4.49997373e-02     
H    -2.00964177e+00     2.54693973e+00      -9.95061371e-01     
O    1.89439413e-01      -2.51606991e+00     -1.09740117e+00     
H    -6.77889834e-01     -2.92976344e+00     -1.04904538e+00     
H    6.42135182e-01      -2.93782094e+00     -1.83302681e+00     
O    -4.35262040e+00     1.12229874e+00      6.86511765e-01      
H    -4.67344715e+00     1.32510564e+00      1.56669680e+00      
H    -4.75147563e+00     2.78099011e-01      4.41972926e-01      
O    -4.63262723e+00     -1.96636063e+00     2.52651562e+00      
H    -4.97238415e+00     -2.07174759e+00     1.63191485e+00      
H    -5.04709709e+00     -2.63317996e+00     3.07484717e+00      
O    -5.01960072e+00     -1.53655671e+00     -2.04231277e-01     
H    -5.64347693e+00     -1.80713708e+00     -8.82453861e-01     
H    -4.14511780e+00     -1.71571310e+00     -5.59642992e-01     
O    2.51812661e+00      1.26071004e+00      4.25186268e-01      
H    2.65820441e+00      2.20762454e+00      5.00024080e-01      
H    3.39317356e+00      8.83901366e-01      3.10242409e-01      
29
3109.800416
N    3.21140580e-02      3.78671946e-03      5.79139444e-02      
H    7.26026238e-02      -9.05135157e-01     -5.71729350e-01     
H    9.72035381e-01      4.80512000e-01      6.14495437e-02      
H    -6.57473765e-01     6.17692094e-01      -2.81636685e-01     
C    -3.19120474e-01     -3.66391235e-01     1.43790752e+00      
H    4.51117957e-01      -1.08315298e+00     1.86317404e+00      
H    -3.42467465e-01     5.76111468e-01      2.08254199e+00      
C    -1.68186905e+00     -1.03054429e+00     1.41386380e+00      
O    -2.20250768e+00     -1.42801378e+00     3.86396656e-01      
O    -2.18158607e+00     -1.11485299e+00     2.62920882e+00      
H    -3.01387605e+00     -1.45896816e+00     2.58587073e+00      
O    -1.92786027e+00     1.80197587e+00      -3.98666908e-01     
H    -2.81674903e+00     1.63010447e+00      -4.50728434e-02     
H    -2.00951963e+00     2.54683115e+00      -9.95049680e-01     
O    1.89459035e-01      -2.51606909e+00     -1.09739884e+00     
H    -6.78058263e-01     -2.92990282e+00     -1.04909097e+00     
H    6.42106360e-01      -2.93798218e+00     -1.83308183e+00     
O    -4.35262184e+00     1.12230330e+00      6.86511888e-01      
H    -4.67341147e+00     1.32511578e+00      1.56669241e+00      
H    -4.75145882e+00     2.78063252e-01      4.41930326e-01      
O    -4.63262395e+00     -1.96638239e+00     2.52649257e+00      
H    -4.97188103e+00     -2.07157145e+00     1.63261946e+00      
H    -5.04662498e+00     -2.63269111e+00     3.07450351e+00      
O    -5.01958799e+00     -1.53656450e+00     -2.04234409e-01     
H    -5.64344273e+00     -1.80712158e+00     -8.82415064e-01     
H    -4.14528581e+00     -1.71562039e+00     -5.59490327e-01     
O    2.51812827e+00      1.26070470e+00      4.25186503e-01      
H    2.65825634e+00      2.20766943e+00      5.00032749e-01      
H    3.39315249e+00      8.83946810e-01      3.10253177e-01      
29
3109.800416
N    3.07592914e-02      5.65796040e-03      5.83050047e-02      
H    7.31419510e-02      -9.21000802e-01     -5.83475902e-01     
H    9.76734467e-01      4.82964236e-01      6.13244817e-02      
H    -6.44561386e-01     6.05708007e-01      -2.73964909e-01     
C    -3.20016264e-01     -3.66798043e-01     1.43655616e+00      
H    4.61551165e-01      -1.09306760e+00     1.86873113e+00      
H    -3.42777118e-01     5.90978060e-01      2.09222490e+00      
C    -1.68195816e+00     -1.03060348e+00     1.41393863e+00      
O    -2.20251533e+00     -1.42800343e+00     3.86346111e-01      
O    -2.18358182e+00     -1.11567490e+00     2.62916014e+00      
H    -2.98278664e+00     -1.44580056e+00     2.58621552e+00      
O    -1.92789792e+00     1.80197162e+00      -3.98668457e-01     
H    -2.81600680e+00     1.62995820e+00      -4.52190554e-02     
H    -2.00927535e+00     2.54661398e+00      -9.95026297e-01     
O    1.89498281e-01      -2.51606745e+00     -1.09739417e+00     
H    -6.78395119e-01     -2.93018158e+00     -1.04918213e+00     
H    6.42048716e-01      -2.93830466e+00     -1.83319187e+00     
O    -4.35262471e+00     1.12231241e+00      6.86512134e-01      
H    -4.67334013e+00     1.32513606e+00      1.56668364e+00      
H    -4.75142519e+00     2.77991733e-01      4.41845127e-01      
O    -4.63261740e+00     -1.96642592e+00     2.52644647e+00      
H    -4.97087480e+00     -2.07121915e+00     1.63402868e+00      
H    -5.04568076e+00     -2.63171342e+00     3.07381619e+00      
O    -5.01956252e+00     -1.53658009e+00     -2.04240673e-01     
H    -5.64337434e+00     -1.80709057e+00     -8.82337470e-01     
H    -4.14562183e+00     -1.71543497e+00     -5.59184998e-01     
O    2.51813160e+00      1.26069403e+00      4.25186975e-01      
H    2.65836019e+00      2.20775920e+00      5.00050088e-01      
H    3.39311034e+00      8.84037700e-01      3.10274713e-01      
