29
3807.507043
N    3.61567325e-02      -1.97120206e-03     5.66381261e-02      
H    7.10380048e-02      -8.54780739e-01     -5.33893736e-01     
H    9.58305992e-01      4.73171255e-01      6.17082107e-02      
H    -6.96284811e-01     6.53721579e-01      -3.04784507e-01     
C    -3.16451050e-01     -3.65134752e-01     1.44195618e+00      
H    4.20124938e-01      -1.05365436e+00     1.84671137e+00      
H    -3.41521750e-01     5.31327287e-01      2.05342251e+00      
C    -1.68163453e+00     -1.03035820e+00     1.41367258e+00      
O    -2.20247867e+00     -1.42803208e+00     3.86551830e-01      
O    -2.17558612e+00     -1.11238462e+00     2.62933825e+00      
H    -3.10722858e+00     -1.49852932e+00     2.58483165e+00      
O    -1.92775959e+00     1.80194576e+00      -3.98628051e-01     
H    -2.81868783e+00     1.63059475e+00      -4.47360310e-02     
H    -2.01031274e+00     2.54806738e+00      -9.95565714e-01     
O    1.91206101e-01      -2.50902553e+00     -1.09079027e+00     
H    -7.88020122e-01     -2.97721112e+00     -1.03613811e+00     
H    7.23592583e-01      -3.00178260e+00     -1.95166974e+00     
O    -4.35260915e+00     1.12227256e+00      6.86501995e-01      
H    -4.67367970e+00     1.32509538e+00      1.56685724e+00      
H    -4.75155521e+00     2.78285637e-01      4.42186631e-01      
O    -4.63264469e+00     -1.96624931e+00     2.52662140e+00      
H    -4.97484293e+00     -2.07262316e+00     1.62852216e+00      
H    -5.04948037e+00     -2.63566133e+00     3.07659022e+00      
O    -5.01967445e+00     -1.53643212e+00     -2.04025009e-01     
H    -5.64586224e+00     -1.80809989e+00     -8.84853518e-01     
H    -4.14189552e+00     -1.71669690e+00     -5.61239506e-01     
O    2.51759919e+00      1.26051268e+00      4.25207359e-01      
H    2.65856101e+00      2.21473365e+00      5.00629837e-01      
H    3.40091192e+00      8.79898638e-01      3.09160498e-01      
29
3807.507043
N    3.61621388e-02      -1.93515238e-03     5.66637855e-02      
H    7.10246642e-02      -8.55470109e-01     -5.34542724e-01     
H    9.58214025e-01      4.73167265e-01      6.17373404e-02      
H    -6.96266334e-01     6.53702273e-01      -3.04751384e-01     
C    -3.16446563e-01     -3.65143767e-01     1.44195753e+00      
H    4.20048286e-01      -1.05359305e+00     1.84665922e+00      
H    -3.41525939e-01     5.31373388e-01      2.05344020e+00      
C    -1.68162633e+00     -1.03036033e+00     1.41366426e+00      
O    -2.20248018e+00     -1.42803527e+00     3.86550945e-01      
O    -2.17558930e+00     -1.11238528e+00     2.62934240e+00      
H    -3.10720749e+00     -1.49851472e+00     2.58483282e+00      
O    -1.92775652e+00     1.80195648e+00      -3.98636603e-01     
H    -2.81875981e+00     1.63058189e+00      -4.47105750e-02     
H    -2.01029767e+00     2.54792120e+00      -9.95454242e-01     
O    1.90739900e-01      -2.51078765e+00     -1.09244591e+00     
H    -7.60277015e-01     -2.96517497e+00     -1.03930795e+00     
H    7.03264260e-01      -2.98559064e+00     -1.92194023e+00     
O    -4.35261016e+00     1.12227341e+00      6.86504284e-01      
H    -4.67366615e+00     1.32508527e+00      1.56682262e+00      
H    -4.75155634e+00     2.78283680e-01      4.42186454e-01      
O    -4.63264442e+00     -1.96624994e+00     2.52662377e+00      
H    -4.97485714e+00     -2.07262445e+00     1.62848957e+00      
H    -5.04947469e+00     -2.63565205e+00     3.07658403e+00      
O    -5.01967193e+00     -1.53645353e+00     -2.04072661e-01     
H    -5.64530866e+00     -1.80787857e+00     -8.84302100e-01     
H    -4.14249108e+00     -1.71656684e+00     -5.61031208e-01     
O    2.51772896e+00      1.26056870e+00      4.25201792e-01      
H    2.65840695e+00      2.21290026e+00      5.00467562e-01      
H    3.39900367e+00      8.80842513e-01      3.09417515e-01      
29
3807.507043
N    3.61648420e-02      -1.91712754e-03     5.66766152e-02      
H    7.10179939e-02      -8.55814794e-01     -5.34867219e-01     
H    9.58168041e-01      4.73165270e-01      6.17519053e-02      
H    -6.96257096e-01     6.53692620e-01      -3.04734822e-01     
C    -3.16444320e-01     -3.65148274e-01     1.44195820e+00      
H    4.20009961e-01      -1.05356239e+00     1.84663315e+00      
H    -3.41528034e-01     5.31396439e-01      2.05344904e+00      
C    -1.68162223e+00     -1.03036140e+00     1.41366010e+00      
O    -2.20248094e+00     -1.42803687e+00     3.86550503e-01      
O    -2.17559089e+00     -1.11238560e+00     2.62934447e+00      
H    -3.10719695e+00     -1.49850743e+00     2.58483341e+00      
O    -1.92775499e+00     1.80196183e+00      -3.98640879e-01     
H    -2.81879579e+00     1.63057546e+00      -4.46978471e-02     
H    -2.01029014e+00     2.54784811e+00      -9.95398507e-01     
O    1.90506800e-01      -2.51166871e+00     -1.09327373e+00     
H    -7.46405461e-01     -2.95915690e+00     -1.04089287e+00     
H    6.93100099e-01      -2.97749465e+00     -1.90707548e+00     
O    -4.35261067e+00     1.12227384e+00      6.86505428e-01      
H    -4.67365938e+00     1.32508022e+00      1.56680530e+00      
H    -4.75155690e+00     2.78282701e-01      4.42186366e-01      
O    -4.63264429e+00     -1.96625026e+00     2.52662495e+00      
H    -4.97486424e+00     -2.07262510e+00     1.62847328e+00      
H    -5.04947185e+00     -2.63564740e+00     3.07658094e+00      
O    -5.01967068e+00     -1.53646424e+00     -2.04096487e-01     
H    -5.64503187e+00     -1.80776791e+00     -8.84026391e-01     
H    -4.14278886e+00     -1.71650180e+00     -5.60927059e-01     
O    2.51779385e+00      1.26059670e+00      4.25199008e-01      
H    2.65832992e+00      2.21198357e+00      5.00386424e-01      
H    3.39804954e+00      8.81314451e-01      3.09546024e-01      
29
3807.507043
N    3.61675452e-02      -1.89910270e-03     5.66894450e-02      
H    7.10113236e-02      -8.56159480e-01     -5.35191713e-01     
H    9.58122057e-01      4.73163275e-01      6.17664702e-02      
H    -6.96247857e-01     6.53682967e-01      -3.04718261e-01     
C    -3.16442076e-01     -3.65152782e-01     1.44195888e+00      
H    4.19971635e-01      -1.05353174e+00     1.84660708e+00      
H    -3.41530128e-01     5.31419489e-01      2.05345788e+00      
C    -1.68161813e+00     -1.03036246e+00     1.41365594e+00      
O    -2.20248169e+00     -1.42803846e+00     3.86550060e-01      
O    -2.17559247e+00     -1.11238593e+00     2.62934655e+00      
H    -3.10718641e+00     -1.49850013e+00     2.58483399e+00      
O    -1.92775345e+00     1.80196719e+00      -3.98645155e-01     
H    -2.81883178e+00     1.63056903e+00      -4.46851191e-02     
H    -2.01028261e+00     2.54777502e+00      -9.95342771e-01     
O    1.90273700e-01      -2.51254977e+00     -1.09410155e+00     
H    -7.32533907e-01     -2.95313882e+00     -1.04247779e+00     
H    6.82935937e-01      -2.96939867e+00     -1.89221073e+00     
O    -4.35261118e+00     1.12227426e+00      6.86506573e-01      
H    -4.67365260e+00     1.32507517e+00      1.56678799e+00      
H    -4.75155746e+00     2.78281723e-01      4.42186277e-01      
O    -4.63264416e+00     -1.96625057e+00     2.52662613e+00      
H    -4.97487134e+00     -2.07262574e+00     1.62845698e+00      
H    -5.04946901e+00     -2.63564276e+00     3.07657784e+00      
O    -5.01966942e+00     -1.53647494e+00     -2.04120313e-01     
H    -5.64475507e+00     -1.80765725e+00     -8.83750681e-01     
H    -4.14308664e+00     -1.71643677e+00     -5.60822911e-01     
O    2.51785874e+00      1.26062471e+00      4.25196225e-01      
H    2.65825289e+00      2.21106688e+00      5.00305286e-01      
H    3.39709542e+00      8.81786389e-01      3.09674533e-01      
29
3807.507043
N    3.61702483e-02      -1.88107786e-03     5.67022747e-02      
H    7.10046533e-02      -8.56504165e-01     -5.35516208e-01     
H    9.58076073e-01      4.73161279e-01      6.17810351e-02      
H    -6.96238619e-01     6.53673315e-01      -3.04701699e-01     
C    -3.16439833e-01     -3.65157289e-01     1.44195955e+00      
H    4.19933310e-01      -1.05350108e+00     1.84658100e+00      
H    -3.41532223e-01     5.31442540e-01      2.05346673e+00      
C    -1.68161402e+00     -1.03036353e+00     1.41365178e+00      
O    -2.20248245e+00     -1.42804006e+00     3.86549618e-01      
O    -2.17559406e+00     -1.11238626e+00     2.62934862e+00      
H    -3.10717587e+00     -1.49849283e+00     2.58483458e+00      
O    -1.92775192e+00     1.80197255e+00      -3.98649431e-01     
H    -2.81886777e+00     1.63056259e+00      -4.46723911e-02     
H    -2.01027507e+00     2.54770193e+00      -9.95287035e-01     
O    1.90040600e-01      -2.51343083e+00     -1.09492937e+00     
H    -7.18662354e-01     -2.94712075e+00     -1.04406271e+00     
H    6.72771776e-01      -2.96130269e+00     -1.87734597e+00     
O    -4.35261169e+00     1.12227469e+00      6.86507717e-01      
H    -4.67364583e+00     1.32507011e+00      1.56677068e+00      
H    -4.75155802e+00     2.78280744e-01      4.42186189e-01      
O    -4.63264402e+00     -1.96625089e+00     2.52662731e+00      
H    -4.97487844e+00     -2.07262639e+00     1.62844069e+00      
H    -5.04946616e+00     -2.63563811e+00     3.07657475e+00      
O    -5.01966816e+00     -1.53648565e+00     -2.04144139e-01     
H    -5.64447828e+00     -1.80754658e+00     -8.83474972e-01     
H    -4.14338442e+00     -1.71637174e+00     -5.60718762e-01     
O    2.51792362e+00      1.26065272e+00      4.25193441e-01      
H    2.65817586e+00      2.21015019e+00      5.00224148e-01      
H    3.39614129e+00      8.82258327e-01      3.09803042e-01      
29
3807.507043
N    3.61729515e-02      -1.86305302e-03     5.67151044e-02      
H    7.09979830e-02      -8.56848850e-01     -5.35840702e-01     
H    9.58030090e-01      4.73159284e-01      6.17955999e-02      
H    -6.96229380e-01     6.53663662e-01      -3.04685137e-01     
C    -3.16437590e-01     -3.65161796e-01     1.44196023e+00      
H    4.19894984e-01      -1.05347042e+00     1.84655493e+00      
H    -3.41534317e-01     5.31465591e-01      2.05347557e+00      
C    -1.68160992e+00     -1.03036459e+00     1.41364762e+00      
O    -2.20248321e+00     -1.42804166e+00     3.86549175e-01      
O    -2.17559565e+00     -1.11238659e+00     2.62935069e+00      
H    -3.10716533e+00     -1.49848553e+00     2.58483517e+00      
O    -1.92775039e+00     1.80197791e+00      -3.98653707e-01     
H    -2.81890376e+00     1.63055616e+00      -4.46596631e-02     
H    -2.01026754e+00     2.54762884e+00      -9.95231299e-01     
O    1.89807499e-01      -2.51431189e+00     -1.09575720e+00     
H    -7.04790800e-01     -2.94110268e+00     -1.04564763e+00     
H    6.62607615e-01      -2.95320671e+00     -1.86248122e+00     
O    -4.35261219e+00     1.12227511e+00      6.86508861e-01      
H    -4.67363906e+00     1.32506506e+00      1.56675337e+00      
H    -4.75155858e+00     2.78279766e-01      4.42186101e-01      
O    -4.63264389e+00     -1.96625120e+00     2.52662850e+00      
H    -4.97488555e+00     -2.07262703e+00     1.62842439e+00      
H    -5.04946332e+00     -2.63563347e+00     3.07657165e+00      
O    -5.01966690e+00     -1.53649635e+00     -2.04167964e-01     
H    -5.64420149e+00     -1.80743592e+00     -8.83199263e-01     
H    -4.14368220e+00     -1.71630671e+00     -5.60614613e-01     
O    2.51798851e+00      1.26068073e+00      4.25190657e-01      
H    2.65809883e+00      2.20923349e+00      5.00143011e-01      
H    3.39518716e+00      8.82730265e-01      3.09931550e-01      
29
3807.507043
N    3.61743031e-02      -1.85404060e-03     5.67215192e-02      
H    7.09946478e-02      -8.57021192e-01     -5.36002949e-01     
H    9.58007098e-01      4.73158287e-01      6.18028824e-02      
H    -6.96224761e-01     6.53658835e-01      -3.04676856e-01     
C    -3.16436468e-01     -3.65164050e-01     1.44196057e+00      
H    4.19875821e-01      -1.05345509e+00     1.84654189e+00      
H    -3.41535364e-01     5.31477116e-01      2.05347999e+00      
C    -1.68160787e+00     -1.03036512e+00     1.41364554e+00      
O    -2.20248358e+00     -1.42804246e+00     3.86548954e-01      
O    -2.17559645e+00     -1.11238675e+00     2.62935173e+00      
H    -3.10716006e+00     -1.49848189e+00     2.58483546e+00      
O    -1.92774962e+00     1.80198058e+00      -3.98655845e-01     
H    -2.81892175e+00     1.63055295e+00      -4.46532992e-02     
H    -2.01026377e+00     2.54759229e+00      -9.95203431e-01     
O    1.89690949e-01      -2.51475242e+00     -1.09617111e+00     
H    -6.97855023e-01     -2.93809364e+00     -1.04644009e+00     
H    6.57525534e-01      -2.94915871e+00     -1.85504884e+00     
O    -4.35261245e+00     1.12227532e+00      6.86509433e-01      
H    -4.67363567e+00     1.32506253e+00      1.56674471e+00      
H    -4.75155886e+00     2.78279277e-01      4.42186056e-01      
O    -4.63264382e+00     -1.96625136e+00     2.52662909e+00      
H    -4.97488910e+00     -2.07262735e+00     1.62841624e+00      
H    -5.04946190e+00     -2.63563115e+00     3.07657010e+00      
O    -5.01966628e+00     -1.53650170e+00     -2.04179877e-01     
H    -5.64406310e+00     -1.80738059e+00     -8.83061409e-01     
H    -4.14383109e+00     -1.71627419e+00     -5.60562538e-01     
O    2.51802095e+00      1.26069473e+00      4.25189265e-01      
H    2.65806032e+00      2.20877515e+00      5.00102442e-01      
H    3.39471010e+00      8.82966234e-01      3.09995805e-01      
29
3807.507043
N    3.61756546e-02      -1.84502818e-03     5.67279341e-02      
H    7.09913127e-02      -8.57193535e-01     -5.36165197e-01     
H    9.57984106e-01      4.73157289e-01      6.18101648e-02      
H    -6.96220142e-01     6.53654009e-01      -3.04668576e-01     
C    -3.16435346e-01     -3.65166304e-01     1.44196090e+00      
H    4.19856659e-01      -1.05343977e+00     1.84652885e+00      
H    -3.41536412e-01     5.31488641e-01      2.05348442e+00      
C    -1.68160582e+00     -1.03036566e+00     1.41364346e+00      
O    -2.20248396e+00     -1.42804325e+00     3.86548733e-01      
O    -2.17559724e+00     -1.11238691e+00     2.62935277e+00      
H    -3.10715479e+00     -1.49847824e+00     2.58483575e+00      
O    -1.92774885e+00     1.80198326e+00      -3.98657983e-01     
H    -2.81893974e+00     1.63054973e+00      -4.46469352e-02     
H    -2.01026000e+00     2.54755575e+00      -9.95175563e-01     
O    1.89574399e-01      -2.51519295e+00     -1.09658502e+00     
H    -6.90919247e-01     -2.93508460e+00     -1.04723255e+00     
H    6.52443453e-01      -2.94511072e+00     -1.84761646e+00     
O    -4.35261270e+00     1.12227554e+00      6.86510006e-01      
H    -4.67363228e+00     1.32506000e+00      1.56673605e+00      
H    -4.75155914e+00     2.78278787e-01      4.42186012e-01      
O    -4.63264375e+00     -1.96625152e+00     2.52662968e+00      
H    -4.97489265e+00     -2.07262768e+00     1.62840810e+00      
H    -5.04946048e+00     -2.63562882e+00     3.07656856e+00      
O    -5.01966565e+00     -1.53650706e+00     -2.04191790e-01     
H    -5.64392470e+00     -1.80732526e+00     -8.82923554e-01     
H    -4.14397998e+00     -1.71624167e+00     -5.60510464e-01     
O    2.51805339e+00      1.26070873e+00      4.25187874e-01      
H    2.65802180e+00      2.20831680e+00      5.00061873e-01      
H    3.39423304e+00      8.83202203e-01      3.10060059e-01      
29
3807.507043
N    3.61810610e-02      -1.80897850e-03     5.67535935e-02      
H    7.09779721e-02      -8.57882905e-01     -5.36814185e-01     
H    9.57892138e-01      4.73153299e-01      6.18392946e-02      
H    -6.96201664e-01     6.53634703e-01      -3.04635452e-01     
C    -3.16430860e-01     -3.65175318e-01     1.44196226e+00      
H    4.19780007e-01      -1.05337845e+00     1.84647671e+00      
H    -3.41540600e-01     5.31534743e-01      2.05350210e+00      
C    -1.68159762e+00     -1.03036778e+00     1.41363514e+00      
O    -2.20248548e+00     -1.42804645e+00     3.86547847e-01      
O    -2.17560042e+00     -1.11238757e+00     2.62935691e+00      
H    -3.10713371e+00     -1.49846364e+00     2.58483693e+00      
O    -1.92774579e+00     1.80199398e+00      -3.98666535e-01     
H    -2.81901172e+00     1.63053687e+00      -4.46214792e-02     
H    -2.01024494e+00     2.54740957e+00      -9.95064091e-01     
O    1.89108199e-01      -2.51695507e+00     -1.09824066e+00     
H    -6.63176139e-01     -2.92304846e+00     -1.05040239e+00     
H    6.32115131e-01      -2.92891876e+00     -1.81788696e+00     
O    -4.35261372e+00     1.12227638e+00      6.86512294e-01      
H    -4.67361874e+00     1.32504990e+00      1.56670143e+00      
H    -4.75156026e+00     2.78276831e-01      4.42185836e-01      
O    -4.63264349e+00     -1.96625214e+00     2.52663204e+00      
H    -4.97490685e+00     -2.07262896e+00     1.62837550e+00      
H    -5.04945480e+00     -2.63561954e+00     3.07656236e+00      
O    -5.01966313e+00     -1.53652846e+00     -2.04239442e-01     
H    -5.64337112e+00     -1.80710394e+00     -8.82372136e-01     
H    -4.14457554e+00     -1.71611161e+00     -5.60302166e-01     
O    2.51818317e+00      1.26076475e+00      4.25182306e-01      
H    2.65786774e+00      2.20648342e+00      4.99899597e-01      
H    3.39232478e+00      8.84146079e-01      3.10317077e-01      
29
3807.507043
N    3.61824125e-02      -1.79996608e-03     5.67600084e-02      
H    7.09746370e-02      -8.58055248e-01     -5.36976433e-01     
H    9.57869146e-01      4.73152301e-01      6.18465770e-02      
H    -6.96197045e-01     6.53629877e-01      -3.04627172e-01     
C    -3.16429738e-01     -3.65177572e-01     1.44196259e+00      
H    4.19760845e-01      -1.05336313e+00     1.84646367e+00      
H    -3.41541648e-01     5.31546268e-01      2.05350653e+00      
C    -1.68159557e+00     -1.03036832e+00     1.41363306e+00      
O    -2.20248586e+00     -1.42804724e+00     3.86547626e-01      
O    -2.17560121e+00     -1.11238773e+00     2.62935795e+00      
H    -3.10712844e+00     -1.49845999e+00     2.58483722e+00      
O    -1.92774502e+00     1.80199666e+00      -3.98668673e-01     
H    -2.81902971e+00     1.63053365e+00      -4.46151152e-02     
H    -2.01024117e+00     2.54737303e+00      -9.95036223e-01     
O    1.88991649e-01      -2.51739560e+00     -1.09865457e+00     
H    -6.56240363e-01     -2.92003942e+00     -1.05119485e+00     
H    6.27033050e-01      -2.92487077e+00     -1.81045458e+00     
O    -4.35261397e+00     1.12227660e+00      6.86512867e-01      
H    -4.67361535e+00     1.32504737e+00      1.56669277e+00      
H    -4.75156054e+00     2.78276341e-01      4.42185792e-01      
O    -4.63264342e+00     -1.96625230e+00     2.52663263e+00      
H    -4.97491040e+00     -2.07262929e+00     1.62836736e+00      
H    -5.04945338e+00     -2.63561721e+00     3.07656082e+00      
O    -5.01966250e+00     -1.53653382e+00     -2.04251355e-01     
H    -5.64323272e+00     -1.80704861e+00     -8.82234281e-01     
H    -4.14472443e+00     -1.71607909e+00     -5.60250092e-01     
O    2.51821561e+00      1.26077875e+00      4.25180915e-01      
H    2.65782922e+00      2.20602507e+00      4.99859028e-01      
H    3.39184772e+00      8.84382048e-01      3.10381331e-01      
29
3807.507043
N    3.61837641e-02      -1.79095366e-03     5.67664232e-02      
H    7.09713018e-02      -8.58227590e-01     -5.37138680e-01     
H    9.57846154e-01      4.73151304e-01      6.18538595e-02      
H    -6.96192426e-01     6.53625050e-01      -3.04618891e-01     
C    -3.16428616e-01     -3.65179826e-01     1.44196293e+00      
H    4.19741682e-01      -1.05334780e+00     1.84645063e+00      
H    -3.41542695e-01     5.31557793e-01      2.05351095e+00      
C    -1.68159352e+00     -1.03036885e+00     1.41363098e+00      
O    -2.20248623e+00     -1.42804804e+00     3.86547405e-01      
O    -2.17560201e+00     -1.11238789e+00     2.62935899e+00      
H    -3.10712317e+00     -1.49845635e+00     2.58483751e+00      
O    -1.92774425e+00     1.80199933e+00      -3.98670811e-01     
H    -2.81904770e+00     1.63053044e+00      -4.46087513e-02     
H    -2.01023740e+00     2.54733648e+00      -9.95008355e-01     
O    1.88875099e-01      -2.51783613e+00     -1.09906848e+00     
H    -6.49304586e-01     -2.91703038e+00     -1.05198731e+00     
H    6.21950969e-01      -2.92082277e+00     -1.80302220e+00     
O    -4.35261423e+00     1.12227681e+00      6.86513439e-01      
H    -4.67361196e+00     1.32504484e+00      1.56668411e+00      
H    -4.75156082e+00     2.78275852e-01      4.42185747e-01      
O    -4.63264335e+00     -1.96625246e+00     2.52663322e+00      
H    -4.97491395e+00     -2.07262961e+00     1.62835921e+00      
H    -5.04945196e+00     -2.63561489e+00     3.07655927e+00      
O    -5.01966188e+00     -1.53653917e+00     -2.04263268e-01     
H    -5.64309433e+00     -1.80699328e+00     -8.82096427e-01     
H    -4.14487332e+00     -1.71604657e+00     -5.60198017e-01     
O    2.51824805e+00      1.26079275e+00      4.25179523e-01      
H    2.65779071e+00      2.20556673e+00      4.99818459e-01      
H    3.39137066e+00      8.84618017e-01      3.10445586e-01      
29
3807.507043
N    3.61864673e-02      -1.77292882e-03     5.67792529e-02      
H    7.09646315e-02      -8.58572275e-01     -5.37463174e-01     
H    9.57800171e-01      4.73149309e-01      6.18684243e-02      
H    -6.96183187e-01     6.53615397e-01      -3.04602329e-01     
C    -3.16426373e-01     -3.65184333e-01     1.44196361e+00      
H    4.19703356e-01      -1.05331714e+00     1.84642456e+00      
H    -3.41544789e-01     5.31580844e-01      2.05351979e+00      
C    -1.68158942e+00     -1.03036991e+00     1.41362682e+00      
O    -2.20248699e+00     -1.42804964e+00     3.86546962e-01      
O    -2.17560360e+00     -1.11238822e+00     2.62936106e+00      
H    -3.10711263e+00     -1.49844905e+00     2.58483810e+00      
O    -1.92774272e+00     1.80200469e+00      -3.98675087e-01     
H    -2.81908369e+00     1.63052401e+00      -4.45960233e-02     
H    -2.01022987e+00     2.54726339e+00      -9.94952619e-01     
O    1.88641998e-01      -2.51871719e+00     -1.09989631e+00     
H    -6.35433032e-01     -2.91101231e+00     -1.05357223e+00     
H    6.11786808e-01      -2.91272679e+00     -1.78815745e+00     
O    -4.35261473e+00     1.12227723e+00      6.86514583e-01      
H    -4.67360519e+00     1.32503979e+00      1.56666680e+00      
H    -4.75156138e+00     2.78274874e-01      4.42185659e-01      
O    -4.63264322e+00     -1.96625277e+00     2.52663441e+00      
H    -4.97492106e+00     -2.07263025e+00     1.62834291e+00      
H    -5.04944912e+00     -2.63561025e+00     3.07655617e+00      
O    -5.01966062e+00     -1.53654987e+00     -2.04287093e-01     
H    -5.64281754e+00     -1.80688262e+00     -8.81820718e-01     
H    -4.14517110e+00     -1.71598154e+00     -5.60093868e-01     
O    2.51831294e+00      1.26082076e+00      4.25176739e-01      
H    2.65771368e+00      2.20465003e+00      4.99737322e-01      
H    3.39041653e+00      8.85089955e-01      3.10574094e-01      
29
3807.507043
N    3.61891704e-02      -1.75490398e-03     5.67920826e-02      
H    7.09579612e-02      -8.58916960e-01     -5.37787669e-01     
H    9.57754187e-01      4.73147313e-01      6.18829892e-02      
H    -6.96173949e-01     6.53605745e-01      -3.04585767e-01     
C    -3.16424130e-01     -3.65188840e-01     1.44196428e+00      
H    4.19665031e-01      -1.05328648e+00     1.84639848e+00      
H    -3.41546884e-01     5.31603895e-01      2.05352864e+00      
C    -1.68158531e+00     -1.03037098e+00     1.41362266e+00      
O    -2.20248775e+00     -1.42805124e+00     3.86546520e-01      
O    -2.17560519e+00     -1.11238855e+00     2.62936313e+00      
H    -3.10710209e+00     -1.49844175e+00     2.58483869e+00      
O    -1.92774119e+00     1.80201005e+00      -3.98679363e-01     
H    -2.81911968e+00     1.63051757e+00      -4.45832953e-02     
H    -2.01022233e+00     2.54719030e+00      -9.94896883e-01     
O    1.88408898e-01      -2.51959825e+00     -1.10072413e+00     
H    -6.21561479e-01     -2.90499424e+00     -1.05515715e+00     
H    6.01622647e-01      -2.90463081e+00     -1.77329269e+00     
O    -4.35261524e+00     1.12227766e+00      6.86515727e-01      
H    -4.67359842e+00     1.32503473e+00      1.56664949e+00      
H    -4.75156194e+00     2.78273895e-01      4.42185571e-01      
O    -4.63264308e+00     -1.96625309e+00     2.52663559e+00      
H    -4.97492816e+00     -2.07263090e+00     1.62832662e+00      
H    -5.04944627e+00     -2.63560560e+00     3.07655308e+00      
O    -5.01965936e+00     -1.53656058e+00     -2.04310919e-01     
H    -5.64254075e+00     -1.80677195e+00     -8.81545009e-01     
H    -4.14546888e+00     -1.71591651e+00     -5.59989719e-01     
O    2.51837782e+00      1.26084877e+00      4.25173955e-01      
H    2.65763665e+00      2.20373334e+00      4.99656184e-01      
H    3.38946240e+00      8.85561893e-01      3.10702603e-01      
29
3807.507043
N    3.61918736e-02      -1.73687914e-03     5.68049124e-02      
H    7.09512909e-02      -8.59261646e-01     -5.38112163e-01     
H    9.57708203e-01      4.73145318e-01      6.18975541e-02      
H    -6.96164710e-01     6.53596092e-01      -3.04569206e-01     
C    -3.16421886e-01     -3.65193348e-01     1.44196496e+00      
H    4.19626705e-01      -1.05325583e+00     1.84637241e+00      
H    -3.41548978e-01     5.31626945e-01      2.05353748e+00      
C    -1.68158121e+00     -1.03037204e+00     1.41361850e+00      
O    -2.20248850e+00     -1.42805283e+00     3.86546077e-01      
O    -2.17560677e+00     -1.11238888e+00     2.62936521e+00      
H    -3.10709155e+00     -1.49843445e+00     2.58483927e+00      
O    -1.92773965e+00     1.80201541e+00      -3.98683639e-01     
H    -2.81915567e+00     1.63051114e+00      -4.45705673e-02     
H    -2.01021480e+00     2.54711721e+00      -9.94841147e-01     
O    1.88175798e-01      -2.52047931e+00     -1.10155195e+00     
H    -6.07689925e-01     -2.89897616e+00     -1.05674207e+00     
H    5.91458485e-01      -2.89653483e+00     -1.75842794e+00     
O    -4.35261575e+00     1.12227808e+00      6.86516872e-01      
H    -4.67359164e+00     1.32502968e+00      1.56663218e+00      
H    -4.75156250e+00     2.78272917e-01      4.42185482e-01      
O    -4.63264295e+00     -1.96625340e+00     2.52663677e+00      
H    -4.97493526e+00     -2.07263154e+00     1.62831032e+00      
H    -5.04944343e+00     -2.63560096e+00     3.07654998e+00      
O    -5.01965810e+00     -1.53657128e+00     -2.04334745e-01     
H    -5.64226395e+00     -1.80666129e+00     -8.81269299e-01     
H    -4.14576666e+00     -1.71585148e+00     -5.59885571e-01     
O    2.51844271e+00      1.26087678e+00      4.25171172e-01      
H    2.65755962e+00      2.20281665e+00      4.99575046e-01      
H    3.38850828e+00      8.86033831e-01      3.10831112e-01      
29
3807.507043
N    3.61945768e-02      -1.71885430e-03     5.68177421e-02      
H    7.09446206e-02      -8.59606331e-01     -5.38436658e-01     
H    9.57662219e-01      4.73143323e-01      6.19121190e-02      
H    -6.96155472e-01     6.53586439e-01      -3.04552644e-01     
C    -3.16419643e-01     -3.65197855e-01     1.44196563e+00      
H    4.19588380e-01      -1.05322517e+00     1.84634634e+00      
H    -3.41551073e-01     5.31649996e-01      2.05354632e+00      
C    -1.68157711e+00     -1.03037311e+00     1.41361434e+00      
O    -2.20248926e+00     -1.42805443e+00     3.86545635e-01      
O    -2.17560836e+00     -1.11238920e+00     2.62936728e+00      
H    -3.10708101e+00     -1.49842716e+00     2.58483986e+00      
O    -1.92773812e+00     1.80202076e+00      -3.98687915e-01     
H    -2.81919165e+00     1.63050471e+00      -4.45578394e-02     
H    -2.01020727e+00     2.54704412e+00      -9.94785412e-01     
O    1.87942698e-01      -2.52136037e+00     -1.10237977e+00     
H    -5.93818371e-01     -2.89295809e+00     -1.05832699e+00     
H    5.81294324e-01      -2.88843884e+00     -1.74356319e+00     
O    -4.35261626e+00     1.12227851e+00      6.86518016e-01      
H    -4.67358487e+00     1.32502463e+00      1.56661486e+00      
H    -4.75156306e+00     2.78271938e-01      4.42185394e-01      
O    -4.63264282e+00     -1.96625372e+00     2.52663795e+00      
H    -4.97494236e+00     -2.07263219e+00     1.62829403e+00      
H    -5.04944059e+00     -2.63559631e+00     3.07654689e+00      
O    -5.01965685e+00     -1.53658199e+00     -2.04358571e-01     
H    -5.64198716e+00     -1.80655063e+00     -8.80993590e-01     
H    -4.14606444e+00     -1.71578644e+00     -5.59781422e-01     
O    2.51850760e+00      1.26090478e+00      4.25168388e-01      
H    2.65748259e+00      2.20189996e+00      4.99493908e-01      
H    3.38755415e+00      8.86505769e-01      3.10959621e-01      
29
3807.507043
N    3.61999831e-02      -1.68280462e-03     5.68434015e-02      
H    7.09312800e-02      -8.60295701e-01     -5.39085646e-01     
H    9.57570252e-01      4.73139333e-01      6.19412487e-02      
H    -6.96136995e-01     6.53567133e-01      -3.04519521e-01     
C    -3.16415156e-01     -3.65206870e-01     1.44196698e+00      
H    4.19511728e-01      -1.05316386e+00     1.84629419e+00      
H    -3.41555262e-01     5.31696097e-01      2.05356401e+00      
C    -1.68156891e+00     -1.03037524e+00     1.41360602e+00      
O    -2.20249077e+00     -1.42805762e+00     3.86544750e-01      
O    -2.17561154e+00     -1.11238986e+00     2.62937143e+00      
H    -3.10705992e+00     -1.49841256e+00     2.58484103e+00      
O    -1.92773505e+00     1.80203148e+00      -3.98696467e-01     
H    -2.81926363e+00     1.63049185e+00      -4.45323834e-02     
H    -2.01019220e+00     2.54689794e+00      -9.94673940e-01     
O    1.87476497e-01      -2.52312249e+00     -1.10403541e+00     
H    -5.66075264e-01     -2.88092194e+00     -1.06149683e+00     
H    5.60966001e-01      -2.87224688e+00     -1.71383368e+00     
O    -4.35261727e+00     1.12227936e+00      6.86520305e-01      
H    -4.67357132e+00     1.32501452e+00      1.56658024e+00      
H    -4.75156419e+00     2.78269981e-01      4.42185217e-01      
O    -4.63264255e+00     -1.96625435e+00     2.52664032e+00      
H    -4.97495657e+00     -2.07263348e+00     1.62826144e+00      
H    -5.04943491e+00     -2.63558703e+00     3.07654070e+00      
O    -5.01965433e+00     -1.53660340e+00     -2.04406223e-01     
H    -5.64143358e+00     -1.80632931e+00     -8.80442172e-01     
H    -4.14666000e+00     -1.71565638e+00     -5.59573124e-01     
O    2.51863737e+00      1.26096080e+00      4.25162821e-01      
H    2.65732853e+00      2.20006657e+00      4.99331633e-01      
H    3.38564590e+00      8.87449644e-01      3.11216638e-01      
