29
3792.353552
N    3.62314149e-02      -1.80617148e-03     5.67690655e-02      
H    7.09079127e-02      -8.57570315e-01     -5.36561248e-01     
H    9.57539813e-01      4.72928641e-01      6.17821257e-02      
H    -6.96440870e-01     6.53708603e-01      -3.04819388e-01     
C    -3.16412475e-01     -3.65157379e-01     1.44197240e+00      
H    4.19697410e-01      -1.05335025e+00     1.84645807e+00      
H    -3.41578348e-01     5.31337245e-01      2.05338983e+00      
C    -1.68163968e+00     -1.03037043e+00     1.41370318e+00      
O    -2.20249843e+00     -1.42805866e+00     3.86507641e-01      
O    -2.17554450e+00     -1.11237489e+00     2.62933491e+00      
H    -3.10744146e+00     -1.49830995e+00     2.58473762e+00      
O    -1.92791740e+00     1.80190897e+00      -3.98554740e-01     
H    -2.81616094e+00     1.63113170e+00      -4.58980861e-02     
H    -2.01036070e+00     2.54808329e+00      -9.95597704e-01     
O    1.89436003e-01      -2.51592538e+00     -1.09731166e+00     
H    -6.79870945e-01     -2.93047237e+00     -1.04853522e+00     
H    6.43614991e-01      -2.93804636e+00     -1.83466112e+00     
O    -4.35107829e+00     1.12445945e+00      6.86164978e-01      
H    -4.67963426e+00     1.33099933e+00      1.58574158e+00      
H    -4.76993110e+00     2.37319702e-01      4.28432922e-01      
O    -4.63169710e+00     -1.96509649e+00     2.52637444e+00      
H    -4.97877676e+00     -2.07282988e+00     1.61533617e+00      
H    -5.06077094e+00     -2.65390078e+00     3.09308878e+00      
O    -5.01756021e+00     -1.54017710e+00     -2.12592847e-01     
H    -5.55088271e+00     -1.77170512e+00     -7.92544292e-01     
H    -4.27025961e+00     -1.69317262e+00     -5.16463571e-01     
O    2.51813664e+00      1.26075083e+00      4.25184415e-01      
H    2.65790625e+00      2.20701930e+00      4.99948427e-01      
H    3.39300074e+00      8.83817513e-01      3.10227724e-01      
29
3792.353552
N    3.62181506e-02      -1.81137944e-03     5.67619901e-02      
H    7.09270951e-02      -8.57562291e-01     -5.36543359e-01     
H    9.57639390e-01      4.72985305e-01      6.17927767e-02      
H    -6.96383378e-01     6.53692541e-01      -3.04777545e-01     
C    -3.16417632e-01     -3.65160737e-01     1.44196970e+00      
H    4.19727641e-01      -1.05336496e+00     1.84646925e+00      
H    -3.41568388e-01     5.31380857e-01      2.05341569e+00      
C    -1.68163019e+00     -1.03036950e+00     1.41368721e+00      
O    -2.20249500e+00     -1.42805521e+00     3.86517803e-01      
O    -2.17555808e+00     -1.11237798e+00     2.62933990e+00      
H    -3.10736716e+00     -1.49835020e+00     2.58476230e+00      
O    -1.92787488e+00     1.80192888e+00      -3.98581620e-01     
H    -2.81686464e+00     1.63098460e+00      -4.55821164e-02     
H    -2.01033364e+00     2.54793313e+00      -9.95478234e-01     
O    1.89412327e-01      -2.51596254e+00     -1.09733695e+00     
H    -6.79165132e-01     -2.93012091e+00     -1.04860579e+00     
H    6.43281066e-01      -2.93778846e+00     -1.83418377e+00     
O    -4.35146202e+00     1.12391358e+00      6.86251521e-01      
H    -4.67813207e+00     1.32951324e+00      1.58098587e+00      
H    -4.76533825e+00     2.47559229e-01      4.31871173e-01      
O    -4.63193373e+00     -1.96538533e+00     2.52643855e+00      
H    -4.97780750e+00     -2.07277949e+00     1.61860008e+00      
H    -5.05794261e+00     -2.64933163e+00     3.08895795e+00      
O    -5.01808625e+00     -1.53926226e+00     -2.10498539e-01     
H    -5.57407401e+00     -1.78058249e+00     -8.15070180e-01     
H    -4.23876415e+00     -1.69892363e+00     -5.27449257e-01     
O    2.51813205e+00      1.26074730e+00      4.25184584e-01      
H    2.65791588e+00      2.20711450e+00      4.99956504e-01      
H    3.39307028e+00      8.83781670e-01      3.10217935e-01      
29
3792.353552
N    3.62115185e-02      -1.81398343e-03     5.67584524e-02      
H    7.09366863e-02      -8.57558279e-01     -5.36534414e-01     
H    9.57689179e-01      4.73013636e-01      6.17981022e-02      
H    -6.96354633e-01     6.53684510e-01      -3.04756623e-01     
C    -3.16420210e-01     -3.65162416e-01     1.44196835e+00      
H    4.19742756e-01      -1.05337232e+00     1.84647484e+00      
H    -3.41563407e-01     5.31402663e-01      2.05342862e+00      
C    -1.68162545e+00     -1.03036904e+00     1.41367923e+00      
O    -2.20249329e+00     -1.42805348e+00     3.86522884e-01      
O    -2.17556487e+00     -1.11237952e+00     2.62934239e+00      
H    -3.10733001e+00     -1.49837032e+00     2.58477464e+00      
O    -1.92785362e+00     1.80193884e+00      -3.98595060e-01     
H    -2.81721649e+00     1.63091105e+00      -4.54241315e-02     
H    -2.01032011e+00     2.54785805e+00      -9.95418500e-01     
O    1.89400489e-01      -2.51598112e+00     -1.09734960e+00     
H    -6.78812226e-01     -2.92994518e+00     -1.04864107e+00     
H    6.43114104e-01      -2.93765950e+00     -1.83394509e+00     
O    -4.35165389e+00     1.12364064e+00      6.86294792e-01      
H    -4.67738098e+00     1.32877019e+00      1.57860802e+00      
H    -4.76304183e+00     2.52678992e-01      4.33590298e-01      
O    -4.63205204e+00     -1.96552974e+00     2.52647060e+00      
H    -4.97732288e+00     -2.07275430e+00     1.62023203e+00      
H    -5.05652845e+00     -2.64704706e+00     3.08689254e+00      
O    -5.01834928e+00     -1.53880485e+00     -2.09451385e-01     
H    -5.58566966e+00     -1.78502117e+00     -8.26333124e-01     
H    -4.22301642e+00     -1.70179913e+00     -5.32942100e-01     
O    2.51812975e+00      1.26074554e+00      4.25184668e-01      
H    2.65792070e+00      2.20716210e+00      4.99960543e-01      
H    3.39310505e+00      8.83763748e-01      3.10213041e-01      
29
3792.353552
N    3.62048864e-02      -1.81658741e-03     5.67549147e-02      
H    7.09462775e-02      -8.57554267e-01     -5.36525469e-01     
H    9.57738968e-01      4.73041968e-01      6.18034277e-02      
H    -6.96325887e-01     6.53676479e-01      -3.04735701e-01     
C    -3.16422789e-01     -3.65164095e-01     1.44196699e+00      
H    4.19757872e-01      -1.05337968e+00     1.84648043e+00      
H    -3.41558427e-01     5.31424469e-01      2.05344154e+00      
C    -1.68162070e+00     -1.03036858e+00     1.41367124e+00      
O    -2.20249157e+00     -1.42805176e+00     3.86527965e-01      
O    -2.17557166e+00     -1.11238107e+00     2.62934488e+00      
H    -3.10729285e+00     -1.49839044e+00     2.58478698e+00      
O    -1.92783236e+00     1.80194879e+00      -3.98608500e-01     
H    -2.81756834e+00     1.63083750e+00      -4.52661467e-02     
H    -2.01030658e+00     2.54778297e+00      -9.95358765e-01     
O    1.89388651e-01      -2.51599969e+00     -1.09736225e+00     
H    -6.78459319e-01     -2.92976945e+00     -1.04867635e+00     
H    6.42947141e-01      -2.93753055e+00     -1.83370641e+00     
O    -4.35184575e+00     1.12336770e+00      6.86338064e-01      
H    -4.67662989e+00     1.32802714e+00      1.57623016e+00      
H    -4.76074540e+00     2.57798756e-01      4.35309423e-01      
O    -4.63217036e+00     -1.96567416e+00     2.52650265e+00      
H    -4.97683825e+00     -2.07272910e+00     1.62186398e+00      
H    -5.05511429e+00     -2.64476248e+00     3.08482712e+00      
O    -5.01861230e+00     -1.53834743e+00     -2.08404231e-01     
H    -5.59726531e+00     -1.78945986e+00     -8.37596068e-01     
H    -4.20726868e+00     -1.70467463e+00     -5.38434943e-01     
O    2.51812746e+00      1.26074378e+00      4.25184752e-01      
H    2.65792551e+00      2.20720971e+00      4.99964581e-01      
H    3.39313983e+00      8.83745827e-01      3.10208146e-01      
29
3792.353552
N    3.61982542e-02      -1.81919139e-03     5.67513770e-02      
H    7.09558687e-02      -8.57550256e-01     -5.36516525e-01     
H    9.57788756e-01      4.73070299e-01      6.18087532e-02      
H    -6.96297141e-01     6.53668449e-01      -3.04714779e-01     
C    -3.16425367e-01     -3.65165774e-01     1.44196564e+00      
H    4.19772987e-01      -1.05338704e+00     1.84648602e+00      
H    -3.41553447e-01     5.31446274e-01      2.05345447e+00      
C    -1.68161596e+00     -1.03036811e+00     1.41366326e+00      
O    -2.20248986e+00     -1.42805003e+00     3.86533046e-01      
O    -2.17557846e+00     -1.11238261e+00     2.62934737e+00      
H    -3.10725570e+00     -1.49841057e+00     2.58479932e+00      
O    -1.92781110e+00     1.80195875e+00      -3.98621940e-01     
H    -2.81792019e+00     1.63076395e+00      -4.51081618e-02     
H    -2.01029306e+00     2.54770790e+00      -9.95299031e-01     
O    1.89376813e-01      -2.51601827e+00     -1.09737490e+00     
H    -6.78106413e-01     -2.92959372e+00     -1.04871163e+00     
H    6.42780179e-01      -2.93740160e+00     -1.83346774e+00     
O    -4.35203762e+00     1.12309477e+00      6.86381335e-01      
H    -4.67587879e+00     1.32728409e+00      1.57385231e+00      
H    -4.75844898e+00     2.62918519e-01      4.37028548e-01      
O    -4.63228867e+00     -1.96581858e+00     2.52653470e+00      
H    -4.97635363e+00     -2.07270391e+00     1.62349594e+00      
H    -5.05370013e+00     -2.64247791e+00     3.08276171e+00      
O    -5.01887532e+00     -1.53789001e+00     -2.07357078e-01     
H    -5.60886096e+00     -1.79389854e+00     -8.48859013e-01     
H    -4.19152095e+00     -1.70755013e+00     -5.43927786e-01     
O    2.51812516e+00      1.26074202e+00      4.25184837e-01      
H    2.65793033e+00      2.20725731e+00      4.99968620e-01      
H    3.39317460e+00      8.83727905e-01      3.10203252e-01      
29
3792.353552
N    3.61916221e-02      -1.82179537e-03     5.67478392e-02      
H    7.09654600e-02      -8.57546244e-01     -5.36507580e-01     
H    9.57838545e-01      4.73098631e-01      6.18140787e-02      
H    -6.96268395e-01     6.53660418e-01      -3.04693858e-01     
C    -3.16427946e-01     -3.65167453e-01     1.44196429e+00      
H    4.19788102e-01      -1.05339439e+00     1.84649160e+00      
H    -3.41548467e-01     5.31468080e-01      2.05346740e+00      
C    -1.68161121e+00     -1.03036765e+00     1.41365527e+00      
O    -2.20248815e+00     -1.42804830e+00     3.86538128e-01      
O    -2.17558525e+00     -1.11238415e+00     2.62934986e+00      
H    -3.10721855e+00     -1.49843069e+00     2.58481166e+00      
O    -1.92778984e+00     1.80196871e+00      -3.98635379e-01     
H    -2.81827203e+00     1.63069040e+00      -4.49501769e-02     
H    -2.01027953e+00     2.54763282e+00      -9.95239296e-01     
O    1.89364975e-01      -2.51603685e+00     -1.09738754e+00     
H    -6.77753506e-01     -2.92941799e+00     -1.04874691e+00     
H    6.42613217e-01      -2.93727265e+00     -1.83322906e+00     
O    -4.35222948e+00     1.12282183e+00      6.86424607e-01      
H    -4.67512770e+00     1.32654105e+00      1.57147445e+00      
H    -4.75615255e+00     2.68038282e-01      4.38747674e-01      
O    -4.63240699e+00     -1.96596300e+00     2.52656676e+00      
H    -4.97586900e+00     -2.07267871e+00     1.62512789e+00      
H    -5.05228596e+00     -2.64019333e+00     3.08069629e+00      
O    -5.01913834e+00     -1.53743259e+00     -2.06309924e-01     
H    -5.62045661e+00     -1.79833723e+00     -8.60121957e-01     
H    -4.17577322e+00     -1.71042564e+00     -5.49420629e-01     
O    2.51812287e+00      1.26074026e+00      4.25184921e-01      
H    2.65793514e+00      2.20730491e+00      4.99972658e-01      
H    3.39320937e+00      8.83709984e-01      3.10198357e-01      
29
3792.353552
N    3.61883060e-02      -1.82309737e-03     5.67460704e-02      
H    7.09702556e-02      -8.57544238e-01     -5.36503108e-01     
H    9.57863439e-01      4.73112797e-01      6.18167414e-02      
H    -6.96254022e-01     6.53656402e-01      -3.04683397e-01     
C    -3.16429235e-01     -3.65168293e-01     1.44196361e+00      
H    4.19795660e-01      -1.05339807e+00     1.84649440e+00      
H    -3.41545976e-01     5.31478983e-01      2.05347387e+00      
C    -1.68160884e+00     -1.03036742e+00     1.41365128e+00      
O    -2.20248729e+00     -1.42804744e+00     3.86540668e-01      
O    -2.17558864e+00     -1.11238492e+00     2.62935110e+00      
H    -3.10719998e+00     -1.49844075e+00     2.58481783e+00      
O    -1.92777921e+00     1.80197368e+00      -3.98642099e-01     
H    -2.81844796e+00     1.63065363e+00      -4.48711845e-02     
H    -2.01027276e+00     2.54759528e+00      -9.95209429e-01     
O    1.89359056e-01      -2.51604614e+00     -1.09739387e+00     
H    -6.77577053e-01     -2.92933013e+00     -1.04876455e+00     
H    6.42529736e-01      -2.93720817e+00     -1.83310972e+00     
O    -4.35232541e+00     1.12268536e+00      6.86446243e-01      
H    -4.67475215e+00     1.32616952e+00      1.57028552e+00      
H    -4.75500434e+00     2.70598164e-01      4.39607236e-01      
O    -4.63246615e+00     -1.96603520e+00     2.52658278e+00      
H    -4.97562669e+00     -2.07266611e+00     1.62594387e+00      
H    -5.05157888e+00     -2.63905104e+00     3.07966358e+00      
O    -5.01926986e+00     -1.53720389e+00     -2.05786347e-01     
H    -5.62625443e+00     -1.80055657e+00     -8.65753429e-01     
H    -4.16789936e+00     -1.71186339e+00     -5.52167051e-01     
O    2.51812172e+00      1.26073938e+00      4.25184963e-01      
H    2.65793755e+00      2.20732871e+00      4.99974677e-01      
H    3.39322675e+00      8.83701023e-01      3.10195910e-01      
29
3792.353552
N    3.61849899e-02      -1.82439936e-03     5.67443015e-02      
H    7.09750512e-02      -8.57542232e-01     -5.36498636e-01     
H    9.57888333e-01      4.73126962e-01      6.18194042e-02      
H    -6.96239649e-01     6.53652387e-01      -3.04672936e-01     
C    -3.16430524e-01     -3.65169132e-01     1.44196293e+00      
H    4.19803218e-01      -1.05340175e+00     1.84649719e+00      
H    -3.41543486e-01     5.31489886e-01      2.05348033e+00      
C    -1.68160647e+00     -1.03036718e+00     1.41364729e+00      
O    -2.20248643e+00     -1.42804658e+00     3.86543209e-01      
O    -2.17559204e+00     -1.11238570e+00     2.62935235e+00      
H    -3.10718140e+00     -1.49845082e+00     2.58482400e+00      
O    -1.92776858e+00     1.80197866e+00      -3.98648819e-01     
H    -2.81862388e+00     1.63061685e+00      -4.47921921e-02     
H    -2.01026600e+00     2.54755774e+00      -9.95179562e-01     
O    1.89353137e-01      -2.51605543e+00     -1.09740019e+00     
H    -6.77400600e-01     -2.92924226e+00     -1.04878219e+00     
H    6.42446254e-01      -2.93714369e+00     -1.83299039e+00     
O    -4.35242135e+00     1.12254890e+00      6.86467878e-01      
H    -4.67437660e+00     1.32579800e+00      1.56909660e+00      
H    -4.75385613e+00     2.73158046e-01      4.40466799e-01      
O    -4.63252530e+00     -1.96610741e+00     2.52659881e+00      
H    -4.97538438e+00     -2.07265352e+00     1.62675985e+00      
H    -5.05087180e+00     -2.63790876e+00     3.07863088e+00      
O    -5.01940137e+00     -1.53697518e+00     -2.05262770e-01     
H    -5.63205226e+00     -1.80277591e+00     -8.71384901e-01     
H    -4.16002549e+00     -1.71330114e+00     -5.54913472e-01     
O    2.51812057e+00      1.26073850e+00      4.25185006e-01      
H    2.65793996e+00      2.20735251e+00      4.99976697e-01      
H    3.39324414e+00      8.83692062e-01      3.10193463e-01      
29
3792.353552
N    3.61717257e-02      -1.82960732e-03     5.67372261e-02      
H    7.09942336e-02      -8.57534208e-01     -5.36480746e-01     
H    9.57987911e-01      4.73183626e-01      6.18300552e-02      
H    -6.96182157e-01     6.53636325e-01      -3.04631092e-01     
C    -3.16435682e-01     -3.65172490e-01     1.44196023e+00      
H    4.19833448e-01      -1.05341647e+00     1.84650837e+00      
H    -3.41533526e-01     5.31533498e-01      2.05350619e+00      
C    -1.68159697e+00     -1.03036626e+00     1.41363131e+00      
O    -2.20248301e+00     -1.42804312e+00     3.86553371e-01      
O    -2.17560562e+00     -1.11238878e+00     2.62935733e+00      
H    -3.10710710e+00     -1.49849106e+00     2.58484868e+00      
O    -1.92772606e+00     1.80199858e+00      -3.98675699e-01     
H    -2.81932758e+00     1.63046975e+00      -4.44762223e-02     
H    -2.01023894e+00     2.54740758e+00      -9.95060092e-01     
O    1.89329461e-01      -2.51609259e+00     -1.09742549e+00     
H    -6.76694786e-01     -2.92889080e+00     -1.04885275e+00     
H    6.42112330e-01      -2.93688579e+00     -1.83251303e+00     
O    -4.35280507e+00     1.12200302e+00      6.86554422e-01      
H    -4.67287442e+00     1.32431190e+00      1.56434088e+00      
H    -4.74926327e+00     2.83397572e-01      4.43905049e-01      
O    -4.63276194e+00     -1.96639625e+00     2.52666291e+00      
H    -4.97441512e+00     -2.07260312e+00     1.63002375e+00      
H    -5.04804348e+00     -2.63333960e+00     3.07450004e+00      
O    -5.01992741e+00     -1.53606034e+00     -2.03168462e-01     
H    -5.65524356e+00     -1.81165329e+00     -8.93910789e-01     
H    -4.12853003e+00     -1.71905214e+00     -5.65899158e-01     
O    2.51811599e+00      1.26073498e+00      4.25185174e-01      
H    2.65794958e+00      2.20744771e+00      4.99984773e-01      
H    3.39331368e+00      8.83656220e-01      3.10183673e-01      
29
3792.353552
N    3.61684096e-02      -1.83090931e-03     5.67354572e-02      
H    7.09990292e-02      -8.57532202e-01     -5.36476274e-01     
H    9.58012805e-01      4.73197791e-01      6.18327180e-02      
H    -6.96167784e-01     6.53632310e-01      -3.04620631e-01     
C    -3.16436971e-01     -3.65173329e-01     1.44195955e+00      
H    4.19841006e-01      -1.05342015e+00     1.84651116e+00      
H    -3.41531036e-01     5.31544401e-01      2.05351265e+00      
C    -1.68159460e+00     -1.03036602e+00     1.41362732e+00      
O    -2.20248215e+00     -1.42804226e+00     3.86555912e-01      
O    -2.17560902e+00     -1.11238956e+00     2.62935858e+00      
H    -3.10708852e+00     -1.49850113e+00     2.58485485e+00      
O    -1.92771543e+00     1.80200356e+00      -3.98682419e-01     
H    -2.81950350e+00     1.63043297e+00      -4.43972299e-02     
H    -2.01023218e+00     2.54737004e+00      -9.95030225e-01     
O    1.89323542e-01      -2.51610188e+00     -1.09743181e+00     
H    -6.76518333e-01     -2.92880293e+00     -1.04887039e+00     
H    6.42028848e-01      -2.93682131e+00     -1.83239370e+00     
O    -4.35290101e+00     1.12186656e+00      6.86576057e-01      
H    -4.67249887e+00     1.32394038e+00      1.56315196e+00      
H    -4.74811506e+00     2.85957454e-01      4.44764612e-01      
O    -4.63282109e+00     -1.96646846e+00     2.52667894e+00      
H    -4.97417281e+00     -2.07259053e+00     1.63083973e+00      
H    -5.04733640e+00     -2.63219732e+00     3.07346734e+00      
O    -5.02005892e+00     -1.53583163e+00     -2.02644885e-01     
H    -5.66104139e+00     -1.81387263e+00     -8.99542261e-01     
H    -4.12065616e+00     -1.72048989e+00     -5.68645579e-01     
O    2.51811484e+00      1.26073410e+00      4.25185217e-01      
H    2.65795199e+00      2.20747151e+00      4.99986793e-01      
H    3.39333107e+00      8.83647259e-01      3.10181226e-01      
29
3792.353552
N    3.61650935e-02      -1.83221131e-03     5.67336884e-02      
H    7.10038248e-02      -8.57530196e-01     -5.36471802e-01     
H    9.58037699e-01      4.73211957e-01      6.18353807e-02      
H    -6.96153411e-01     6.53628294e-01      -3.04610170e-01     
C    -3.16438260e-01     -3.65174169e-01     1.44195887e+00      
H    4.19848564e-01      -1.05342383e+00     1.84651396e+00      
H    -3.41528545e-01     5.31555304e-01      2.05351912e+00      
C    -1.68159223e+00     -1.03036579e+00     1.41362333e+00      
O    -2.20248129e+00     -1.42804140e+00     3.86558452e-01      
O    -2.17561241e+00     -1.11239033e+00     2.62935982e+00      
H    -3.10706995e+00     -1.49851119e+00     2.58486102e+00      
O    -1.92770480e+00     1.80200853e+00      -3.98689139e-01     
H    -2.81967943e+00     1.63039620e+00      -4.43182375e-02     
H    -2.01022541e+00     2.54733250e+00      -9.95000358e-01     
O    1.89317623e-01      -2.51611117e+00     -1.09743814e+00     
H    -6.76341880e-01     -2.92871507e+00     -1.04888803e+00     
H    6.41945367e-01      -2.93675683e+00     -1.83227436e+00     
O    -4.35299694e+00     1.12173009e+00      6.86597693e-01      
H    -4.67212332e+00     1.32356885e+00      1.56196303e+00      
H    -4.74696685e+00     2.88517336e-01      4.45624174e-01      
O    -4.63288025e+00     -1.96654066e+00     2.52669496e+00      
H    -4.97393050e+00     -2.07257793e+00     1.63165571e+00      
H    -5.04662932e+00     -2.63105503e+00     3.07243463e+00      
O    -5.02019044e+00     -1.53560293e+00     -2.02121308e-01     
H    -5.66683921e+00     -1.81609197e+00     -9.05173733e-01     
H    -4.11278230e+00     -1.72192764e+00     -5.71392001e-01     
O    2.51811369e+00      1.26073322e+00      4.25185259e-01      
H    2.65795440e+00      2.20749531e+00      4.99988812e-01      
H    3.39334845e+00      8.83638298e-01      3.10178779e-01      
29
3792.353552
N    3.61584614e-02      -1.83481529e-03     5.67301506e-02      
H    7.10134161e-02      -8.57526184e-01     -5.36462857e-01     
H    9.58087488e-01      4.73240289e-01      6.18407062e-02      
H    -6.96124665e-01     6.53620263e-01      -3.04589249e-01     
C    -3.16440839e-01     -3.65175848e-01     1.44195752e+00      
H    4.19863679e-01      -1.05343118e+00     1.84651954e+00      
H    -3.41523565e-01     5.31577110e-01      2.05353205e+00      
C    -1.68158748e+00     -1.03036533e+00     1.41361534e+00      
O    -2.20247958e+00     -1.42803967e+00     3.86563534e-01      
O    -2.17561920e+00     -1.11239187e+00     2.62936231e+00      
H    -3.10703280e+00     -1.49853131e+00     2.58487336e+00      
O    -1.92768354e+00     1.80201849e+00      -3.98702578e-01     
H    -2.82003127e+00     1.63032265e+00      -4.41602526e-02     
H    -2.01021188e+00     2.54725742e+00      -9.94940623e-01     
O    1.89305785e-01      -2.51612975e+00     -1.09745078e+00     
H    -6.75988973e-01     -2.92853934e+00     -1.04892331e+00     
H    6.41778405e-01      -2.93662788e+00     -1.83203568e+00     
O    -4.35318880e+00     1.12145715e+00      6.86640965e-01      
H    -4.67137223e+00     1.32282581e+00      1.55958517e+00      
H    -4.74467042e+00     2.93637099e-01      4.47343300e-01      
O    -4.63299857e+00     -1.96668508e+00     2.52672702e+00      
H    -4.97344587e+00     -2.07255273e+00     1.63328766e+00      
H    -5.04521515e+00     -2.62877045e+00     3.07036921e+00      
O    -5.02045346e+00     -1.53514551e+00     -2.01074154e-01     
H    -5.67843486e+00     -1.82053066e+00     -9.16436677e-01     
H    -4.09703457e+00     -1.72480315e+00     -5.76884844e-01     
O    2.51811140e+00      1.26073146e+00      4.25185343e-01      
H    2.65795921e+00      2.20754291e+00      4.99992850e-01      
H    3.39338322e+00      8.83620377e-01      3.10173884e-01      
29
3792.353552
N    3.61518292e-02      -1.83741927e-03     5.67266129e-02      
H    7.10230073e-02      -8.57522173e-01     -5.36453913e-01     
H    9.58137276e-01      4.73268620e-01      6.18460317e-02      
H    -6.96095919e-01     6.53612233e-01      -3.04568327e-01     
C    -3.16443417e-01     -3.65177527e-01     1.44195617e+00      
H    4.19878794e-01      -1.05343854e+00     1.84652513e+00      
H    -3.41518585e-01     5.31598915e-01      2.05354498e+00      
C    -1.68158274e+00     -1.03036486e+00     1.41360736e+00      
O    -2.20247787e+00     -1.42803794e+00     3.86568615e-01      
O    -2.17562600e+00     -1.11239341e+00     2.62936480e+00      
H    -3.10699565e+00     -1.49855144e+00     2.58488570e+00      
O    -1.92766228e+00     1.80202845e+00      -3.98716018e-01     
H    -2.82038312e+00     1.63024910e+00      -4.40022677e-02     
H    -2.01019836e+00     2.54718235e+00      -9.94880889e-01     
O    1.89293947e-01      -2.51614833e+00     -1.09746343e+00     
H    -6.75636067e-01     -2.92836361e+00     -1.04895859e+00     
H    6.41611443e-01      -2.93649893e+00     -1.83179701e+00     
O    -4.35338067e+00     1.12118422e+00      6.86684236e-01      
H    -4.67062113e+00     1.32208276e+00      1.55720732e+00      
H    -4.74237400e+00     2.98756862e-01      4.49062425e-01      
O    -4.63311688e+00     -1.96682950e+00     2.52675907e+00      
H    -4.97296125e+00     -2.07252754e+00     1.63491962e+00      
H    -5.04380099e+00     -2.62648588e+00     3.06830380e+00      
O    -5.02071648e+00     -1.53468809e+00     -2.00027001e-01     
H    -5.69003051e+00     -1.82496934e+00     -9.27699622e-01     
H    -4.08128684e+00     -1.72767865e+00     -5.82377687e-01     
O    2.51810910e+00      1.26072970e+00      4.25185428e-01      
H    2.65796403e+00      2.20759051e+00      4.99996889e-01      
H    3.39341799e+00      8.83602455e-01      3.10168990e-01      
29
3792.353552
N    3.61451971e-02      -1.84002325e-03     5.67230752e-02      
H    7.10325985e-02      -8.57518161e-01     -5.36444968e-01     
H    9.58187065e-01      4.73296952e-01      6.18513572e-02      
H    -6.96067173e-01     6.53604202e-01      -3.04547405e-01     
C    -3.16445996e-01     -3.65179206e-01     1.44195481e+00      
H    4.19893910e-01      -1.05344590e+00     1.84653072e+00      
H    -3.41513605e-01     5.31620721e-01      2.05355790e+00      
C    -1.68157799e+00     -1.03036440e+00     1.41359937e+00      
O    -2.20247615e+00     -1.42803622e+00     3.86573696e-01      
O    -2.17563279e+00     -1.11239496e+00     2.62936729e+00      
H    -3.10695849e+00     -1.49857156e+00     2.58489804e+00      
O    -1.92764102e+00     1.80203840e+00      -3.98729458e-01     
H    -2.82073497e+00     1.63017555e+00      -4.38442829e-02     
H    -2.01018483e+00     2.54710727e+00      -9.94821154e-01     
O    1.89282109e-01      -2.51616690e+00     -1.09747608e+00     
H    -6.75283160e-01     -2.92818788e+00     -1.04899387e+00     
H    6.41444480e-01      -2.93636998e+00     -1.83155833e+00     
O    -4.35357253e+00     1.12091128e+00      6.86727508e-01      
H    -4.66987004e+00     1.32133971e+00      1.55482946e+00      
H    -4.74007757e+00     3.03876626e-01      4.50781550e-01      
O    -4.63323520e+00     -1.96697392e+00     2.52679112e+00      
H    -4.97247662e+00     -2.07250234e+00     1.63655157e+00      
H    -5.04238683e+00     -2.62420130e+00     3.06623838e+00      
O    -5.02097950e+00     -1.53423067e+00     -1.98979847e-01     
H    -5.70162616e+00     -1.82940803e+00     -9.38962566e-01     
H    -4.06553910e+00     -1.73055415e+00     -5.87870530e-01     
O    2.51810681e+00      1.26072794e+00      4.25185512e-01      
H    2.65796884e+00      2.20763812e+00      5.00000927e-01      
H    3.39345277e+00      8.83584534e-01      3.10164095e-01      
29
3792.353552
N    3.61385650e-02      -1.84262724e-03     5.67195375e-02      
H    7.10421897e-02      -8.57514149e-01     -5.36436023e-01     
H    9.58236854e-01      4.73325283e-01      6.18566827e-02      
H    -6.96038428e-01     6.53596171e-01      -3.04526483e-01     
C    -3.16448574e-01     -3.65180885e-01     1.44195346e+00      
H    4.19909025e-01      -1.05345326e+00     1.84653631e+00      
H    -3.41508624e-01     5.31642527e-01      2.05357083e+00      
C    -1.68157325e+00     -1.03036394e+00     1.41359139e+00      
O    -2.20247444e+00     -1.42803449e+00     3.86578777e-01      
O    -2.17563958e+00     -1.11239650e+00     2.62936978e+00      
H    -3.10692134e+00     -1.49859168e+00     2.58491038e+00      
O    -1.92761976e+00     1.80204836e+00      -3.98742898e-01     
H    -2.82108682e+00     1.63010200e+00      -4.36862980e-02     
H    -2.01017130e+00     2.54703219e+00      -9.94761420e-01     
O    1.89270271e-01      -2.51618548e+00     -1.09748873e+00     
H    -6.74930254e-01     -2.92801215e+00     -1.04902915e+00     
H    6.41277518e-01      -2.93624102e+00     -1.83131965e+00     
O    -4.35376440e+00     1.12063834e+00      6.86770779e-01      
H    -4.66911895e+00     1.32059666e+00      1.55245161e+00      
H    -4.73778115e+00     3.08996389e-01      4.52500675e-01      
O    -4.63335351e+00     -1.96711833e+00     2.52682317e+00      
H    -4.97199200e+00     -2.07247715e+00     1.63818352e+00      
H    -5.04097267e+00     -2.62191673e+00     3.06417297e+00      
O    -5.02124253e+00     -1.53377326e+00     -1.97932693e-01     
H    -5.71322181e+00     -1.83384671e+00     -9.50225510e-01     
H    -4.04979137e+00     -1.73342965e+00     -5.93363373e-01     
O    2.51810451e+00      1.26072618e+00      4.25185596e-01      
H    2.65797366e+00      2.20768572e+00      5.00004966e-01      
H    3.39348754e+00      8.83566612e-01      3.10159201e-01      
29
3792.353552
N    3.61253007e-02      -1.84783520e-03     5.67124621e-02      
H    7.10613721e-02      -8.57506125e-01     -5.36418134e-01     
H    9.58336431e-01      4.73381947e-01      6.18673337e-02      
H    -6.95980936e-01     6.53580109e-01      -3.04484640e-01     
C    -3.16453731e-01     -3.65184243e-01     1.44195076e+00      
H    4.19939256e-01      -1.05346797e+00     1.84654749e+00      
H    -3.41498664e-01     5.31686139e-01      2.05359669e+00      
C    -1.68156376e+00     -1.03036301e+00     1.41357542e+00      
O    -2.20247101e+00     -1.42803104e+00     3.86588939e-01      
O    -2.17565316e+00     -1.11239959e+00     2.62937477e+00      
H    -3.10684704e+00     -1.49863193e+00     2.58493506e+00      
O    -1.92757724e+00     1.80206827e+00      -3.98769778e-01     
H    -2.82179052e+00     1.62995490e+00      -4.33703283e-02     
H    -2.01014424e+00     2.54688203e+00      -9.94641950e-01     
O    1.89246595e-01      -2.51622264e+00     -1.09751402e+00     
H    -6.74224441e-01     -2.92766069e+00     -1.04909972e+00     
H    6.40943593e-01      -2.93598312e+00     -1.83084230e+00     
O    -4.35414813e+00     1.12009247e+00      6.86857322e-01      
H    -4.66761676e+00     1.31911057e+00      1.54769590e+00      
H    -4.73318830e+00     3.19235916e-01      4.55938926e-01      
O    -4.63359014e+00     -1.96740717e+00     2.52688728e+00      
H    -4.97102274e+00     -2.07242676e+00     1.64144743e+00      
H    -5.03814434e+00     -2.61734758e+00     3.06004214e+00      
O    -5.02176857e+00     -1.53285842e+00     -1.95838385e-01     
H    -5.73641311e+00     -1.84272408e+00     -9.72751398e-01     
H    -4.01829591e+00     -1.73918066e+00     -6.04349059e-01     
O    2.51809992e+00      1.26072265e+00      4.25185765e-01      
H    2.65798329e+00      2.20778092e+00      5.00013043e-01      
H    3.39355708e+00      8.83530769e-01      3.10149412e-01      
