29
3890.234536
N    3.60659584e-02      -1.93390586e-03     5.67082830e-02      
H    7.14784516e-02      -8.57024606e-01     -5.36261657e-01     
H    9.58798122e-01      4.73682164e-01      6.18611732e-02      
H    -6.96049733e-01     6.54142640e-01      -3.04573107e-01     
C    -3.16392967e-01     -3.65158475e-01     1.44197032e+00      
H    4.19671604e-01      -1.05326217e+00     1.84654908e+00      
H    -3.41579430e-01     5.31360438e-01      2.05354984e+00      
C    -1.68158824e+00     -1.03033558e+00     1.41377107e+00      
O    -2.20252030e+00     -1.42807502e+00     3.86485285e-01      
O    -2.17554973e+00     -1.11237885e+00     2.62930230e+00      
H    -3.10762601e+00     -1.49852375e+00     2.58485710e+00      
O    -1.92774571e+00     1.80191050e+00      -3.98609693e-01     
H    -2.81909820e+00     1.63043914e+00      -4.47417423e-02     
H    -2.01028775e+00     2.54858731e+00      -9.96001482e-01     
O    1.90457066e-01      -2.51600774e+00     -1.09800447e+00     
H    -6.89529697e-01     -2.93523121e+00     -1.04809202e+00     
H    6.37043521e-01      -2.93201892e+00     -1.82410127e+00     
O    -4.35106800e+00     1.11708125e+00      6.77141642e-01      
H    -4.72236254e+00     1.35934129e+00      1.70449274e+00      
H    -4.72718741e+00     3.26420525e-01      4.53061945e-01      
O    -4.63267170e+00     -1.96614708e+00     2.52616506e+00      
H    -4.97278149e+00     -2.07222850e+00     1.63397143e+00      
H    -5.05096999e+00     -2.63785366e+00     3.07840599e+00      
O    -5.01156241e+00     -1.53596179e+00     -2.02328240e-01     
H    -5.69907804e+00     -1.83114278e+00     -9.43049131e-01     
H    -4.21772193e+00     -1.70068478e+00     -5.29622013e-01     
O    2.51806046e+00      1.26080343e+00      4.25195397e-01      
H    2.65783904e+00      2.20674645e+00      4.99937872e-01      
H    3.39427827e+00      8.83252216e-01      3.10067781e-01      
29
3890.234536
N    3.60940582e-02      -1.90718023e-03     5.67164032e-02      
H    7.13549993e-02      -8.57153009e-01     -5.36318666e-01     
H    9.58583122e-01      4.73550447e-01      6.18520623e-02      
H    -6.96090025e-01     6.54018069e-01      -3.04592834e-01     
C    -3.16403001e-01     -3.65161559e-01     1.44196813e+00      
H    4.19708286e-01      -1.05329890e+00     1.84653751e+00      
H    -3.41569199e-01     5.31398252e-01      2.05353569e+00      
C    -1.68159161e+00     -1.03034336e+00     1.41373813e+00      
O    -2.20251141e+00     -1.42806748e+00     3.86501036e-01      
O    -2.17556201e+00     -1.11238095e+00     2.62931543e+00      
H    -3.10750557e+00     -1.49851055e+00     2.58485191e+00      
O    -1.92774611e+00     1.80193003e+00      -3.98622835e-01     
H    -2.81906758e+00     1.63046518e+00      -4.47148585e-02     
H    -2.01027893e+00     2.54831115e+00      -9.95781068e-01     
O    1.90178124e-01      -2.51602431e+00     -1.09785656e+00     
H    -6.86409196e-01     -2.93369004e+00     -1.04827338e+00     
H    6.38352464e-01      -2.93326788e+00     -1.82626388e+00     
O    -4.35145430e+00     1.11837992e+00      6.79484019e-01      
H    -4.71017828e+00     1.35076970e+00      1.67004924e+00      
H    -4.73328048e+00     3.14384846e-01      4.50342940e-01      
O    -4.63266468e+00     -1.96617327e+00     2.52628151e+00      
H    -4.97331105e+00     -2.07232846e+00     1.63257652e+00      
H    -5.05059190e+00     -2.63729629e+00     3.07794586e+00      
O    -5.01358790e+00     -1.53610079e+00     -2.02800084e-01     
H    -5.68522051e+00     -1.82516073e+00     -9.27948810e-01     
H    -4.19936089e+00     -1.70455775e+00     -5.37318088e-01     
O    2.51807492e+00      1.26078676e+00      4.25192820e-01      
H    2.65786547e+00      2.20690987e+00      4.99948588e-01      
H    3.39402843e+00      8.83357697e-01      3.10097978e-01      
29
3890.234536
N    3.61081081e-02      -1.89381742e-03     5.67204633e-02      
H    7.12932732e-02      -8.57217211e-01     -5.36347170e-01     
H    9.58475622e-01      4.73484588e-01      6.18475069e-02      
H    -6.96110172e-01     6.53955783e-01      -3.04602697e-01     
C    -3.16408018e-01     -3.65163101e-01     1.44196704e+00      
H    4.19726627e-01      -1.05331727e+00     1.84653172e+00      
H    -3.41564083e-01     5.31417158e-01      2.05352862e+00      
C    -1.68159330e+00     -1.03034726e+00     1.41372166e+00      
O    -2.20250696e+00     -1.42806371e+00     3.86508912e-01      
O    -2.17556814e+00     -1.11238199e+00     2.62932200e+00      
H    -3.10744535e+00     -1.49850395e+00     2.58484931e+00      
O    -1.92774632e+00     1.80193979e+00      -3.98629406e-01     
H    -2.81905227e+00     1.63047820e+00      -4.47014167e-02     
H    -2.01027452e+00     2.54817307e+00      -9.95670862e-01     
O    1.90038654e-01      -2.51603259e+00     -1.09778261e+00     
H    -6.84848946e-01     -2.93291946e+00     -1.04836406e+00     
H    6.39006935e-01      -2.93389235e+00     -1.82734519e+00     
O    -4.35164745e+00     1.11902926e+00      6.80655208e-01      
H    -4.70408615e+00     1.34648391e+00      1.65282749e+00      
H    -4.73632702e+00     3.08367007e-01      4.48983437e-01      
O    -4.63266117e+00     -1.96618636e+00     2.52633974e+00      
H    -4.97357584e+00     -2.07237843e+00     1.63187907e+00      
H    -5.05040286e+00     -2.63701760e+00     3.07771579e+00      
O    -5.01460065e+00     -1.53617028e+00     -2.03036006e-01     
H    -5.67829174e+00     -1.82216971e+00     -9.20398649e-01     
H    -4.19018036e+00     -1.70649423e+00     -5.41166126e-01     
O    2.51808214e+00      1.26077842e+00      4.25191532e-01      
H    2.65787869e+00      2.20699157e+00      4.99953946e-01      
H    3.39390351e+00      8.83410438e-01      3.10113076e-01      
29
3890.234536
N    3.61221581e-02      -1.88045460e-03     5.67245234e-02      
H    7.12315470e-02      -8.57281413e-01     -5.36375674e-01     
H    9.58368122e-01      4.73418729e-01      6.18429514e-02      
H    -6.96130318e-01     6.53893498e-01      -3.04612560e-01     
C    -3.16413035e-01     -3.65164643e-01     1.44196595e+00      
H    4.19744968e-01      -1.05333564e+00     1.84652593e+00      
H    -3.41558968e-01     5.31436065e-01      2.05352155e+00      
C    -1.68159498e+00     -1.03035115e+00     1.41370519e+00      
O    -2.20250251e+00     -1.42805994e+00     3.86516787e-01      
O    -2.17557428e+00     -1.11238304e+00     2.62932857e+00      
H    -3.10738513e+00     -1.49849735e+00     2.58484672e+00      
O    -1.92774652e+00     1.80194956e+00      -3.98635976e-01     
H    -2.81903697e+00     1.63049122e+00      -4.46879748e-02     
H    -2.01027011e+00     2.54803499e+00      -9.95560655e-01     
O    1.89899183e-01      -2.51604087e+00     -1.09770865e+00     
H    -6.83288695e-01     -2.93214887e+00     -1.04845474e+00     
H    6.39661406e-01      -2.93451683e+00     -1.82842649e+00     
O    -4.35184060e+00     1.11967860e+00      6.81826396e-01      
H    -4.69799402e+00     1.34219812e+00      1.63560574e+00      
H    -4.73937356e+00     3.02349167e-01      4.47623934e-01      
O    -4.63265766e+00     -1.96619946e+00     2.52639796e+00      
H    -4.97384062e+00     -2.07242841e+00     1.63118162e+00      
H    -5.05021381e+00     -2.63673892e+00     3.07748572e+00      
O    -5.01561340e+00     -1.53623978e+00     -2.03271928e-01     
H    -5.67136298e+00     -1.81917869e+00     -9.12848488e-01     
H    -4.18099984e+00     -1.70843071e+00     -5.45014164e-01     
O    2.51808937e+00      1.26077009e+00      4.25190243e-01      
H    2.65789190e+00      2.20707328e+00      4.99959304e-01      
H    3.39377859e+00      8.83463178e-01      3.10128175e-01      
29
3890.234536
N    3.61362080e-02      -1.86709179e-03     5.67285835e-02      
H    7.11698209e-02      -8.57345615e-01     -5.36404178e-01     
H    9.58260622e-01      4.73352870e-01      6.18383960e-02      
H    -6.96150464e-01     6.53831212e-01      -3.04622424e-01     
C    -3.16418052e-01     -3.65166185e-01     1.44196486e+00      
H    4.19763310e-01      -1.05335401e+00     1.84652014e+00      
H    -3.41553852e-01     5.31454972e-01      2.05351448e+00      
C    -1.68159667e+00     -1.03035504e+00     1.41368872e+00      
O    -2.20249806e+00     -1.42805616e+00     3.86524663e-01      
O    -2.17558042e+00     -1.11238409e+00     2.62933514e+00      
H    -3.10732491e+00     -1.49849075e+00     2.58484412e+00      
O    -1.92774672e+00     1.80195932e+00      -3.98642547e-01     
H    -2.81902166e+00     1.63050424e+00      -4.46745329e-02     
H    -2.01026570e+00     2.54789690e+00      -9.95450448e-01     
O    1.89759712e-01      -2.51604916e+00     -1.09763470e+00     
H    -6.81728445e-01     -2.93137829e+00     -1.04854542e+00     
H    6.40315878e-01      -2.93514131e+00     -1.82950780e+00     
O    -4.35203376e+00     1.12032794e+00      6.82997585e-01      
H    -4.69190189e+00     1.33791233e+00      1.61838399e+00      
H    -4.74242009e+00     2.96331328e-01      4.46264432e-01      
O    -4.63265415e+00     -1.96621255e+00     2.52645619e+00      
H    -4.97410540e+00     -2.07247839e+00     1.63048416e+00      
H    -5.05002477e+00     -2.63646023e+00     3.07725566e+00      
O    -5.01662615e+00     -1.53630927e+00     -2.03507850e-01     
H    -5.66443421e+00     -1.81618767e+00     -9.05298327e-01     
H    -4.17181932e+00     -1.71036719e+00     -5.48862202e-01     
O    2.51809660e+00      1.26076175e+00      4.25188955e-01      
H    2.65790512e+00      2.20715499e+00      4.99964661e-01      
H    3.39365367e+00      8.83515919e-01      3.10143273e-01      
29
3890.234536
N    3.61502579e-02      -1.85372897e-03     5.67326436e-02      
H    7.11080947e-02      -8.57409816e-01     -5.36432683e-01     
H    9.58153122e-01      4.73287012e-01      6.18338406e-02      
H    -6.96170610e-01     6.53768927e-01      -3.04632287e-01     
C    -3.16423069e-01     -3.65167727e-01     1.44196376e+00      
H    4.19781651e-01      -1.05337237e+00     1.84651436e+00      
H    -3.41548737e-01     5.31473879e-01      2.05350740e+00      
C    -1.68159835e+00     -1.03035893e+00     1.41367224e+00      
O    -2.20249362e+00     -1.42805239e+00     3.86532539e-01      
O    -2.17558656e+00     -1.11238514e+00     2.62934170e+00      
H    -3.10726469e+00     -1.49848414e+00     2.58484153e+00      
O    -1.92774692e+00     1.80196909e+00      -3.98649118e-01     
H    -2.81900635e+00     1.63051726e+00      -4.46610910e-02     
H    -2.01026129e+00     2.54775882e+00      -9.95340241e-01     
O    1.89620241e-01      -2.51605744e+00     -1.09756075e+00     
H    -6.80168194e-01     -2.93060770e+00     -1.04863611e+00     
H    6.40970349e-01      -2.93576579e+00     -1.83058910e+00     
O    -4.35222691e+00     1.12097728e+00      6.84168773e-01      
H    -4.68580977e+00     1.33362653e+00      1.60116224e+00      
H    -4.74546663e+00     2.90313488e-01      4.44904929e-01      
O    -4.63265064e+00     -1.96622564e+00     2.52651441e+00      
H    -4.97437018e+00     -2.07252837e+00     1.62978671e+00      
H    -5.04983573e+00     -2.63618155e+00     3.07702559e+00      
O    -5.01763889e+00     -1.53637877e+00     -2.03743772e-01     
H    -5.65750544e+00     -1.81319664e+00     -8.97748167e-01     
H    -4.16263880e+00     -1.71230368e+00     -5.52710239e-01     
O    2.51810383e+00      1.26075341e+00      4.25187667e-01      
H    2.65791834e+00      2.20723670e+00      4.99970019e-01      
H    3.39352875e+00      8.83568660e-01      3.10158371e-01      
29
3890.234536
N    3.61572829e-02      -1.84704756e-03     5.67346736e-02      
H    7.10772316e-02      -8.57441917e-01     -5.36446935e-01     
H    9.58099372e-01      4.73254082e-01      6.18315629e-02      
H    -6.96180684e-01     6.53737784e-01      -3.04637219e-01     
C    -3.16425577e-01     -3.65168498e-01     1.44196322e+00      
H    4.19790821e-01      -1.05338156e+00     1.84651146e+00      
H    -3.41546179e-01     5.31483332e-01      2.05350387e+00      
C    -1.68159919e+00     -1.03036088e+00     1.41366401e+00      
O    -2.20249139e+00     -1.42805051e+00     3.86536477e-01      
O    -2.17558962e+00     -1.11238567e+00     2.62934499e+00      
H    -3.10723458e+00     -1.49848084e+00     2.58484023e+00      
O    -1.92774702e+00     1.80197397e+00      -3.98652403e-01     
H    -2.81899869e+00     1.63052377e+00      -4.46543700e-02     
H    -2.01025908e+00     2.54768978e+00      -9.95285137e-01     
O    1.89550505e-01      -2.51606158e+00     -1.09752377e+00     
H    -6.79388069e-01     -2.93022241e+00     -1.04868145e+00     
H    6.41297585e-01      -2.93607802e+00     -1.83112975e+00     
O    -4.35232348e+00     1.12130195e+00      6.84754367e-01      
H    -4.68276370e+00     1.33148364e+00      1.59255137e+00      
H    -4.74698990e+00     2.87304568e-01      4.44225178e-01      
O    -4.63264888e+00     -1.96623219e+00     2.52654352e+00      
H    -4.97450258e+00     -2.07255335e+00     1.62943798e+00      
H    -5.04974121e+00     -2.63604221e+00     3.07691056e+00      
O    -5.01814527e+00     -1.53641352e+00     -2.03861733e-01     
H    -5.65404106e+00     -1.81170113e+00     -8.93973086e-01     
H    -4.15804854e+00     -1.71327192e+00     -5.54634258e-01     
O    2.51810744e+00      1.26074924e+00      4.25187023e-01      
H    2.65792495e+00      2.20727755e+00      4.99972698e-01      
H    3.39346629e+00      8.83595030e-01      3.10165920e-01      
29
3890.234536
N    3.61643079e-02      -1.84036616e-03     5.67367037e-02      
H    7.10463686e-02      -8.57474018e-01     -5.36461187e-01     
H    9.58045622e-01      4.73221153e-01      6.18292851e-02      
H    -6.96190757e-01     6.53706641e-01      -3.04642151e-01     
C    -3.16428086e-01     -3.65169269e-01     1.44196267e+00      
H    4.19799992e-01      -1.05339074e+00     1.84650857e+00      
H    -3.41543621e-01     5.31492785e-01      2.05350033e+00      
C    -1.68160004e+00     -1.03036283e+00     1.41365577e+00      
O    -2.20248917e+00     -1.42804862e+00     3.86540414e-01      
O    -2.17559269e+00     -1.11238619e+00     2.62934827e+00      
H    -3.10720447e+00     -1.49847754e+00     2.58483893e+00      
O    -1.92774712e+00     1.80197885e+00      -3.98655688e-01     
H    -2.81899104e+00     1.63053028e+00      -4.46476491e-02     
H    -2.01025688e+00     2.54762074e+00      -9.95230034e-01     
O    1.89480770e-01      -2.51606573e+00     -1.09748679e+00     
H    -6.78607944e-01     -2.92983712e+00     -1.04872679e+00     
H    6.41624821e-01      -2.93639026e+00     -1.83167041e+00     
O    -4.35242006e+00     1.12162662e+00      6.85339962e-01      
H    -4.67971764e+00     1.32934074e+00      1.58394049e+00      
H    -4.74851316e+00     2.84295649e-01      4.43545427e-01      
O    -4.63264713e+00     -1.96623874e+00     2.52657264e+00      
H    -4.97463497e+00     -2.07257834e+00     1.62908925e+00      
H    -5.04964668e+00     -2.63590286e+00     3.07679553e+00      
O    -5.01865164e+00     -1.53644826e+00     -2.03979694e-01     
H    -5.65057668e+00     -1.81020562e+00     -8.90198006e-01     
H    -4.15345828e+00     -1.71424016e+00     -5.56558277e-01     
O    2.51811105e+00      1.26074508e+00      4.25186378e-01      
H    2.65793155e+00      2.20731840e+00      4.99975377e-01      
H    3.39340383e+00      8.83621400e-01      3.10173470e-01      
29
3890.234536
N    3.61924077e-02      -1.81364052e-03     5.67448239e-02      
H    7.09229162e-02      -8.57602422e-01     -5.36518195e-01     
H    9.57830622e-01      4.73089435e-01      6.18201743e-02      
H    -6.96231049e-01     6.53582071e-01      -3.04661877e-01     
C    -3.16438120e-01     -3.65172353e-01     1.44196049e+00      
H    4.19836674e-01      -1.05342748e+00     1.84649699e+00      
H    -3.41533391e-01     5.31530599e-01      2.05348619e+00      
C    -1.68160340e+00     -1.03037061e+00     1.41362283e+00      
O    -2.20248027e+00     -1.42804108e+00     3.86556166e-01      
O    -2.17560497e+00     -1.11238829e+00     2.62936141e+00      
H    -3.10708403e+00     -1.49846434e+00     2.58483375e+00      
O    -1.92774752e+00     1.80199839e+00      -3.98668830e-01     
H    -2.81896042e+00     1.63055632e+00      -4.46207653e-02     
H    -2.01024806e+00     2.54734458e+00      -9.95009620e-01     
O    1.89201828e-01      -2.51608229e+00     -1.09733889e+00     
H    -6.75487442e-01     -2.92829594e+00     -1.04890815e+00     
H    6.42933763e-01      -2.93763922e+00     -1.83383301e+00     
O    -4.35280636e+00     1.12292530e+00      6.87682338e-01      
H    -4.66753338e+00     1.32076916e+00      1.54949699e+00      
H    -4.75460624e+00     2.72259969e-01      4.40826421e-01      
O    -4.63264011e+00     -1.96626492e+00     2.52668908e+00      
H    -4.97516453e+00     -2.07267830e+00     1.62769435e+00      
H    -5.04926860e+00     -2.63534550e+00     3.07633539e+00      
O    -5.02067714e+00     -1.53658726e+00     -2.04451538e-01     
H    -5.63671914e+00     -1.80422358e+00     -8.75097684e-01     
H    -4.13509724e+00     -1.71811312e+00     -5.64254353e-01     
O    2.51812551e+00      1.26072840e+00      4.25183802e-01      
H    2.65795799e+00      2.20748182e+00      4.99986093e-01      
H    3.39315399e+00      8.83726882e-01      3.10203666e-01      
29
3890.234536
N    3.61994327e-02      -1.80695912e-03     5.67468540e-02      
H    7.08920532e-02      -8.57634523e-01     -5.36532447e-01     
H    9.57776872e-01      4.73056506e-01      6.18178965e-02      
H    -6.96241122e-01     6.53550928e-01      -3.04666809e-01     
C    -3.16440629e-01     -3.65173124e-01     1.44195994e+00      
H    4.19845845e-01      -1.05343666e+00     1.84649410e+00      
H    -3.41530833e-01     5.31540052e-01      2.05348265e+00      
C    -1.68160425e+00     -1.03037256e+00     1.41361459e+00      
O    -2.20247805e+00     -1.42803919e+00     3.86560103e-01      
O    -2.17560804e+00     -1.11238881e+00     2.62936469e+00      
H    -3.10705392e+00     -1.49846104e+00     2.58483245e+00      
O    -1.92774762e+00     1.80200327e+00      -3.98672115e-01     
H    -2.81895277e+00     1.63056283e+00      -4.46140444e-02     
H    -2.01024586e+00     2.54727554e+00      -9.94954517e-01     
O    1.89132093e-01      -2.51608644e+00     -1.09730191e+00     
H    -6.74707317e-01     -2.92791065e+00     -1.04895349e+00     
H    6.43260999e-01      -2.93795146e+00     -1.83437367e+00     
O    -4.35290294e+00     1.12324997e+00      6.88267933e-01      
H    -4.66448732e+00     1.31862626e+00      1.54088611e+00      
H    -4.75612950e+00     2.69251050e-01      4.40146670e-01      
O    -4.63263836e+00     -1.96627147e+00     2.52671820e+00      
H    -4.97529692e+00     -2.07270329e+00     1.62734562e+00      
H    -5.04917407e+00     -2.63520615e+00     3.07622036e+00      
O    -5.02118351e+00     -1.53662200e+00     -2.04569499e-01     
H    -5.63325476e+00     -1.80272807e+00     -8.71322604e-01     
H    -4.13050698e+00     -1.71908136e+00     -5.66178372e-01     
O    2.51812912e+00      1.26072424e+00      4.25183157e-01      
H    2.65796459e+00      2.20752267e+00      4.99988772e-01      
H    3.39309153e+00      8.83753252e-01      3.10211216e-01      
29
3890.234536
N    3.62064577e-02      -1.80027771e-03     5.67488840e-02      
H    7.08611901e-02      -8.57666624e-01     -5.36546699e-01     
H    9.57723122e-01      4.73023576e-01      6.18156188e-02      
H    -6.96251196e-01     6.53519785e-01      -3.04671741e-01     
C    -3.16443137e-01     -3.65173895e-01     1.44195940e+00      
H    4.19855015e-01      -1.05344585e+00     1.84649120e+00      
H    -3.41528275e-01     5.31549505e-01      2.05347912e+00      
C    -1.68160509e+00     -1.03037451e+00     1.41360636e+00      
O    -2.20247582e+00     -1.42803731e+00     3.86564041e-01      
O    -2.17561110e+00     -1.11238934e+00     2.62936798e+00      
H    -3.10702381e+00     -1.49845774e+00     2.58483115e+00      
O    -1.92774772e+00     1.80200815e+00      -3.98675400e-01     
H    -2.81894511e+00     1.63056934e+00      -4.46073234e-02     
H    -2.01024365e+00     2.54720650e+00      -9.94899413e-01     
O    1.89062357e-01      -2.51609058e+00     -1.09726493e+00     
H    -6.73927192e-01     -2.92752536e+00     -1.04899883e+00     
H    6.43588235e-01      -2.93826369e+00     -1.83491432e+00     
O    -4.35299951e+00     1.12357464e+00      6.88853527e-01      
H    -4.66144125e+00     1.31648337e+00      1.53227524e+00      
H    -4.75765277e+00     2.66242130e-01      4.39466919e-01      
O    -4.63263660e+00     -1.96627802e+00     2.52674731e+00      
H    -4.97542932e+00     -2.07272827e+00     1.62699689e+00      
H    -5.04907955e+00     -2.63506681e+00     3.07610533e+00      
O    -5.02168989e+00     -1.53665675e+00     -2.04687460e-01     
H    -5.62979038e+00     -1.80123256e+00     -8.67547523e-01     
H    -4.12591672e+00     -1.72004960e+00     -5.68102391e-01     
O    2.51813273e+00      1.26072007e+00      4.25182513e-01      
H    2.65797120e+00      2.20756352e+00      4.99991451e-01      
H    3.39302907e+00      8.83779622e-01      3.10218765e-01      
29
3890.234536
N    3.62205076e-02      -1.78691489e-03     5.67529441e-02      
H    7.07994639e-02      -8.57730825e-01     -5.36575204e-01     
H    9.57615622e-01      4.72957718e-01      6.18110634e-02      
H    -6.96271342e-01     6.53457500e-01      -3.04681604e-01     
C    -3.16448154e-01     -3.65175437e-01     1.44195830e+00      
H    4.19873356e-01      -1.05346421e+00     1.84648542e+00      
H    -3.41523160e-01     5.31568412e-01      2.05347204e+00      
C    -1.68160677e+00     -1.03037840e+00     1.41358988e+00      
O    -2.20247138e+00     -1.42803354e+00     3.86571917e-01      
O    -2.17561724e+00     -1.11239039e+00     2.62937454e+00      
H    -3.10696359e+00     -1.49845113e+00     2.58482856e+00      
O    -1.92774792e+00     1.80201792e+00      -3.98681971e-01     
H    -2.81892980e+00     1.63058236e+00      -4.45938815e-02     
H    -2.01023924e+00     2.54706842e+00      -9.94789206e-01     
O    1.88922886e-01      -2.51609886e+00     -1.09719098e+00     
H    -6.72366941e-01     -2.92675477e+00     -1.04908952e+00     
H    6.44242706e-01      -2.93888817e+00     -1.83599562e+00     
O    -4.35319266e+00     1.12422398e+00      6.90024715e-01      
H    -4.65534913e+00     1.31219757e+00      1.51505349e+00      
H    -4.76069931e+00     2.60224290e-01      4.38107416e-01      
O    -4.63263309e+00     -1.96629111e+00     2.52680553e+00      
H    -4.97569410e+00     -2.07277825e+00     1.62629944e+00      
H    -5.04889051e+00     -2.63478813e+00     3.07587526e+00      
O    -5.02270263e+00     -1.53672625e+00     -2.04923382e-01     
H    -5.62286161e+00     -1.79824153e+00     -8.59997363e-01     
H    -4.11673620e+00     -1.72198609e+00     -5.71950428e-01     
O    2.51813996e+00      1.26071173e+00      4.25181225e-01      
H    2.65798442e+00      2.20764523e+00      4.99996809e-01      
H    3.39290415e+00      8.83832363e-01      3.10233863e-01      
29
3890.234536
N    3.62345575e-02      -1.77355208e-03     5.67570042e-02      
H    7.07377378e-02      -8.57795027e-01     -5.36603708e-01     
H    9.57508122e-01      4.72891859e-01      6.18065080e-02      
H    -6.96291488e-01     6.53395214e-01      -3.04691468e-01     
C    -3.16453171e-01     -3.65176979e-01     1.44195721e+00      
H    4.19891698e-01      -1.05348258e+00     1.84647963e+00      
H    -3.41518044e-01     5.31587319e-01      2.05346497e+00      
C    -1.68160846e+00     -1.03038229e+00     1.41357341e+00      
O    -2.20246693e+00     -1.42802976e+00     3.86579793e-01      
O    -2.17562338e+00     -1.11239144e+00     2.62938111e+00      
H    -3.10690337e+00     -1.49844453e+00     2.58482596e+00      
O    -1.92774812e+00     1.80202768e+00      -3.98688542e-01     
H    -2.81891449e+00     1.63059538e+00      -4.45804396e-02     
H    -2.01023483e+00     2.54693033e+00      -9.94678999e-01     
O    1.88783415e-01      -2.51610715e+00     -1.09711703e+00     
H    -6.70806691e-01     -2.92598419e+00     -1.04918020e+00     
H    6.44897178e-01      -2.93951265e+00     -1.83707693e+00     
O    -4.35338582e+00     1.12487332e+00      6.91195904e-01      
H    -4.64925700e+00     1.30791178e+00      1.49783174e+00      
H    -4.76374584e+00     2.54206451e-01      4.36747914e-01      
O    -4.63262958e+00     -1.96630420e+00     2.52686376e+00      
H    -4.97595888e+00     -2.07282823e+00     1.62560198e+00      
H    -5.04870147e+00     -2.63450944e+00     3.07564520e+00      
O    -5.02371538e+00     -1.53679574e+00     -2.05159304e-01     
H    -5.61593284e+00     -1.79525051e+00     -8.52447202e-01     
H    -4.10755568e+00     -1.72392257e+00     -5.75798466e-01     
O    2.51814719e+00      1.26070339e+00      4.25179937e-01      
H    2.65799764e+00      2.20772694e+00      5.00002166e-01      
H    3.39277923e+00      8.83885104e-01      3.10248961e-01      
29
3890.234536
N    3.62486075e-02      -1.76018926e-03     5.67610643e-02      
H    7.06760116e-02      -8.57859229e-01     -5.36632212e-01     
H    9.57400622e-01      4.72826000e-01      6.18019525e-02      
H    -6.96311634e-01     6.53332929e-01      -3.04701331e-01     
C    -3.16458188e-01     -3.65178521e-01     1.44195612e+00      
H    4.19910039e-01      -1.05350095e+00     1.84647384e+00      
H    -3.41512929e-01     5.31606226e-01      2.05345790e+00      
C    -1.68161014e+00     -1.03038618e+00     1.41355694e+00      
O    -2.20246248e+00     -1.42802599e+00     3.86587668e-01      
O    -2.17562952e+00     -1.11239249e+00     2.62938768e+00      
H    -3.10684315e+00     -1.49843793e+00     2.58482337e+00      
O    -1.92774832e+00     1.80203745e+00      -3.98695112e-01     
H    -2.81889919e+00     1.63060840e+00      -4.45669977e-02     
H    -2.01023042e+00     2.54679225e+00      -9.94568792e-01     
O    1.88643944e-01      -2.51611543e+00     -1.09704307e+00     
H    -6.69246440e-01     -2.92521360e+00     -1.04927088e+00     
H    6.45551649e-01      -2.94013713e+00     -1.83815823e+00     
O    -4.35357897e+00     1.12552266e+00      6.92367092e-01      
H    -4.64316487e+00     1.30362599e+00      1.48060999e+00      
H    -4.76679238e+00     2.48188611e-01      4.35388411e-01      
O    -4.63262607e+00     -1.96631730e+00     2.52692198e+00      
H    -4.97622366e+00     -2.07287821e+00     1.62490453e+00      
H    -5.04851242e+00     -2.63423076e+00     3.07541513e+00      
O    -5.02472813e+00     -1.53686524e+00     -2.05395226e-01     
H    -5.60900408e+00     -1.79225949e+00     -8.44897041e-01     
H    -4.09837516e+00     -1.72585905e+00     -5.79646504e-01     
O    2.51815442e+00      1.26069506e+00      4.25178648e-01      
H    2.65801085e+00      2.20780865e+00      5.00007524e-01      
H    3.39265431e+00      8.83937844e-01      3.10264060e-01      
29
3890.234536
N    3.62626574e-02      -1.74682645e-03     5.67651244e-02      
H    7.06142855e-02      -8.57923431e-01     -5.36660716e-01     
H    9.57293122e-01      4.72760141e-01      6.17973971e-02      
H    -6.96331781e-01     6.53270643e-01      -3.04711194e-01     
C    -3.16463205e-01     -3.65180063e-01     1.44195503e+00      
H    4.19928380e-01      -1.05351932e+00     1.84646805e+00      
H    -3.41507813e-01     5.31625132e-01      2.05345083e+00      
C    -1.68161183e+00     -1.03039008e+00     1.41354047e+00      
O    -2.20245803e+00     -1.42802222e+00     3.86595544e-01      
O    -2.17563565e+00     -1.11239353e+00     2.62939425e+00      
H    -3.10678293e+00     -1.49843133e+00     2.58482077e+00      
O    -1.92774853e+00     1.80204721e+00      -3.98701683e-01     
H    -2.81888388e+00     1.63062142e+00      -4.45535559e-02     
H    -2.01022601e+00     2.54665417e+00      -9.94458586e-01     
O    1.88504474e-01      -2.51612371e+00     -1.09696912e+00     
H    -6.67686190e-01     -2.92444302e+00     -1.04936156e+00     
H    6.46206120e-01      -2.94076160e+00     -1.83923954e+00     
O    -4.35377212e+00     1.12617200e+00      6.93538281e-01      
H    -4.63707274e+00     1.29934020e+00      1.46338824e+00      
H    -4.76983892e+00     2.42170772e-01      4.34028908e-01      
O    -4.63262256e+00     -1.96633039e+00     2.52698021e+00      
H    -4.97648845e+00     -2.07292818e+00     1.62420708e+00      
H    -5.04832338e+00     -2.63395207e+00     3.07518506e+00      
O    -5.02574088e+00     -1.53693473e+00     -2.05631148e-01     
H    -5.60207531e+00     -1.78926847e+00     -8.37346880e-01     
H    -4.08919463e+00     -1.72779553e+00     -5.83494542e-01     
O    2.51816164e+00      1.26068672e+00      4.25177360e-01      
H    2.65802407e+00      2.20789035e+00      5.00012882e-01      
H    3.39252939e+00      8.83990585e-01      3.10279158e-01      
29
3890.234536
N    3.62907572e-02      -1.72010082e-03     5.67732446e-02      
H    7.04908332e-02      -8.58051834e-01     -5.36717725e-01     
H    9.57078122e-01      4.72628424e-01      6.17882862e-02      
H    -6.96372073e-01     6.53146072e-01      -3.04730921e-01     
C    -3.16473239e-01     -3.65183147e-01     1.44195284e+00      
H    4.19965062e-01      -1.05355605e+00     1.84645648e+00      
H    -3.41497582e-01     5.31662946e-01      2.05343668e+00      
C    -1.68161520e+00     -1.03039786e+00     1.41350753e+00      
O    -2.20244914e+00     -1.42801468e+00     3.86611295e-01      
O    -2.17564793e+00     -1.11239563e+00     2.62940738e+00      
H    -3.10666249e+00     -1.49841813e+00     2.58481558e+00      
O    -1.92774893e+00     1.80206674e+00      -3.98714825e-01     
H    -2.81885326e+00     1.63064746e+00      -4.45266721e-02     
H    -2.01021719e+00     2.54637801e+00      -9.94238172e-01     
O    1.88225532e-01      -2.51614028e+00     -1.09682121e+00     
H    -6.64565689e-01     -2.92290185e+00     -1.04954292e+00     
H    6.47515063e-01      -2.94201056e+00     -1.84140215e+00     
O    -4.35415842e+00     1.12747067e+00      6.95880658e-01      
H    -4.62488848e+00     1.29076861e+00      1.42894474e+00      
H    -4.77593199e+00     2.30135093e-01      4.31309903e-01      
O    -4.63261554e+00     -1.96635658e+00     2.52709666e+00      
H    -4.97701801e+00     -2.07302814e+00     1.62281217e+00      
H    -5.04794529e+00     -2.63339470e+00     3.07472493e+00      
O    -5.02776637e+00     -1.53707373e+00     -2.06102992e-01     
H    -5.58821778e+00     -1.78328642e+00     -8.22246559e-01     
H    -4.07083359e+00     -1.73166850e+00     -5.91190617e-01     
O    2.51817610e+00      1.26067005e+00      4.25174783e-01      
H    2.65805050e+00      2.20805377e+00      5.00023598e-01      
H    3.39227955e+00      8.84096066e-01      3.10309355e-01      
