29
3906.092589
N    3.61525256e-02      -1.75229558e-03     5.67375887e-02      
H    7.11607992e-02      -8.57759987e-01     -5.36607125e-01     
H    9.57699408e-01      4.73477595e-01      6.19206517e-02      
H    -6.95916531e-01     6.53073894e-01      -3.04502407e-01     
C    -3.16434411e-01     -3.65168156e-01     1.44196091e+00      
H    4.19872723e-01      -1.05348519e+00     1.84649691e+00      
H    -3.41534510e-01     5.31427887e-01      2.05346972e+00      
C    -1.68160732e+00     -1.03037486e+00     1.41361948e+00      
O    -2.20247690e+00     -1.42803627e+00     3.86557847e-01      
O    -2.17560409e+00     -1.11238725e+00     2.62936298e+00      
H    -3.10710937e+00     -1.49847657e+00     2.58483445e+00      
O    -1.92772098e+00     1.80199979e+00      -3.98673553e-01     
H    -2.81934624e+00     1.63047260e+00      -4.45063418e-02     
H    -2.01030515e+00     2.54739448e+00      -9.95076676e-01     
O    1.91831823e-01      -2.51592834e+00     -1.09872019e+00     
H    -7.05219182e-01     -2.94250712e+00     -1.04712785e+00     
H    6.30803939e-01      -2.92599195e+00     -1.81369709e+00     
O    -4.35262325e+00     1.12234149e+00      6.86609012e-01      
H    -4.67313829e+00     1.32469900e+00      1.56533101e+00      
H    -4.75188539e+00     2.77597522e-01      4.42017053e-01      
O    -4.63264612e+00     -1.96625818e+00     2.52665022e+00      
H    -4.97496067e+00     -2.07266274e+00     1.62821181e+00      
H    -5.04936195e+00     -2.63548747e+00     3.07644026e+00      
O    -5.02006852e+00     -1.53653606e+00     -2.04293070e-01     
H    -5.64108094e+00     -1.80610215e+00     -8.79831655e-01     
H    -4.14039429e+00     -1.71702150e+00     -5.62007505e-01     
O    2.51149901e+00      1.27272313e+00      4.26898972e-01      
H    2.63756810e+00      2.07069162e+00      4.89099033e-01      
H    3.51887556e+00      8.29781519e-01      2.93808353e-01      
29
3906.092589
N    3.61589836e-02      -1.77097252e-03     5.67383824e-02      
H    7.11167600e-02      -8.57704545e-01     -5.36577766e-01     
H    9.57759086e-01      4.73397020e-01      6.18966712e-02      
H    -6.95990124e-01     6.53216509e-01      -3.04539809e-01     
C    -3.16434084e-01     -3.65168820e-01     1.44196108e+00      
H    4.19859125e-01      -1.05346617e+00     1.84649837e+00      
H    -3.41535509e-01     5.31448839e-01      2.05347561e+00      
C    -1.68160592e+00     -1.03037283e+00     1.41362444e+00      
O    -2.20247886e+00     -1.42803841e+00     3.86555458e-01      
O    -2.17560278e+00     -1.11238725e+00     2.62936095e+00      
H    -3.10711809e+00     -1.49847516e+00     2.58483492e+00      
O    -1.92772756e+00     1.80199700e+00      -3.98670729e-01     
H    -2.81925362e+00     1.63049027e+00      -4.45383082e-02     
H    -2.01029198e+00     2.54741652e+00      -9.95087463e-01     
O    1.91209192e-01      -2.51596476e+00     -1.09839335e+00     
H    -6.98176310e-01     -2.93914698e+00     -1.04755025e+00     
H    6.33672777e-01      -2.92874764e+00     -1.81846075e+00     
O    -4.35262074e+00     1.12232511e+00      6.86584546e-01      
H    -4.67326010e+00     1.32478799e+00      1.56567794e+00      
H    -4.75180397e+00     2.77767593e-01      4.42059271e-01      
O    -4.63264550e+00     -1.96625659e+00     2.52664538e+00      
H    -4.97494544e+00     -2.07265414e+00     1.62825681e+00      
H    -5.04938587e+00     -2.63552164e+00     3.07647156e+00      
O    -5.01996749e+00     -1.53653148e+00     -2.04273707e-01     
H    -5.64172268e+00     -1.80638027e+00     -8.80535703e-01     
H    -4.14136515e+00     -1.71681029e+00     -5.61607208e-01     
O    2.51315382e+00      1.26972654e+00      4.26470502e-01      
H    2.64266226e+00      2.10486874e+00      4.91819458e-01      
H    3.48747640e+00      8.43254674e-01      2.97903407e-01      
29
3906.092589
N    3.61622127e-02      -1.78031099e-03     5.67387793e-02      
H    7.10947404e-02      -8.57676824e-01     -5.36563087e-01     
H    9.57788926e-01      4.73356732e-01      6.18846810e-02      
H    -6.96026920e-01     6.53287817e-01      -3.04558510e-01     
C    -3.16433920e-01     -3.65169152e-01     1.44196116e+00      
H    4.19852327e-01      -1.05345666e+00     1.84649911e+00      
H    -3.41536008e-01     5.31459314e-01      2.05347855e+00      
C    -1.68160522e+00     -1.03037181e+00     1.41362691e+00      
O    -2.20247983e+00     -1.42803949e+00     3.86554263e-01      
O    -2.17560212e+00     -1.11238725e+00     2.62935993e+00      
H    -3.10712245e+00     -1.49847446e+00     2.58483516e+00      
O    -1.92773086e+00     1.80199560e+00      -3.98669317e-01     
H    -2.81920730e+00     1.63049911e+00      -4.45542913e-02     
H    -2.01028539e+00     2.54742755e+00      -9.95092857e-01     
O    1.90897877e-01      -2.51598296e+00     -1.09822994e+00     
H    -6.94654873e-01     -2.93746690e+00     -1.04776146e+00     
H    6.35107196e-01      -2.93012549e+00     -1.82084257e+00     
O    -4.35261948e+00     1.12231692e+00      6.86572313e-01      
H    -4.67332100e+00     1.32483248e+00      1.56585141e+00      
H    -4.75176326e+00     2.77852629e-01      4.42080380e-01      
O    -4.63264519e+00     -1.96625580e+00     2.52664296e+00      
H    -4.97493782e+00     -2.07264983e+00     1.62827930e+00      
H    -5.04939783e+00     -2.63553873e+00     3.07648721e+00      
O    -5.01991697e+00     -1.53652920e+00     -2.04264025e-01     
H    -5.64204355e+00     -1.80651932e+00     -8.80887726e-01     
H    -4.14185059e+00     -1.71670468e+00     -5.61407059e-01     
O    2.51398123e+00      1.26822824e+00      4.26256266e-01      
H    2.64520935e+00      2.12195730e+00      4.93179671e-01      
H    3.47177682e+00      8.49991252e-01      2.99950934e-01      
29
3906.092589
N    3.61654417e-02      -1.78964946e-03     5.67391762e-02      
H    7.10727208e-02      -8.57649103e-01     -5.36548408e-01     
H    9.57818765e-01      4.73316445e-01      6.18726907e-02      
H    -6.96063717e-01     6.53359125e-01      -3.04577211e-01     
C    -3.16433757e-01     -3.65169483e-01     1.44196125e+00      
H    4.19845528e-01      -1.05344715e+00     1.84649984e+00      
H    -3.41536508e-01     5.31469790e-01      2.05348149e+00      
C    -1.68160452e+00     -1.03037079e+00     1.41362939e+00      
O    -2.20248081e+00     -1.42804056e+00     3.86553068e-01      
O    -2.17560146e+00     -1.11238724e+00     2.62935891e+00      
H    -3.10712681e+00     -1.49847375e+00     2.58483540e+00      
O    -1.92773415e+00     1.80199421e+00      -3.98667906e-01     
H    -2.81916099e+00     1.63050795e+00      -4.45702745e-02     
H    -2.01027881e+00     2.54743857e+00      -9.95098251e-01     
O    1.90586561e-01      -2.51600117e+00     -1.09806652e+00     
H    -6.91133437e-01     -2.93578683e+00     -1.04797266e+00     
H    6.36541616e-01      -2.93150334e+00     -1.82322440e+00     
O    -4.35261823e+00     1.12230873e+00      6.86560081e-01      
H    -4.67338190e+00     1.32487698e+00      1.56602487e+00      
H    -4.75172254e+00     2.77937665e-01      4.42101489e-01      
O    -4.63264487e+00     -1.96625500e+00     2.52664054e+00      
H    -4.97493021e+00     -2.07264553e+00     1.62830180e+00      
H    -5.04940980e+00     -2.63555582e+00     3.07650286e+00      
O    -5.01986646e+00     -1.53652691e+00     -2.04254343e-01     
H    -5.64236442e+00     -1.80665838e+00     -8.81239750e-01     
H    -4.14233602e+00     -1.71659907e+00     -5.61206910e-01     
O    2.51480864e+00      1.26672994e+00      4.26042031e-01      
H    2.64775643e+00      2.13904587e+00      4.94539884e-01      
H    3.45607723e+00      8.56727830e-01      3.01998461e-01      
29
3906.092589
N    3.61686707e-02      -1.79898793e-03     5.67395731e-02      
H    7.10507012e-02      -8.57621382e-01     -5.36533729e-01     
H    9.57848604e-01      4.73276157e-01      6.18607005e-02      
H    -6.96100513e-01     6.53430433e-01      -3.04595911e-01     
C    -3.16433593e-01     -3.65169815e-01     1.44196133e+00      
H    4.19838729e-01      -1.05343764e+00     1.84650058e+00      
H    -3.41537007e-01     5.31480265e-01      2.05348443e+00      
C    -1.68160382e+00     -1.03036977e+00     1.41363187e+00      
O    -2.20248179e+00     -1.42804163e+00     3.86551874e-01      
O    -2.17560080e+00     -1.11238724e+00     2.62935789e+00      
H    -3.10713117e+00     -1.49847305e+00     2.58483563e+00      
O    -1.92773744e+00     1.80199281e+00      -3.98666494e-01     
H    -2.81911467e+00     1.63051679e+00      -4.45862577e-02     
H    -2.01027222e+00     2.54744959e+00      -9.95103645e-01     
O    1.90275246e-01      -2.51601938e+00     -1.09790310e+00     
H    -6.87612001e-01     -2.93410675e+00     -1.04818386e+00     
H    6.37976035e-01      -2.93288119e+00     -1.82560623e+00     
O    -4.35261697e+00     1.12230053e+00      6.86547848e-01      
H    -4.67344280e+00     1.32492147e+00      1.56619834e+00      
H    -4.75168183e+00     2.78022701e-01      4.42122598e-01      
O    -4.63264456e+00     -1.96625421e+00     2.52663812e+00      
H    -4.97492259e+00     -2.07264123e+00     1.62832430e+00      
H    -5.04942176e+00     -2.63557291e+00     3.07651851e+00      
O    -5.01981594e+00     -1.53652462e+00     -2.04244661e-01     
H    -5.64268530e+00     -1.80679743e+00     -8.81591774e-01     
H    -4.14282146e+00     -1.71649346e+00     -5.61006761e-01     
O    2.51563605e+00      1.26523164e+00      4.25827796e-01      
H    2.65030352e+00      2.15613443e+00      4.95900097e-01      
H    3.44037765e+00      8.63464408e-01      3.04045988e-01      
29
3906.092589
N    3.61718997e-02      -1.80832640e-03     5.67399700e-02      
H    7.10286816e-02      -8.57593662e-01     -5.36519049e-01     
H    9.57878443e-01      4.73235869e-01      6.18487102e-02      
H    -6.96137310e-01     6.53501740e-01      -3.04614612e-01     
C    -3.16433430e-01     -3.65170147e-01     1.44196141e+00      
H    4.19831930e-01      -1.05342813e+00     1.84650131e+00      
H    -3.41537507e-01     5.31490741e-01      2.05348738e+00      
C    -1.68160312e+00     -1.03036876e+00     1.41363435e+00      
O    -2.20248277e+00     -1.42804270e+00     3.86550679e-01      
O    -2.17560015e+00     -1.11238724e+00     2.62935688e+00      
H    -3.10713553e+00     -1.49847235e+00     2.58483587e+00      
O    -1.92774073e+00     1.80199141e+00      -3.98665082e-01     
H    -2.81906836e+00     1.63052562e+00      -4.46022409e-02     
H    -2.01026564e+00     2.54746061e+00      -9.95109039e-01     
O    1.89963930e-01      -2.51603759e+00     -1.09773968e+00     
H    -6.84090565e-01     -2.93242668e+00     -1.04839506e+00     
H    6.39410454e-01      -2.93425904e+00     -1.82798806e+00     
O    -4.35261572e+00     1.12229234e+00      6.86535615e-01      
H    -4.67350371e+00     1.32496596e+00      1.56637181e+00      
H    -4.75164112e+00     2.78107737e-01      4.42143706e-01      
O    -4.63264425e+00     -1.96625342e+00     2.52663570e+00      
H    -4.97491498e+00     -2.07263693e+00     1.62834680e+00      
H    -5.04943372e+00     -2.63559000e+00     3.07653416e+00      
O    -5.01976542e+00     -1.53652233e+00     -2.04234980e-01     
H    -5.64300617e+00     -1.80693649e+00     -8.81943798e-01     
H    -4.14330689e+00     -1.71638786e+00     -5.60806613e-01     
O    2.51646346e+00      1.26373334e+00      4.25613561e-01      
H    2.65285060e+00      2.17322299e+00      4.97260309e-01      
H    3.42467807e+00      8.70200985e-01      3.06093514e-01      
29
3906.092589
N    3.61735143e-02      -1.81299564e-03     5.67401685e-02      
H    7.10176718e-02      -8.57579801e-01     -5.36511710e-01     
H    9.57893363e-01      4.73215726e-01      6.18427151e-02      
H    -6.96155708e-01     6.53537394e-01      -3.04623963e-01     
C    -3.16433348e-01     -3.65170313e-01     1.44196145e+00      
H    4.19828531e-01      -1.05342338e+00     1.84650168e+00      
H    -3.41537757e-01     5.31495979e-01      2.05348885e+00      
C    -1.68160277e+00     -1.03036825e+00     1.41363558e+00      
O    -2.20248325e+00     -1.42804324e+00     3.86550082e-01      
O    -2.17559982e+00     -1.11238724e+00     2.62935637e+00      
H    -3.10713771e+00     -1.49847200e+00     2.58483599e+00      
O    -1.92774238e+00     1.80199071e+00      -3.98664377e-01     
H    -2.81904520e+00     1.63053004e+00      -4.46102324e-02     
H    -2.01026235e+00     2.54746613e+00      -9.95111736e-01     
O    1.89808272e-01      -2.51604670e+00     -1.09765797e+00     
H    -6.82329847e-01     -2.93158664e+00     -1.04850067e+00     
H    6.40127663e-01      -2.93494797e+00     -1.82917897e+00     
O    -4.35261509e+00     1.12228825e+00      6.86529499e-01      
H    -4.67353416e+00     1.32498821e+00      1.56645854e+00      
H    -4.75162077e+00     2.78150255e-01      4.42154261e-01      
O    -4.63264409e+00     -1.96625302e+00     2.52663449e+00      
H    -4.97491117e+00     -2.07263477e+00     1.62835805e+00      
H    -5.04943970e+00     -2.63559855e+00     3.07654198e+00      
O    -5.01974017e+00     -1.53652119e+00     -2.04230139e-01     
H    -5.64316660e+00     -1.80700602e+00     -8.82119809e-01     
H    -4.14354961e+00     -1.71633505e+00     -5.60706538e-01     
O    2.51687717e+00      1.26298419e+00      4.25506443e-01      
H    2.65412414e+00      2.18176727e+00      4.97940416e-01      
H    3.41682828e+00      8.73569274e-01      3.07117278e-01      
29
3906.092589
N    3.61751288e-02      -1.81766487e-03     5.67403669e-02      
H    7.10066620e-02      -8.57565941e-01     -5.36504370e-01     
H    9.57908283e-01      4.73195582e-01      6.18367200e-02      
H    -6.96174106e-01     6.53573048e-01      -3.04633313e-01     
C    -3.16433266e-01     -3.65170479e-01     1.44196150e+00      
H    4.19825132e-01      -1.05341862e+00     1.84650205e+00      
H    -3.41538006e-01     5.31501216e-01      2.05349032e+00      
C    -1.68160242e+00     -1.03036774e+00     1.41363682e+00      
O    -2.20248374e+00     -1.42804378e+00     3.86549485e-01      
O    -2.17559949e+00     -1.11238724e+00     2.62935586e+00      
H    -3.10713989e+00     -1.49847164e+00     2.58483610e+00      
O    -1.92774403e+00     1.80199002e+00      -3.98663671e-01     
H    -2.81902204e+00     1.63053446e+00      -4.46182240e-02     
H    -2.01025905e+00     2.54747164e+00      -9.95114433e-01     
O    1.89652615e-01      -2.51605580e+00     -1.09757626e+00     
H    -6.80569129e-01     -2.93074660e+00     -1.04860627e+00     
H    6.40844873e-01      -2.93563689e+00     -1.83036988e+00     
O    -4.35261446e+00     1.12228415e+00      6.86523383e-01      
H    -4.67356461e+00     1.32501046e+00      1.56654527e+00      
H    -4.75160041e+00     2.78192773e-01      4.42164815e-01      
O    -4.63264393e+00     -1.96625262e+00     2.52663328e+00      
H    -4.97490736e+00     -2.07263262e+00     1.62836930e+00      
H    -5.04944568e+00     -2.63560709e+00     3.07654981e+00      
O    -5.01971491e+00     -1.53652005e+00     -2.04225298e-01     
H    -5.64332704e+00     -1.80707554e+00     -8.82295821e-01     
H    -4.14379233e+00     -1.71628225e+00     -5.60606464e-01     
O    2.51729087e+00      1.26223504e+00      4.25399325e-01      
H    2.65539769e+00      2.19031155e+00      4.98620522e-01      
H    3.40897849e+00      8.76937563e-01      3.08141041e-01      
29
3906.092589
N    3.61815868e-02      -1.83634181e-03     5.67411607e-02      
H    7.09626228e-02      -8.57510499e-01     -5.36475012e-01     
H    9.57967961e-01      4.73115006e-01      6.18127394e-02      
H    -6.96247700e-01     6.53715664e-01      -3.04670715e-01     
C    -3.16432940e-01     -3.65171143e-01     1.44196166e+00      
H    4.19811534e-01      -1.05339960e+00     1.84650351e+00      
H    -3.41539006e-01     5.31522168e-01      2.05349620e+00      
C    -1.68160102e+00     -1.03036570e+00     1.41364178e+00      
O    -2.20248570e+00     -1.42804592e+00     3.86547095e-01      
O    -2.17559817e+00     -1.11238724e+00     2.62935382e+00      
H    -3.10714861e+00     -1.49847024e+00     2.58483658e+00      
O    -1.92775061e+00     1.80198722e+00      -3.98660847e-01     
H    -2.81892942e+00     1.63055214e+00      -4.46501904e-02     
H    -2.01024589e+00     2.54749368e+00      -9.95125221e-01     
O    1.89029983e-01      -2.51609222e+00     -1.09724942e+00     
H    -6.73526257e-01     -2.92738646e+00     -1.04902867e+00     
H    6.43713711e-01      -2.93839259e+00     -1.83513354e+00     
O    -4.35261196e+00     1.12226777e+00      6.86498917e-01      
H    -4.67368641e+00     1.32509944e+00      1.56689221e+00      
H    -4.75151899e+00     2.78362845e-01      4.42207033e-01      
O    -4.63264331e+00     -1.96625104e+00     2.52662844e+00      
H    -4.97489214e+00     -2.07262402e+00     1.62841430e+00      
H    -5.04946960e+00     -2.63564127e+00     3.07658111e+00      
O    -5.01961387e+00     -1.53651547e+00     -2.04205934e-01     
H    -5.64396878e+00     -1.80735366e+00     -8.82999869e-01     
H    -4.14476319e+00     -1.71607103e+00     -5.60206166e-01     
O    2.51894569e+00      1.25923844e+00      4.24970855e-01      
H    2.66049185e+00      2.22448867e+00      5.01340948e-01      
H    3.37757933e+00      8.90410719e-01      3.12236095e-01      
29
3906.092589
N    3.61832013e-02      -1.84101104e-03     5.67413591e-02      
H    7.09516130e-02      -8.57496639e-01     -5.36467672e-01     
H    9.57982881e-01      4.73094862e-01      6.18067443e-02      
H    -6.96266098e-01     6.53751318e-01      -3.04680065e-01     
C    -3.16432858e-01     -3.65171309e-01     1.44196171e+00      
H    4.19808135e-01      -1.05339484e+00     1.84650388e+00      
H    -3.41539255e-01     5.31527405e-01      2.05349767e+00      
C    -1.68160067e+00     -1.03036519e+00     1.41364302e+00      
O    -2.20248619e+00     -1.42804646e+00     3.86546498e-01      
O    -2.17559784e+00     -1.11238724e+00     2.62935331e+00      
H    -3.10715079e+00     -1.49846988e+00     2.58483669e+00      
O    -1.92775226e+00     1.80198653e+00      -3.98660141e-01     
H    -2.81890626e+00     1.63055656e+00      -4.46581820e-02     
H    -2.01024259e+00     2.54749919e+00      -9.95127918e-01     
O    1.88874326e-01      -2.51610132e+00     -1.09716771e+00     
H    -6.71765539e-01     -2.92654642e+00     -1.04913427e+00     
H    6.44430921e-01      -2.93908151e+00     -1.83632445e+00     
O    -4.35261133e+00     1.12226367e+00      6.86492801e-01      
H    -4.67371686e+00     1.32512169e+00      1.56697894e+00      
H    -4.75149863e+00     2.78405363e-01      4.42217587e-01      
O    -4.63264315e+00     -1.96625064e+00     2.52662723e+00      
H    -4.97488833e+00     -2.07262187e+00     1.62842555e+00      
H    -5.04947558e+00     -2.63564981e+00     3.07658894e+00      
O    -5.01958861e+00     -1.53651433e+00     -2.04201093e-01     
H    -5.64412922e+00     -1.80742318e+00     -8.83175881e-01     
H    -4.14500591e+00     -1.71601823e+00     -5.60106092e-01     
O    2.51935939e+00      1.25848929e+00      4.24863737e-01      
H    2.66176540e+00      2.23303295e+00      5.02021054e-01      
H    3.36972954e+00      8.93779008e-01      3.13259858e-01      
29
3906.092589
N    3.61848159e-02      -1.84568028e-03     5.67415576e-02      
H    7.09406032e-02      -8.57482778e-01     -5.36460333e-01     
H    9.57997801e-01      4.73074719e-01      6.18007492e-02      
H    -6.96284496e-01     6.53786972e-01      -3.04689416e-01     
C    -3.16432776e-01     -3.65171475e-01     1.44196175e+00      
H    4.19804736e-01      -1.05339009e+00     1.84650425e+00      
H    -3.41539505e-01     5.31532643e-01      2.05349914e+00      
C    -1.68160032e+00     -1.03036468e+00     1.41364425e+00      
O    -2.20248667e+00     -1.42804700e+00     3.86545901e-01      
O    -2.17559751e+00     -1.11238724e+00     2.62935280e+00      
H    -3.10715297e+00     -1.49846953e+00     2.58483681e+00      
O    -1.92775391e+00     1.80198583e+00      -3.98659436e-01     
H    -2.81888310e+00     1.63056098e+00      -4.46661735e-02     
H    -2.01023930e+00     2.54750471e+00      -9.95130615e-01     
O    1.88718668e-01      -2.51611043e+00     -1.09708600e+00     
H    -6.70004821e-01     -2.92570638e+00     -1.04923988e+00     
H    6.45148130e-01      -2.93977044e+00     -1.83751536e+00     
O    -4.35261070e+00     1.12225958e+00      6.86486685e-01      
H    -4.67374731e+00     1.32514394e+00      1.56706567e+00      
H    -4.75147828e+00     2.78447881e-01      4.42228142e-01      
O    -4.63264299e+00     -1.96625024e+00     2.52662602e+00      
H    -4.97488452e+00     -2.07261971e+00     1.62843680e+00      
H    -5.04948156e+00     -2.63565836e+00     3.07659676e+00      
O    -5.01956336e+00     -1.53651319e+00     -2.04196252e-01     
H    -5.64428965e+00     -1.80749271e+00     -8.83351892e-01     
H    -4.14524863e+00     -1.71596542e+00     -5.60006017e-01     
O    2.51977310e+00      1.25774014e+00      4.24756619e-01      
H    2.66303894e+00      2.24157723e+00      5.02701161e-01      
H    3.36187975e+00      8.97147297e-01      3.14283622e-01      
29
3906.092589
N    3.61880449e-02      -1.85501875e-03     5.67419545e-02      
H    7.09185836e-02      -8.57455058e-01     -5.36445653e-01     
H    9.58027640e-01      4.73034431e-01      6.17887589e-02      
H    -6.96321293e-01     6.53858279e-01      -3.04708117e-01     
C    -3.16432613e-01     -3.65171807e-01     1.44196183e+00      
H    4.19797937e-01      -1.05338058e+00     1.84650498e+00      
H    -3.41540005e-01     5.31543119e-01      2.05350209e+00      
C    -1.68159962e+00     -1.03036367e+00     1.41364673e+00      
O    -2.20248765e+00     -1.42804807e+00     3.86544706e-01      
O    -2.17559686e+00     -1.11238724e+00     2.62935179e+00      
H    -3.10715733e+00     -1.49846883e+00     2.58483705e+00      
O    -1.92775720e+00     1.80198443e+00      -3.98658024e-01     
H    -2.81883679e+00     1.63056981e+00      -4.46821567e-02     
H    -2.01023272e+00     2.54751573e+00      -9.95136009e-01     
O    1.88407352e-01      -2.51612864e+00     -1.09692258e+00     
H    -6.66483385e-01     -2.92402631e+00     -1.04945108e+00     
H    6.46582549e-01      -2.94114829e+00     -1.83989719e+00     
O    -4.35260945e+00     1.12225139e+00      6.86474452e-01      
H    -4.67380822e+00     1.32518843e+00      1.56723914e+00      
H    -4.75143757e+00     2.78532917e-01      4.42249250e-01      
O    -4.63264268e+00     -1.96624945e+00     2.52662360e+00      
H    -4.97487691e+00     -2.07261541e+00     1.62845930e+00      
H    -5.04949352e+00     -2.63567545e+00     3.07661241e+00      
O    -5.01951284e+00     -1.53651090e+00     -2.04186571e-01     
H    -5.64461052e+00     -1.80763177e+00     -8.83703916e-01     
H    -4.14573406e+00     -1.71585982e+00     -5.59805869e-01     
O    2.52060051e+00      1.25624184e+00      4.24542384e-01      
H    2.66558602e+00      2.25866579e+00      5.04061373e-01      
H    3.34618017e+00      9.03883874e-01      3.16331148e-01      
29
3906.092589
N    3.61912739e-02      -1.86435722e-03     5.67423514e-02      
H    7.08965640e-02      -8.57427337e-01     -5.36430974e-01     
H    9.58057479e-01      4.72994143e-01      6.17767687e-02      
H    -6.96358089e-01     6.53929587e-01      -3.04726817e-01     
C    -3.16432449e-01     -3.65172139e-01     1.44196191e+00      
H    4.19791138e-01      -1.05337107e+00     1.84650572e+00      
H    -3.41540504e-01     5.31553594e-01      2.05350503e+00      
C    -1.68159892e+00     -1.03036265e+00     1.41364921e+00      
O    -2.20248863e+00     -1.42804914e+00     3.86543512e-01      
O    -2.17559620e+00     -1.11238724e+00     2.62935077e+00      
H    -3.10716169e+00     -1.49846813e+00     2.58483728e+00      
O    -1.92776049e+00     1.80198303e+00      -3.98656612e-01     
H    -2.81879047e+00     1.63057865e+00      -4.46981399e-02     
H    -2.01022613e+00     2.54752675e+00      -9.95141403e-01     
O    1.88096037e-01      -2.51614685e+00     -1.09675916e+00     
H    -6.62961949e-01     -2.92234623e+00     -1.04966228e+00     
H    6.48016968e-01      -2.94252614e+00     -1.84227902e+00     
O    -4.35260819e+00     1.12224319e+00      6.86462219e-01      
H    -4.67386912e+00     1.32523292e+00      1.56741261e+00      
H    -4.75139686e+00     2.78617953e-01      4.42270359e-01      
O    -4.63264237e+00     -1.96624866e+00     2.52662118e+00      
H    -4.97486929e+00     -2.07261111e+00     1.62848180e+00      
H    -5.04950548e+00     -2.63569254e+00     3.07662806e+00      
O    -5.01946232e+00     -1.53650861e+00     -2.04176889e-01     
H    -5.64493140e+00     -1.80777082e+00     -8.84055940e-01     
H    -4.14621950e+00     -1.71575421e+00     -5.59605720e-01     
O    2.52142792e+00      1.25474354e+00      4.24328149e-01      
H    2.66813311e+00      2.27575435e+00      5.05421586e-01      
H    3.33048059e+00      9.10620452e-01      3.18378675e-01      
29
3906.092589
N    3.61945029e-02      -1.87369569e-03     5.67427483e-02      
H    7.08745444e-02      -8.57399616e-01     -5.36416295e-01     
H    9.58087318e-01      4.72953856e-01      6.17647784e-02      
H    -6.96394886e-01     6.54000895e-01      -3.04745518e-01     
C    -3.16432286e-01     -3.65172470e-01     1.44196200e+00      
H    4.19784339e-01      -1.05336156e+00     1.84650645e+00      
H    -3.41541004e-01     5.31564070e-01      2.05350797e+00      
C    -1.68159822e+00     -1.03036163e+00     1.41365169e+00      
O    -2.20248961e+00     -1.42805021e+00     3.86542317e-01      
O    -2.17559554e+00     -1.11238723e+00     2.62934975e+00      
H    -3.10716605e+00     -1.49846742e+00     2.58483752e+00      
O    -1.92776378e+00     1.80198164e+00      -3.98655201e-01     
H    -2.81874416e+00     1.63058749e+00      -4.47141231e-02     
H    -2.01021955e+00     2.54753777e+00      -9.95146797e-01     
O    1.87784721e-01      -2.51616506e+00     -1.09659574e+00     
H    -6.59440513e-01     -2.92066616e+00     -1.04987348e+00     
H    6.49451388e-01      -2.94390399e+00     -1.84466085e+00     
O    -4.35260694e+00     1.12223500e+00      6.86449987e-01      
H    -4.67393002e+00     1.32527742e+00      1.56758607e+00      
H    -4.75135614e+00     2.78702989e-01      4.42291468e-01      
O    -4.63264205e+00     -1.96624786e+00     2.52661876e+00      
H    -4.97486168e+00     -2.07260681e+00     1.62850430e+00      
H    -5.04951745e+00     -2.63570963e+00     3.07664371e+00      
O    -5.01941181e+00     -1.53650632e+00     -2.04167207e-01     
H    -5.64525227e+00     -1.80790988e+00     -8.84407964e-01     
H    -4.14670493e+00     -1.71564860e+00     -5.59405571e-01     
O    2.52225533e+00      1.25324524e+00      4.24113914e-01      
H    2.67068019e+00      2.29284292e+00      5.06781799e-01      
H    3.31478100e+00      9.17357030e-01      3.20426202e-01      
29
3906.092589
N    3.61977320e-02      -1.88303416e-03     5.67431452e-02      
H    7.08525248e-02      -8.57371895e-01     -5.36401616e-01     
H    9.58117158e-01      4.72913568e-01      6.17527882e-02      
H    -6.96431682e-01     6.54072203e-01      -3.04764219e-01     
C    -3.16432122e-01     -3.65172802e-01     1.44196208e+00      
H    4.19777541e-01      -1.05335205e+00     1.84650719e+00      
H    -3.41541503e-01     5.31574545e-01      2.05351091e+00      
C    -1.68159752e+00     -1.03036061e+00     1.41365416e+00      
O    -2.20249058e+00     -1.42805129e+00     3.86541122e-01      
O    -2.17559488e+00     -1.11238723e+00     2.62934873e+00      
H    -3.10717041e+00     -1.49846672e+00     2.58483776e+00      
O    -1.92776708e+00     1.80198024e+00      -3.98653789e-01     
H    -2.81869784e+00     1.63059633e+00      -4.47301062e-02     
H    -2.01021296e+00     2.54754880e+00      -9.95152191e-01     
O    1.87473406e-01      -2.51618326e+00     -1.09643233e+00     
H    -6.55919076e-01     -2.91898608e+00     -1.05008469e+00     
H    6.50885807e-01      -2.94528184e+00     -1.84704267e+00     
O    -4.35260568e+00     1.12222681e+00      6.86437754e-01      
H    -4.67399092e+00     1.32532191e+00      1.56775954e+00      
H    -4.75131543e+00     2.78788025e-01      4.42312577e-01      
O    -4.63264174e+00     -1.96624707e+00     2.52661634e+00      
H    -4.97485406e+00     -2.07260250e+00     1.62852679e+00      
H    -5.04952941e+00     -2.63572672e+00     3.07665936e+00      
O    -5.01936129e+00     -1.53650404e+00     -2.04157525e-01     
H    -5.64557314e+00     -1.80804893e+00     -8.84759987e-01     
H    -4.14719037e+00     -1.71554299e+00     -5.59205422e-01     
O    2.52308274e+00      1.25174694e+00      4.23899678e-01      
H    2.67322728e+00      2.30993148e+00      5.08142012e-01      
H    3.29908142e+00      9.24093608e-01      3.22473729e-01      
29
3906.092589
N    3.62041900e-02      -1.90171110e-03     5.67439389e-02      
H    7.08084856e-02      -8.57316453e-01     -5.36372257e-01     
H    9.58176836e-01      4.72832993e-01      6.17288077e-02      
H    -6.96505275e-01     6.54214818e-01      -3.04801621e-01     
C    -3.16431795e-01     -3.65173466e-01     1.44196225e+00      
H    4.19763943e-01      -1.05333303e+00     1.84650865e+00      
H    -3.41542502e-01     5.31595497e-01      2.05351680e+00      
C    -1.68159612e+00     -1.03035858e+00     1.41365912e+00      
O    -2.20249254e+00     -1.42805343e+00     3.86538733e-01      
O    -2.17559357e+00     -1.11238723e+00     2.62934670e+00      
H    -3.10717913e+00     -1.49846531e+00     2.58483823e+00      
O    -1.92777366e+00     1.80197745e+00      -3.98650965e-01     
H    -2.81860522e+00     1.63061400e+00      -4.47620726e-02     
H    -2.01019979e+00     2.54757084e+00      -9.95162978e-01     
O    1.86850775e-01      -2.51621968e+00     -1.09610549e+00     
H    -6.48876204e-01     -2.91562594e+00     -1.05050709e+00     
H    6.53754645e-01      -2.94803753e+00     -1.85180633e+00     
O    -4.35260317e+00     1.12221043e+00      6.86413288e-01      
H    -4.67411273e+00     1.32541090e+00      1.56810647e+00      
H    -4.75123401e+00     2.78958096e-01      4.42354795e-01      
O    -4.63264112e+00     -1.96624548e+00     2.52661150e+00      
H    -4.97483883e+00     -2.07259390e+00     1.62857179e+00      
H    -5.04955333e+00     -2.63576089e+00     3.07669066e+00      
O    -5.01926026e+00     -1.53649946e+00     -2.04138162e-01     
H    -5.64621488e+00     -1.80832705e+00     -8.85464035e-01     
H    -4.14816123e+00     -1.71533178e+00     -5.58805125e-01     
O    2.52473755e+00      1.24875035e+00      4.23471208e-01      
H    2.67832144e+00      2.34410860e+00      5.10862437e-01      
H    3.26768226e+00      9.37566763e-01      3.26568783e-01      
