29
3907.570823
N    3.63106426e-02      -1.88425107e-03     5.66570918e-02      
H    7.09760015e-02      -8.55736377e-01     -5.35521864e-01     
H    9.57062222e-01      4.72637930e-01      6.19764994e-02      
H    -6.96660923e-01     6.53543835e-01      -3.04606354e-01     
C    -3.16432611e-01     -3.65170380e-01     1.44195801e+00      
H    4.19744885e-01      -1.05348388e+00     1.84648832e+00      
H    -3.41606487e-01     5.31562599e-01      2.05346624e+00      
C    -1.68163149e+00     -1.03039745e+00     1.41356252e+00      
O    -2.20244622e+00     -1.42800990e+00     3.86587425e-01      
O    -2.17561842e+00     -1.11238941e+00     2.62938654e+00      
H    -3.10698594e+00     -1.49846446e+00     2.58481338e+00      
O    -1.92774448e+00     1.80221260e+00      -3.98843123e-01     
H    -2.81926744e+00     1.63052581e+00      -4.45982420e-02     
H    -2.00996810e+00     2.54396356e+00      -9.92281861e-01     
O    2.01487800e-01      -2.51521209e+00     -1.10361232e+00     
H    -8.16076721e-01     -2.99535360e+00     -1.04047483e+00     
H    5.87941650e-01      -2.88494279e+00     -1.74277018e+00     
O    -4.35263586e+00     1.12241734e+00      6.86720926e-01      
H    -4.67257638e+00     1.32431966e+00      1.56377660e+00      
H    -4.75226603e+00     2.76778275e-01      4.41794574e-01      
O    -4.63265939e+00     -1.96629390e+00     2.52673164e+00      
H    -4.97520373e+00     -2.07278436e+00     1.62752634e+00      
H    -5.04891832e+00     -2.63480024e+00     3.07583828e+00      
O    -5.02133016e+00     -1.53659723e+00     -2.04538470e-01     
H    -5.63301841e+00     -1.80259275e+00     -8.70991404e-01     
H    -4.12831764e+00     -1.71964242e+00     -5.66994857e-01     
O    2.51947454e+00      1.25825693e+00      4.24830402e-01      
H    2.66216890e+00      2.23576880e+00      5.02243252e-01      
H    3.36749210e+00      8.94744564e-01      3.13565292e-01      
29
3907.570823
N    3.62775714e-02      -1.86993914e-03     5.66780098e-02      
H    7.09781617e-02      -8.56186838e-01     -5.35763821e-01     
H    9.57281197e-01      4.72767271e-01      6.19385570e-02      
H    -6.96548418e-01     6.53568965e-01      -3.04617769e-01     
C    -3.16432734e-01     -3.65170488e-01     1.44195891e+00      
H    4.19763247e-01      -1.05346519e+00     1.84649193e+00      
H    -3.41589492e-01     5.31549872e-01      2.05347299e+00      
C    -1.68162405e+00     -1.03038977e+00     1.41358172e+00      
O    -2.20245584e+00     -1.42801863e+00     3.86577642e-01      
O    -2.17561352e+00     -1.11238886e+00     2.62937862e+00      
H    -3.10702552e+00     -1.49846608e+00     2.58481912e+00      
O    -1.92774519e+00     1.80215661e+00      -3.98797907e-01     
H    -2.81919451e+00     1.63053019e+00      -4.46072333e-02     
H    -2.01003919e+00     2.54484333e+00      -9.92991352e-01     
O    1.98451175e-01      -2.51542757e+00     -1.10206245e+00     
H    -7.81319464e-01     -2.97878183e+00     -1.04256049e+00     
H    6.01526061e-01      -2.89796078e+00     -1.76526556e+00     
O    -4.35263020e+00     1.12238199e+00      6.86668482e-01      
H    -4.67283867e+00     1.32450348e+00      1.56451214e+00      
H    -4.75208945e+00     2.77153159e-01      4.41892411e-01      
O    -4.63265545e+00     -1.96628338e+00     2.52670644e+00      
H    -4.97512773e+00     -2.07274535e+00     1.62774270e+00      
H    -5.04905315e+00     -2.63500622e+00     3.07602007e+00      
O    -5.02091371e+00     -1.53657736e+00     -2.04457756e-01     
H    -5.63567578e+00     -1.80374821e+00     -8.73905515e-01     
H    -4.13230767e+00     -1.71877598e+00     -5.65347722e-01     
O    2.51913548e+00      1.25887688e+00      4.24919074e-01      
H    2.66111287e+00      2.22867663e+00      5.01677623e-01      
H    3.37393880e+00      8.91976958e-01      3.12721111e-01      
29
3907.570823
N    3.62610358e-02      -1.86278317e-03     5.66884688e-02      
H    7.09792418e-02      -8.56412068e-01     -5.35884799e-01     
H    9.57390685e-01      4.72831942e-01      6.19195858e-02      
H    -6.96492166e-01     6.53581530e-01      -3.04623476e-01     
C    -3.16432796e-01     -3.65170542e-01     1.44195935e+00      
H    4.19772428e-01      -1.05345584e+00     1.84649374e+00      
H    -3.41580994e-01     5.31543509e-01      2.05347637e+00      
C    -1.68162033e+00     -1.03038593e+00     1.41359132e+00      
O    -2.20246066e+00     -1.42802300e+00     3.86572750e-01      
O    -2.17561107e+00     -1.11238859e+00     2.62937465e+00      
H    -3.10704531e+00     -1.49846689e+00     2.58482199e+00      
O    -1.92774554e+00     1.80212861e+00      -3.98775299e-01     
H    -2.81915805e+00     1.63053237e+00      -4.46117290e-02     
H    -2.01007474e+00     2.54528322e+00      -9.93346098e-01     
O    1.96932862e-01      -2.51553531e+00     -1.10128751e+00     
H    -7.63940836e-01     -2.97049595e+00     -1.04360332e+00     
H    6.08318266e-01      -2.90446977e+00     -1.77651325e+00     
O    -4.35262737e+00     1.12236432e+00      6.86642260e-01      
H    -4.67296981e+00     1.32459539e+00      1.56487990e+00      
H    -4.75200116e+00     2.77340600e-01      4.41941330e-01      
O    -4.63265348e+00     -1.96627812e+00     2.52669385e+00      
H    -4.97508974e+00     -2.07272584e+00     1.62785089e+00      
H    -5.04912056e+00     -2.63510922e+00     3.07611097e+00      
O    -5.02070549e+00     -1.53656743e+00     -2.04417400e-01     
H    -5.63700447e+00     -1.80432594e+00     -8.75362570e-01     
H    -4.13430269e+00     -1.71834275e+00     -5.64524154e-01     
O    2.51896594e+00      1.25918686e+00      4.24963410e-01      
H    2.66058485e+00      2.22513054e+00      5.01394808e-01      
H    3.37716216e+00      8.90593156e-01      3.12299021e-01      
29
3907.570823
N    3.62445002e-02      -1.85562720e-03     5.66989278e-02      
H    7.09803219e-02      -8.56637299e-01     -5.36005778e-01     
H    9.57500172e-01      4.72896612e-01      6.19006146e-02      
H    -6.96435913e-01     6.53594095e-01      -3.04629184e-01     
C    -3.16432857e-01     -3.65170596e-01     1.44195980e+00      
H    4.19781609e-01      -1.05344650e+00     1.84649555e+00      
H    -3.41572496e-01     5.31537145e-01      2.05347975e+00      
C    -1.68161661e+00     -1.03038209e+00     1.41360091e+00      
O    -2.20246547e+00     -1.42802737e+00     3.86567858e-01      
O    -2.17560862e+00     -1.11238832e+00     2.62937069e+00      
H    -3.10706510e+00     -1.49846770e+00     2.58482486e+00      
O    -1.92774590e+00     1.80210061e+00      -3.98752691e-01     
H    -2.81912158e+00     1.63053456e+00      -4.46162246e-02     
H    -2.01011028e+00     2.54572311e+00      -9.93700844e-01     
O    1.95414549e-01      -2.51564305e+00     -1.10051258e+00     
H    -7.46562207e-01     -2.96221006e+00     -1.04464615e+00     
H    6.15110471e-01      -2.91097877e+00     -1.78776094e+00     
O    -4.35262454e+00     1.12234665e+00      6.86616038e-01      
H    -4.67310095e+00     1.32468731e+00      1.56524767e+00      
H    -4.75191286e+00     2.77528042e-01      4.41990249e-01      
O    -4.63265151e+00     -1.96627286e+00     2.52668125e+00      
H    -4.97505174e+00     -2.07270634e+00     1.62795907e+00      
H    -5.04918798e+00     -2.63521221e+00     3.07620187e+00      
O    -5.02049727e+00     -1.53655750e+00     -2.04377043e-01     
H    -5.63833316e+00     -1.80490368e+00     -8.76819625e-01     
H    -4.13629770e+00     -1.71790953e+00     -5.63700586e-01     
O    2.51879641e+00      1.25949684e+00      4.25007746e-01      
H    2.66005684e+00      2.22158446e+00      5.01111993e-01      
H    3.38038551e+00      8.89209353e-01      3.11876930e-01      
29
3907.570823
N    3.62279646e-02      -1.84847124e-03     5.67093868e-02      
H    7.09814020e-02      -8.56862529e-01     -5.36126756e-01     
H    9.57609660e-01      4.72961283e-01      6.18816434e-02      
H    -6.96379661e-01     6.53606660e-01      -3.04634891e-01     
C    -3.16432919e-01     -3.65170649e-01     1.44196024e+00      
H    4.19790790e-01      -1.05343715e+00     1.84649736e+00      
H    -3.41563999e-01     5.31530782e-01      2.05348313e+00      
C    -1.68161288e+00     -1.03037824e+00     1.41361051e+00      
O    -2.20247028e+00     -1.42803174e+00     3.86562966e-01      
O    -2.17560618e+00     -1.11238805e+00     2.62936673e+00      
H    -3.10708489e+00     -1.49846851e+00     2.58482773e+00      
O    -1.92774625e+00     1.80207261e+00      -3.98730083e-01     
H    -2.81908512e+00     1.63053674e+00      -4.46207203e-02     
H    -2.01014583e+00     2.54616300e+00      -9.94055590e-01     
O    1.93896237e-01      -2.51575079e+00     -1.09973764e+00     
H    -7.29183579e-01     -2.95392418e+00     -1.04568898e+00     
H    6.21902676e-01      -2.91748776e+00     -1.79900863e+00     
O    -4.35262170e+00     1.12232898e+00      6.86589816e-01      
H    -4.67323209e+00     1.32477922e+00      1.56561544e+00      
H    -4.75182457e+00     2.77715484e-01      4.42039168e-01      
O    -4.63264953e+00     -1.96626761e+00     2.52666865e+00      
H    -4.97501374e+00     -2.07268683e+00     1.62806725e+00      
H    -5.04925539e+00     -2.63531520e+00     3.07629277e+00      
O    -5.02028905e+00     -1.53654756e+00     -2.04336686e-01     
H    -5.63966185e+00     -1.80548141e+00     -8.78276680e-01     
H    -4.13829272e+00     -1.71747631e+00     -5.62877018e-01     
O    2.51862688e+00      1.25980681e+00      4.25052082e-01      
H    2.65952882e+00      2.21803837e+00      5.00829179e-01      
H    3.38360886e+00      8.87825550e-01      3.11454840e-01      
29
3907.570823
N    3.62114290e-02      -1.84131527e-03     5.67198458e-02      
H    7.09824822e-02      -8.57087759e-01     -5.36247734e-01     
H    9.57719147e-01      4.73025953e-01      6.18626721e-02      
H    -6.96323408e-01     6.53619226e-01      -3.04640599e-01     
C    -3.16432980e-01     -3.65170703e-01     1.44196069e+00      
H    4.19799971e-01      -1.05342780e+00     1.84649916e+00      
H    -3.41555501e-01     5.31524419e-01      2.05348650e+00      
C    -1.68160916e+00     -1.03037440e+00     1.41362011e+00      
O    -2.20247509e+00     -1.42803611e+00     3.86558074e-01      
O    -2.17560373e+00     -1.11238778e+00     2.62936277e+00      
H    -3.10710467e+00     -1.49846932e+00     2.58483060e+00      
O    -1.92774661e+00     1.80204462e+00      -3.98707475e-01     
H    -2.81904866e+00     1.63053893e+00      -4.46252159e-02     
H    -2.01018138e+00     2.54660288e+00      -9.94410335e-01     
O    1.92377924e-01      -2.51585853e+00     -1.09896271e+00     
H    -7.11804950e-01     -2.94563830e+00     -1.04673181e+00     
H    6.28694882e-01      -2.92399675e+00     -1.81025633e+00     
O    -4.35261887e+00     1.12231130e+00      6.86563594e-01      
H    -4.67336323e+00     1.32487113e+00      1.56598321e+00      
H    -4.75173628e+00     2.77902926e-01      4.42088086e-01      
O    -4.63264756e+00     -1.96626235e+00     2.52665605e+00      
H    -4.97497574e+00     -2.07266733e+00     1.62817543e+00      
H    -5.04932281e+00     -2.63541819e+00     3.07638366e+00      
O    -5.02008083e+00     -1.53653763e+00     -2.04296329e-01     
H    -5.64099053e+00     -1.80605914e+00     -8.79733735e-01     
H    -4.14028773e+00     -1.71704309e+00     -5.62053451e-01     
O    2.51845735e+00      1.26011679e+00      4.25096418e-01      
H    2.65900080e+00      2.21449228e+00      5.00546364e-01      
H    3.38683221e+00      8.86441747e-01      3.11032749e-01      
29
3907.570823
N    3.62031612e-02      -1.83773729e-03     5.67250753e-02      
H    7.09830222e-02      -8.57200374e-01     -5.36308223e-01     
H    9.57773891e-01      4.73058288e-01      6.18531865e-02      
H    -6.96295282e-01     6.53625508e-01      -3.04643453e-01     
C    -3.16433011e-01     -3.65170730e-01     1.44196091e+00      
H    4.19804561e-01      -1.05342313e+00     1.84650007e+00      
H    -3.41551252e-01     5.31521237e-01      2.05348819e+00      
C    -1.68160730e+00     -1.03037248e+00     1.41362490e+00      
O    -2.20247750e+00     -1.42803830e+00     3.86555628e-01      
O    -2.17560250e+00     -1.11238765e+00     2.62936078e+00      
H    -3.10711457e+00     -1.49846973e+00     2.58483204e+00      
O    -1.92774679e+00     1.80203062e+00      -3.98696171e-01     
H    -2.81903043e+00     1.63054002e+00      -4.46274637e-02     
H    -2.01019915e+00     2.54682283e+00      -9.94587708e-01     
O    1.91618768e-01      -2.51591240e+00     -1.09857524e+00     
H    -7.03115636e-01     -2.94149536e+00     -1.04725322e+00     
H    6.32090984e-01      -2.92725125e+00     -1.81588017e+00     
O    -4.35261746e+00     1.12230247e+00      6.86550483e-01      
H    -4.67342880e+00     1.32491708e+00      1.56616709e+00      
H    -4.75169214e+00     2.77996646e-01      4.42112546e-01      
O    -4.63264658e+00     -1.96625972e+00     2.52664976e+00      
H    -4.97495675e+00     -2.07265758e+00     1.62822953e+00      
H    -5.04935652e+00     -2.63546969e+00     3.07642911e+00      
O    -5.01997672e+00     -1.53653266e+00     -2.04276151e-01     
H    -5.64165488e+00     -1.80634800e+00     -8.80462262e-01     
H    -4.14128524e+00     -1.71682647e+00     -5.61641667e-01     
O    2.51837258e+00      1.26027178e+00      4.25118586e-01      
H    2.65873680e+00      2.21271924e+00      5.00404957e-01      
H    3.38844388e+00      8.85749845e-01      3.10821704e-01      
29
3907.570823
N    3.61948934e-02      -1.83415931e-03     5.67303048e-02      
H    7.09835623e-02      -8.57312990e-01     -5.36368713e-01     
H    9.57828635e-01      4.73090624e-01      6.18437009e-02      
H    -6.96267156e-01     6.53631791e-01      -3.04646306e-01     
C    -3.16433042e-01     -3.65170757e-01     1.44196113e+00      
H    4.19809152e-01      -1.05341846e+00     1.84650097e+00      
H    -3.41547004e-01     5.31518055e-01      2.05348988e+00      
C    -1.68160544e+00     -1.03037056e+00     1.41362970e+00      
O    -2.20247991e+00     -1.42804048e+00     3.86553182e-01      
O    -2.17560128e+00     -1.11238751e+00     2.62935880e+00      
H    -3.10712446e+00     -1.49847013e+00     2.58483347e+00      
O    -1.92774696e+00     1.80201662e+00      -3.98684867e-01     
H    -2.81901219e+00     1.63054111e+00      -4.46297116e-02     
H    -2.01021692e+00     2.54704277e+00      -9.94765081e-01     
O    1.90859612e-01      -2.51596627e+00     -1.09818777e+00     
H    -6.94426322e-01     -2.93735241e+00     -1.04777464e+00     
H    6.35487087e-01      -2.93050575e+00     -1.82150402e+00     
O    -4.35261604e+00     1.12229363e+00      6.86537372e-01      
H    -4.67349437e+00     1.32496304e+00      1.56635097e+00      
H    -4.75164799e+00     2.78090367e-01      4.42137005e-01      
O    -4.63264559e+00     -1.96625709e+00     2.52664346e+00      
H    -4.97493775e+00     -2.07264782e+00     1.62828362e+00      
H    -5.04939022e+00     -2.63552119e+00     3.07647456e+00      
O    -5.01987261e+00     -1.53652769e+00     -2.04255973e-01     
H    -5.64231922e+00     -1.80663687e+00     -8.81190790e-01     
H    -4.14228275e+00     -1.71660986e+00     -5.61229883e-01     
O    2.51828781e+00      1.26042676e+00      4.25140754e-01      
H    2.65847279e+00      2.21094620e+00      5.00263550e-01      
H    3.39005556e+00      8.85057944e-01      3.10610659e-01      
29
3907.570823
N    3.61618222e-02      -1.81984737e-03     5.67512228e-02      
H    7.09857225e-02      -8.57763450e-01     -5.36610669e-01     
H    9.58047609e-01      4.73219964e-01      6.18057585e-02      
H    -6.96154650e-01     6.53656921e-01      -3.04657722e-01     
C    -3.16433164e-01     -3.65170865e-01     1.44196203e+00      
H    4.19827514e-01      -1.05339976e+00     1.84650459e+00      
H    -3.41530008e-01     5.31505329e-01      2.05349664e+00      
C    -1.68159800e+00     -1.03036288e+00     1.41364890e+00      
O    -2.20248953e+00     -1.42804922e+00     3.86543398e-01      
O    -2.17559638e+00     -1.11238697e+00     2.62935088e+00      
H    -3.10716404e+00     -1.49847175e+00     2.58483921e+00      
O    -1.92774768e+00     1.80196062e+00      -3.98639651e-01     
H    -2.81893927e+00     1.63054549e+00      -4.46387028e-02     
H    -2.01028802e+00     2.54792255e+00      -9.95474573e-01     
O    1.87822986e-01      -2.51618175e+00     -1.09663791e+00     
H    -6.59669064e-01     -2.92078065e+00     -1.04986030e+00     
H    6.49071497e-01      -2.94352373e+00     -1.84399940e+00     
O    -4.35261038e+00     1.12225829e+00      6.86484928e-01      
H    -4.67375665e+00     1.32514686e+00      1.56708651e+00      
H    -4.75147141e+00     2.78465251e-01      4.42234843e-01      
O    -4.63264165e+00     -1.96624657e+00     2.52661826e+00      
H    -4.97486175e+00     -2.07260882e+00     1.62849998e+00      
H    -5.04952506e+00     -2.63572717e+00     3.07665636e+00      
O    -5.01945617e+00     -1.53650783e+00     -2.04175259e-01     
H    -5.64497660e+00     -1.80779233e+00     -8.84104900e-01     
H    -4.14627277e+00     -1.71574342e+00     -5.59582747e-01     
O    2.51794875e+00      1.26104672e+00      4.25229426e-01      
H    2.65741675e+00      2.20385402e+00      4.99697920e-01      
H    3.39650226e+00      8.82290338e-01      3.09766477e-01      
29
3907.570823
N    3.61535544e-02      -1.81626939e-03     5.67564523e-02      
H    7.09862626e-02      -8.57876066e-01     -5.36671159e-01     
H    9.58102353e-01      4.73252300e-01      6.17962729e-02      
H    -6.96126524e-01     6.53663204e-01      -3.04660575e-01     
C    -3.16433195e-01     -3.65170892e-01     1.44196225e+00      
H    4.19832105e-01      -1.05339509e+00     1.84650549e+00      
H    -3.41525760e-01     5.31502147e-01      2.05349833e+00      
C    -1.68159614e+00     -1.03036096e+00     1.41365370e+00      
O    -2.20249194e+00     -1.42805140e+00     3.86540952e-01      
O    -2.17559516e+00     -1.11238683e+00     2.62934890e+00      
H    -3.10717393e+00     -1.49847215e+00     2.58484064e+00      
O    -1.92774785e+00     1.80194662e+00      -3.98628347e-01     
H    -2.81892103e+00     1.63054658e+00      -4.46409507e-02     
H    -2.01030579e+00     2.54814249e+00      -9.95651946e-01     
O    1.87063830e-01      -2.51623562e+00     -1.09625044e+00     
H    -6.50979750e-01     -2.91663770e+00     -1.05038172e+00     
H    6.52467600e-01      -2.94677823e+00     -1.84962325e+00     
O    -4.35260896e+00     1.12224945e+00      6.86471817e-01      
H    -4.67382222e+00     1.32519282e+00      1.56727039e+00      
H    -4.75142726e+00     2.78558972e-01      4.42259302e-01      
O    -4.63264066e+00     -1.96624394e+00     2.52661196e+00      
H    -4.97484275e+00     -2.07259906e+00     1.62855407e+00      
H    -5.04955876e+00     -2.63577867e+00     3.07670181e+00      
O    -5.01935206e+00     -1.53650286e+00     -2.04155081e-01     
H    -5.64564094e+00     -1.80808120e+00     -8.84833428e-01     
H    -4.14727028e+00     -1.71552681e+00     -5.59170963e-01     
O    2.51786398e+00      1.26120170e+00      4.25251594e-01      
H    2.65715274e+00      2.20208098e+00      4.99556513e-01      
H    3.39811394e+00      8.81598437e-01      3.09555432e-01      
29
3907.570823
N    3.61452866e-02      -1.81269141e-03     5.67616818e-02      
H    7.09868026e-02      -8.57988681e-01     -5.36731648e-01     
H    9.58157097e-01      4.73284635e-01      6.17867873e-02      
H    -6.96098398e-01     6.53669486e-01      -3.04663429e-01     
C    -3.16433226e-01     -3.65170919e-01     1.44196247e+00      
H    4.19836695e-01      -1.05339042e+00     1.84650640e+00      
H    -3.41521511e-01     5.31498965e-01      2.05350002e+00      
C    -1.68159428e+00     -1.03035904e+00     1.41365849e+00      
O    -2.20249435e+00     -1.42805359e+00     3.86538506e-01      
O    -2.17559393e+00     -1.11238670e+00     2.62934691e+00      
H    -3.10718383e+00     -1.49847256e+00     2.58484208e+00      
O    -1.92774803e+00     1.80193262e+00      -3.98617043e-01     
H    -2.81890280e+00     1.63054767e+00      -4.46431985e-02     
H    -2.01032356e+00     2.54836244e+00      -9.95829319e-01     
O    1.86304674e-01      -2.51628949e+00     -1.09586297e+00     
H    -6.42290436e-01     -2.91249476e+00     -1.05090313e+00     
H    6.55863702e-01      -2.95003273e+00     -1.85524709e+00     
O    -4.35260755e+00     1.12224062e+00      6.86458706e-01      
H    -4.67388779e+00     1.32523877e+00      1.56745427e+00      
H    -4.75138312e+00     2.78652692e-01      4.42283762e-01      
O    -4.63263968e+00     -1.96624131e+00     2.52660567e+00      
H    -4.97482376e+00     -2.07258931e+00     1.62860817e+00      
H    -5.04959247e+00     -2.63583017e+00     3.07674726e+00      
O    -5.01924795e+00     -1.53649789e+00     -2.04134903e-01     
H    -5.64630529e+00     -1.80837006e+00     -8.85561955e-01     
H    -4.14826779e+00     -1.71531019e+00     -5.58759179e-01     
O    2.51777921e+00      1.26135669e+00      4.25273762e-01      
H    2.65688874e+00      2.20030794e+00      4.99415106e-01      
H    3.39972561e+00      8.80906535e-01      3.09344387e-01      
29
3907.570823
N    3.61287510e-02      -1.80553544e-03     5.67721408e-02      
H    7.09878828e-02      -8.58213911e-01     -5.36852626e-01     
H    9.58266584e-01      4.73349305e-01      6.17678160e-02      
H    -6.96042145e-01     6.53682052e-01      -3.04669137e-01     
C    -3.16433287e-01     -3.65170973e-01     1.44196292e+00      
H    4.19845876e-01      -1.05338107e+00     1.84650820e+00      
H    -3.41513013e-01     5.31492602e-01      2.05350339e+00      
C    -1.68159056e+00     -1.03035520e+00     1.41366809e+00      
O    -2.20249916e+00     -1.42805796e+00     3.86533614e-01      
O    -2.17559148e+00     -1.11238643e+00     2.62934295e+00      
H    -3.10720361e+00     -1.49847337e+00     2.58484495e+00      
O    -1.92774839e+00     1.80190463e+00      -3.98594435e-01     
H    -2.81886634e+00     1.63054986e+00      -4.46476941e-02     
H    -2.01035911e+00     2.54880232e+00      -9.96184064e-01     
O    1.84786361e-01      -2.51639723e+00     -1.09508804e+00     
H    -6.24911807e-01     -2.90420888e+00     -1.05194596e+00     
H    6.62655908e-01      -2.95654172e+00     -1.86649479e+00     
O    -4.35260472e+00     1.12222294e+00      6.86432484e-01      
H    -4.67401893e+00     1.32533068e+00      1.56782204e+00      
H    -4.75129483e+00     2.78840134e-01      4.42332680e-01      
O    -4.63263771e+00     -1.96623605e+00     2.52659307e+00      
H    -4.97478576e+00     -2.07256981e+00     1.62871635e+00      
H    -5.04965989e+00     -2.63593316e+00     3.07683815e+00      
O    -5.01903973e+00     -1.53648796e+00     -2.04094546e-01     
H    -5.64763397e+00     -1.80894779e+00     -8.87019010e-01     
H    -4.15026280e+00     -1.71487697e+00     -5.57935612e-01     
O    2.51760968e+00      1.26166667e+00      4.25318098e-01      
H    2.65636072e+00      2.19676185e+00      4.99132291e-01      
H    3.40294896e+00      8.79522732e-01      3.08922296e-01      
29
3907.570823
N    3.61122154e-02      -1.79837948e-03     5.67825998e-02      
H    7.09889629e-02      -8.58439141e-01     -5.36973604e-01     
H    9.58376072e-01      4.73413976e-01      6.17488448e-02      
H    -6.95985893e-01     6.53694617e-01      -3.04674844e-01     
C    -3.16433349e-01     -3.65171026e-01     1.44196336e+00      
H    4.19855057e-01      -1.05337172e+00     1.84651001e+00      
H    -3.41504516e-01     5.31486239e-01      2.05350677e+00      
C    -1.68158683e+00     -1.03035135e+00     1.41367769e+00      
O    -2.20250397e+00     -1.42806233e+00     3.86528722e-01      
O    -2.17558904e+00     -1.11238616e+00     2.62933899e+00      
H    -3.10722340e+00     -1.49847418e+00     2.58484782e+00      
O    -1.92774874e+00     1.80187663e+00      -3.98571827e-01     
H    -2.81882988e+00     1.63055204e+00      -4.46521898e-02     
H    -2.01039466e+00     2.54924221e+00      -9.96538810e-01     
O    1.83268049e-01      -2.51650497e+00     -1.09431310e+00     
H    -6.07533179e-01     -2.89592300e+00     -1.05298879e+00     
H    6.69448113e-01      -2.96305071e+00     -1.87774248e+00     
O    -4.35260188e+00     1.12220527e+00      6.86406262e-01      
H    -4.67415007e+00     1.32542259e+00      1.56818981e+00      
H    -4.75120654e+00     2.79027576e-01      4.42381599e-01      
O    -4.63263573e+00     -1.96623080e+00     2.52658047e+00      
H    -4.97474776e+00     -2.07255030e+00     1.62882453e+00      
H    -5.04972730e+00     -2.63603615e+00     3.07692905e+00      
O    -5.01883151e+00     -1.53647802e+00     -2.04054189e-01     
H    -5.64896266e+00     -1.80952552e+00     -8.88476065e-01     
H    -4.15225782e+00     -1.71444375e+00     -5.57112044e-01     
O    2.51744015e+00      1.26197664e+00      4.25362434e-01      
H    2.65583270e+00      2.19321576e+00      4.98849477e-01      
H    3.40617231e+00      8.78138929e-01      3.08500206e-01      
29
3907.570823
N    3.60956798e-02      -1.79122351e-03     5.67930588e-02      
H    7.09900430e-02      -8.58664372e-01     -5.37094583e-01     
H    9.58485559e-01      4.73478646e-01      6.17298736e-02      
H    -6.95929640e-01     6.53707182e-01      -3.04680552e-01     
C    -3.16433410e-01     -3.65171080e-01     1.44196381e+00      
H    4.19864238e-01      -1.05336238e+00     1.84651182e+00      
H    -3.41496018e-01     5.31479875e-01      2.05351015e+00      
C    -1.68158311e+00     -1.03034751e+00     1.41368728e+00      
O    -2.20250878e+00     -1.42806670e+00     3.86523830e-01      
O    -2.17558659e+00     -1.11238589e+00     2.62933503e+00      
H    -3.10724319e+00     -1.49847499e+00     2.58485069e+00      
O    -1.92774910e+00     1.80184863e+00      -3.98549219e-01     
H    -2.81879341e+00     1.63055423e+00      -4.46566854e-02     
H    -2.01043020e+00     2.54968210e+00      -9.96893556e-01     
O    1.81749736e-01      -2.51661271e+00     -1.09353817e+00     
H    -5.90154550e-01     -2.88763711e+00     -1.05403162e+00     
H    6.76240318e-01      -2.96955971e+00     -1.88899017e+00     
O    -4.35259905e+00     1.12218760e+00      6.86380040e-01      
H    -4.67428121e+00     1.32551451e+00      1.56855758e+00      
H    -4.75111824e+00     2.79215018e-01      4.42430518e-01      
O    -4.63263376e+00     -1.96622554e+00     2.52656787e+00      
H    -4.97470976e+00     -2.07253080e+00     1.62893271e+00      
H    -5.04979472e+00     -2.63613914e+00     3.07701995e+00      
O    -5.01862329e+00     -1.53646809e+00     -2.04013832e-01     
H    -5.65029135e+00     -1.81010326e+00     -8.89933120e-01     
H    -4.15425283e+00     -1.71401053e+00     -5.56288476e-01     
O    2.51727062e+00      1.26228662e+00      4.25406770e-01      
H    2.65530469e+00      2.18966968e+00      4.98566662e-01      
H    3.40939566e+00      8.76755126e-01      3.08078115e-01      
29
3907.570823
N    3.60791442e-02      -1.78406754e-03     5.68035178e-02      
H    7.09911231e-02      -8.58889602e-01     -5.37215561e-01     
H    9.58595047e-01      4.73543317e-01      6.17109024e-02      
H    -6.95873388e-01     6.53719747e-01      -3.04686259e-01     
C    -3.16433472e-01     -3.65171134e-01     1.44196425e+00      
H    4.19873419e-01      -1.05335303e+00     1.84651363e+00      
H    -3.41487520e-01     5.31473512e-01      2.05351353e+00      
C    -1.68157939e+00     -1.03034367e+00     1.41369688e+00      
O    -2.20251360e+00     -1.42807107e+00     3.86518938e-01      
O    -2.17558414e+00     -1.11238562e+00     2.62933106e+00      
H    -3.10726298e+00     -1.49847580e+00     2.58485356e+00      
O    -1.92774945e+00     1.80182063e+00      -3.98526611e-01     
H    -2.81875695e+00     1.63055641e+00      -4.46611811e-02     
H    -2.01046575e+00     2.55012199e+00      -9.97248302e-01     
O    1.80231423e-01      -2.51672045e+00     -1.09276323e+00     
H    -5.72775922e-01     -2.87935123e+00     -1.05507445e+00     
H    6.83032523e-01      -2.97606870e+00     -1.90023786e+00     
O    -4.35259622e+00     1.12216993e+00      6.86353818e-01      
H    -4.67441235e+00     1.32560642e+00      1.56892534e+00      
H    -4.75102995e+00     2.79402459e-01      4.42479437e-01      
O    -4.63263179e+00     -1.96622028e+00     2.52655528e+00      
H    -4.97467177e+00     -2.07251129e+00     1.62904090e+00      
H    -5.04986213e+00     -2.63624214e+00     3.07711085e+00      
O    -5.01841507e+00     -1.53645816e+00     -2.03973476e-01     
H    -5.65162004e+00     -1.81068099e+00     -8.91390175e-01     
H    -4.15624785e+00     -1.71357730e+00     -5.55464908e-01     
O    2.51710108e+00      1.26259660e+00      4.25451106e-01      
H    2.65477667e+00      2.18612359e+00      4.98283847e-01      
H    3.41261902e+00      8.75371324e-01      3.07656025e-01      
29
3907.570823
N    3.60460730e-02      -1.76975561e-03     5.68244358e-02      
H    7.09932833e-02      -8.59340063e-01     -5.37457518e-01     
H    9.58814022e-01      4.73672658e-01      6.16729600e-02      
H    -6.95760883e-01     6.53744877e-01      -3.04697674e-01     
C    -3.16433595e-01     -3.65171242e-01     1.44196515e+00      
H    4.19891781e-01      -1.05333434e+00     1.84651724e+00      
H    -3.41470525e-01     5.31460785e-01      2.05352028e+00      
C    -1.68157195e+00     -1.03033599e+00     1.41371608e+00      
O    -2.20252322e+00     -1.42807980e+00     3.86509155e-01      
O    -2.17557924e+00     -1.11238507e+00     2.62932314e+00      
H    -3.10730256e+00     -1.49847742e+00     2.58485930e+00      
O    -1.92775016e+00     1.80176464e+00      -3.98481395e-01     
H    -2.81868402e+00     1.63056079e+00      -4.46701724e-02     
H    -2.01053684e+00     2.55100176e+00      -9.97957793e-01     
O    1.77194798e-01      -2.51693593e+00     -1.09121336e+00     
H    -5.38018665e-01     -2.86277946e+00     -1.05716011e+00     
H    6.96616934e-01      -2.98908669e+00     -1.92273324e+00     
O    -4.35259056e+00     1.12213458e+00      6.86301374e-01      
H    -4.67467464e+00     1.32579024e+00      1.56966088e+00      
H    -4.75085337e+00     2.79777343e-01      4.42577274e-01      
O    -4.63262785e+00     -1.96620976e+00     2.52653008e+00      
H    -4.97459577e+00     -2.07247228e+00     1.62925726e+00      
H    -5.04999696e+00     -2.63644812e+00     3.07729264e+00      
O    -5.01799862e+00     -1.53643829e+00     -2.03892762e-01     
H    -5.65427741e+00     -1.81183645e+00     -8.94304286e-01     
H    -4.16023788e+00     -1.71271086e+00     -5.53817773e-01     
O    2.51676202e+00      1.26321655e+00      4.25539778e-01      
H    2.65372064e+00      2.17903142e+00      4.97718218e-01      
H    3.41906572e+00      8.72603718e-01      3.06811844e-01      
