29
3884.080090
N    3.61016712e-02      -1.86389186e-03     5.67657732e-02      
H    7.11569015e-02      -8.57421645e-01     -5.36709633e-01     
H    9.58530762e-01      4.73613795e-01      6.15769446e-02      
H    -6.95969463e-01     6.53330875e-01      -3.03885094e-01     
C    -3.16426777e-01     -3.65200205e-01     1.44195515e+00      
H    4.19757576e-01      -1.05326990e+00     1.84646978e+00      
H    -3.41431113e-01     5.31756181e-01      2.05361762e+00      
C    -1.68158449e+00     -1.03036974e+00     1.41365467e+00      
O    -2.20249754e+00     -1.42804974e+00     3.86542436e-01      
O    -2.17560458e+00     -1.11238598e+00     2.62934059e+00      
H    -3.10700250e+00     -1.49847513e+00     2.58488555e+00      
O    -1.92829455e+00     1.79233349e+00      -3.90627866e-01     
H    -2.79880357e+00     1.62960921e+00      -4.83240359e-02     
H    -2.02201767e+00     2.70175741e+00      -1.11924635e+00     
O    1.89576721e-01      -2.51607871e+00     -1.09755916e+00     
H    -6.79434288e-01     -2.93026103e+00     -1.04871194e+00     
H    6.40909393e-01      -2.93574959e+00     -1.83053460e+00     
O    -4.35251104e+00     1.12238993e+00      6.86419514e-01      
H    -4.67415777e+00     1.32581587e+00      1.56885665e+00      
H    -4.75244689e+00     2.75884752e-01      4.41232619e-01      
O    -4.63261088e+00     -1.96614913e+00     2.52645321e+00      
H    -4.97436478e+00     -2.07248610e+00     1.62969857e+00      
H    -5.05055678e+00     -2.63740328e+00     3.07808692e+00      
O    -5.02001459e+00     -1.53648384e+00     -2.04183722e-01     
H    -5.64267516e+00     -1.80671194e+00     -8.81385689e-01     
H    -4.13965172e+00     -1.71717402e+00     -5.62186255e-01     
O    2.51825101e+00      1.26074719e+00      4.25175950e-01      
H    2.65787812e+00      2.20623484e+00      4.99852343e-01      
H    3.39122382e+00      8.84672175e-01      3.10464193e-01      
29
3884.080090
N    3.61208428e-02      -1.85466973e-03     5.67595209e-02      
H    7.11138367e-02      -8.57450788e-01     -5.36654647e-01     
H    9.58382602e-01      4.73499170e-01      6.16388908e-02      
H    -6.96029823e-01     6.53409245e-01      -3.04076824e-01     
C    -3.16428359e-01     -3.65192857e-01     1.44195676e+00      
H    4.19772765e-01      -1.05330470e+00     1.84647803e+00      
H    -3.41457961e-01     5.31695058e-01      2.05358653e+00      
C    -1.68158880e+00     -1.03036899e+00     1.41365083e+00      
O    -2.20249434e+00     -1.42804851e+00     3.86543900e-01      
O    -2.17560314e+00     -1.11238629e+00     2.62934415e+00      
H    -3.10703793e+00     -1.49847408e+00     2.58487325e+00      
O    -1.92815774e+00     1.79474727e+00      -3.92636464e-01     
H    -2.80384661e+00     1.62984273e+00      -4.74015787e-02     
H    -2.01907637e+00     2.66318873e+00      -1.08821472e+00     
O    1.89517866e-01      -2.51607753e+00     -1.09752258e+00     
H    -6.78837639e-01     -2.92996240e+00     -1.04873832e+00     
H    6.41251868e-01      -2.93606588e+00     -1.83108888e+00     
O    -4.35253658e+00     1.12236144e+00      6.86442423e-01      
H    -4.67402471e+00     1.32562564e+00      1.56832217e+00      
H    -4.75222509e+00     2.76483016e-01      4.41470945e-01      
O    -4.63261906e+00     -1.96617480e+00     2.52649762e+00      
H    -4.97449853e+00     -2.07252166e+00     1.62937188e+00      
H    -5.05028199e+00     -2.63695851e+00     3.07770655e+00      
O    -5.01992704e+00     -1.53649232e+00     -2.04191696e-01     
H    -5.64291835e+00     -1.80683760e+00     -8.81701228e-01     
H    -4.14080823e+00     -1.71692467e+00     -5.61741270e-01     
O    2.51821783e+00      1.26074458e+00      4.25178235e-01      
H    2.65789478e+00      2.20652616e+00      4.99884441e-01      
H    3.39173759e+00      8.84422666e-01      3.10395287e-01      
29
3884.080090
N    3.61304287e-02      -1.85005866e-03     5.67563947e-02      
H    7.10923043e-02      -8.57465360e-01     -5.36627154e-01     
H    9.58308522e-01      4.73441857e-01      6.16698640e-02      
H    -6.96060003e-01     6.53448430e-01      -3.04172689e-01     
C    -3.16429150e-01     -3.65189182e-01     1.44195756e+00      
H    4.19780360e-01      -1.05332210e+00     1.84648215e+00      
H    -3.41471385e-01     5.31664497e-01      2.05357098e+00      
C    -1.68159095e+00     -1.03036861e+00     1.41364891e+00      
O    -2.20249273e+00     -1.42804790e+00     3.86544631e-01      
O    -2.17560242e+00     -1.11238645e+00     2.62934593e+00      
H    -3.10705565e+00     -1.49847356e+00     2.58486710e+00      
O    -1.92808934e+00     1.79595416e+00      -3.93640763e-01     
H    -2.80636813e+00     1.62995949e+00      -4.69403501e-02     
H    -2.01760572e+00     2.64390438e+00      -1.07269890e+00     
O    1.89488438e-01      -2.51607694e+00     -1.09750429e+00     
H    -6.78539315e-01     -2.92981309e+00     -1.04875151e+00     
H    6.41423105e-01      -2.93622402e+00     -1.83136602e+00     
O    -4.35254935e+00     1.12234719e+00      6.86453878e-01      
H    -4.67395817e+00     1.32553052e+00      1.56805494e+00      
H    -4.75211419e+00     2.76782148e-01      4.41590108e-01      
O    -4.63262316e+00     -1.96618764e+00     2.52651983e+00      
H    -4.97456540e+00     -2.07253943e+00     1.62920853e+00      
H    -5.05014460e+00     -2.63673612e+00     3.07751637e+00      
O    -5.01988326e+00     -1.53649656e+00     -2.04195682e-01     
H    -5.64303994e+00     -1.80690044e+00     -8.81858997e-01     
H    -4.14138648e+00     -1.71680000e+00     -5.61518778e-01     
O    2.51820124e+00      1.26074327e+00      4.25179378e-01      
H    2.65790312e+00      2.20667182e+00      4.99900490e-01      
H    3.39199448e+00      8.84297912e-01      3.10360833e-01      
29
3884.080090
N    3.61400145e-02      -1.84544760e-03     5.67532685e-02      
H    7.10707719e-02      -8.57479932e-01     -5.36599662e-01     
H    9.58234442e-01      4.73384545e-01      6.17008371e-02      
H    -6.96090183e-01     6.53487616e-01      -3.04268554e-01     
C    -3.16429940e-01     -3.65185508e-01     1.44195837e+00      
H    4.19787954e-01      -1.05333950e+00     1.84648628e+00      
H    -3.41484810e-01     5.31633936e-01      2.05355544e+00      
C    -1.68159311e+00     -1.03036823e+00     1.41364698e+00      
O    -2.20249113e+00     -1.42804729e+00     3.86545363e-01      
O    -2.17560171e+00     -1.11238661e+00     2.62934771e+00      
H    -3.10707337e+00     -1.49847304e+00     2.58486095e+00      
O    -1.92802094e+00     1.79716105e+00      -3.94645062e-01     
H    -2.80888965e+00     1.63007625e+00      -4.64791215e-02     
H    -2.01613507e+00     2.62462004e+00      -1.05718309e+00     
O    1.89459010e-01      -2.51607636e+00     -1.09748600e+00     
H    -6.78240990e-01     -2.92966378e+00     -1.04876470e+00     
H    6.41594343e-01      -2.93638217e+00     -1.83164316e+00     
O    -4.35256212e+00     1.12233295e+00      6.86465332e-01      
H    -4.67389164e+00     1.32543541e+00      1.56778770e+00      
H    -4.75200329e+00     2.77081280e-01      4.41709271e-01      
O    -4.63262725e+00     -1.96620048e+00     2.52654203e+00      
H    -4.97463227e+00     -2.07255721e+00     1.62904519e+00      
H    -5.05000721e+00     -2.63651373e+00     3.07732619e+00      
O    -5.01983949e+00     -1.53650080e+00     -2.04199669e-01     
H    -5.64316153e+00     -1.80696327e+00     -8.82016767e-01     
H    -4.14196474e+00     -1.71667533e+00     -5.61296285e-01     
O    2.51818465e+00      1.26074197e+00      4.25180520e-01      
H    2.65791145e+00      2.20681748e+00      4.99916539e-01      
H    3.39225137e+00      8.84173158e-01      3.10326380e-01      
29
3884.080090
N    3.61496003e-02      -1.84083653e-03     5.67501423e-02      
H    7.10492396e-02      -8.57494504e-01     -5.36572169e-01     
H    9.58160362e-01      4.73327232e-01      6.17318103e-02      
H    -6.96120363e-01     6.53526801e-01      -3.04364419e-01     
C    -3.16430731e-01     -3.65181834e-01     1.44195917e+00      
H    4.19795549e-01      -1.05335691e+00     1.84649040e+00      
H    -3.41498234e-01     5.31603375e-01      2.05353989e+00      
C    -1.68159526e+00     -1.03036785e+00     1.41364506e+00      
O    -2.20248953e+00     -1.42804668e+00     3.86546095e-01      
O    -2.17560099e+00     -1.11238677e+00     2.62934949e+00      
H    -3.10709109e+00     -1.49847251e+00     2.58485479e+00      
O    -1.92795253e+00     1.79836794e+00      -3.95649362e-01     
H    -2.81141117e+00     1.63019302e+00      -4.60178929e-02     
H    -2.01466442e+00     2.60533569e+00      -1.04166727e+00     
O    1.89429582e-01      -2.51607577e+00     -1.09746771e+00     
H    -6.77942666e-01     -2.92951447e+00     -1.04877790e+00     
H    6.41765580e-01      -2.93654031e+00     -1.83192029e+00     
O    -4.35257490e+00     1.12231870e+00      6.86476787e-01      
H    -4.67382511e+00     1.32534029e+00      1.56752046e+00      
H    -4.75189240e+00     2.77380412e-01      4.41828435e-01      
O    -4.63263134e+00     -1.96621332e+00     2.52656424e+00      
H    -4.97469914e+00     -2.07257499e+00     1.62888184e+00      
H    -5.04986982e+00     -2.63629134e+00     3.07713601e+00      
O    -5.01979571e+00     -1.53650504e+00     -2.04203656e-01     
H    -5.64328313e+00     -1.80702610e+00     -8.82174536e-01     
H    -4.14254299e+00     -1.71655066e+00     -5.61073793e-01     
O    2.51816805e+00      1.26074066e+00      4.25181663e-01      
H    2.65791978e+00      2.20696313e+00      4.99932588e-01      
H    3.39250825e+00      8.84048404e-01      3.10291927e-01      
29
3884.080090
N    3.61591861e-02      -1.83622547e-03     5.67470162e-02      
H    7.10277072e-02      -8.57509076e-01     -5.36544676e-01     
H    9.58086282e-01      4.73269919e-01      6.17627834e-02      
H    -6.96150543e-01     6.53565986e-01      -3.04460284e-01     
C    -3.16431522e-01     -3.65178160e-01     1.44195997e+00      
H    4.19803144e-01      -1.05337431e+00     1.84649453e+00      
H    -3.41511658e-01     5.31572814e-01      2.05352435e+00      
C    -1.68159741e+00     -1.03036748e+00     1.41364314e+00      
O    -2.20248793e+00     -1.42804607e+00     3.86546827e-01      
O    -2.17560027e+00     -1.11238692e+00     2.62935128e+00      
H    -3.10710881e+00     -1.49847199e+00     2.58484864e+00      
O    -1.92788413e+00     1.79957484e+00      -3.96653661e-01     
H    -2.81393269e+00     1.63030978e+00      -4.55566644e-02     
H    -2.01319377e+00     2.58605135e+00      -1.02615146e+00     
O    1.89400155e-01      -2.51607518e+00     -1.09744942e+00     
H    -6.77644342e-01     -2.92936515e+00     -1.04879109e+00     
H    6.41936817e-01      -2.93669845e+00     -1.83219743e+00     
O    -4.35258767e+00     1.12230445e+00      6.86488241e-01      
H    -4.67375858e+00     1.32524518e+00      1.56725322e+00      
H    -4.75178150e+00     2.77679545e-01      4.41947598e-01      
O    -4.63263543e+00     -1.96622615e+00     2.52658645e+00      
H    -4.97476601e+00     -2.07259277e+00     1.62871849e+00      
H    -5.04973242e+00     -2.63606896e+00     3.07694582e+00      
O    -5.01975194e+00     -1.53650928e+00     -2.04207643e-01     
H    -5.64340472e+00     -1.80708893e+00     -8.82332306e-01     
H    -4.14312125e+00     -1.71642598e+00     -5.60851300e-01     
O    2.51815146e+00      1.26073935e+00      4.25182805e-01      
H    2.65792811e+00      2.20710879e+00      4.99948637e-01      
H    3.39276514e+00      8.83923649e-01      3.10257474e-01      
29
3884.080090
N    3.61639791e-02      -1.83391994e-03     5.67454531e-02      
H    7.10169410e-02      -8.57516362e-01     -5.36530930e-01     
H    9.58049242e-01      4.73241263e-01      6.17782700e-02      
H    -6.96165633e-01     6.53585578e-01      -3.04508217e-01     
C    -3.16431917e-01     -3.65176322e-01     1.44196037e+00      
H    4.19806941e-01      -1.05338301e+00     1.84649659e+00      
H    -3.41518370e-01     5.31557534e-01      2.05351658e+00      
C    -1.68159849e+00     -1.03036729e+00     1.41364218e+00      
O    -2.20248712e+00     -1.42804577e+00     3.86547192e-01      
O    -2.17559991e+00     -1.11238700e+00     2.62935217e+00      
H    -3.10711767e+00     -1.49847173e+00     2.58484557e+00      
O    -1.92784993e+00     1.80017828e+00      -3.97155810e-01     
H    -2.81519345e+00     1.63036816e+00      -4.53260501e-02     
H    -2.01245845e+00     2.57640918e+00      -1.01839355e+00     
O    1.89385441e-01      -2.51607489e+00     -1.09744027e+00     
H    -6.77495180e-01     -2.92929050e+00     -1.04879768e+00     
H    6.42022436e-01      -2.93677753e+00     -1.83233600e+00     
O    -4.35259405e+00     1.12229733e+00      6.86493968e-01      
H    -4.67372531e+00     1.32519762e+00      1.56711960e+00      
H    -4.75172605e+00     2.77829111e-01      4.42007179e-01      
O    -4.63263748e+00     -1.96623257e+00     2.52659755e+00      
H    -4.97479944e+00     -2.07260165e+00     1.62863682e+00      
H    -5.04966373e+00     -2.63595776e+00     3.07685073e+00      
O    -5.01973005e+00     -1.53651140e+00     -2.04209636e-01     
H    -5.64346552e+00     -1.80712035e+00     -8.82411191e-01     
H    -4.14341038e+00     -1.71636365e+00     -5.60740054e-01     
O    2.51814317e+00      1.26073870e+00      4.25183376e-01      
H    2.65793227e+00      2.20718162e+00      4.99956662e-01      
H    3.39289358e+00      8.83861272e-01      3.10240248e-01      
29
3884.080090
N    3.61687720e-02      -1.83161440e-03     5.67438900e-02      
H    7.10061748e-02      -8.57523648e-01     -5.36517184e-01     
H    9.58012202e-01      4.73212607e-01      6.17937566e-02      
H    -6.96180723e-01     6.53605171e-01      -3.04556149e-01     
C    -3.16432312e-01     -3.65174485e-01     1.44196078e+00      
H    4.19810738e-01      -1.05339171e+00     1.84649865e+00      
H    -3.41525082e-01     5.31542253e-01      2.05350880e+00      
C    -1.68159957e+00     -1.03036710e+00     1.41364122e+00      
O    -2.20248632e+00     -1.42804546e+00     3.86547558e-01      
O    -2.17559955e+00     -1.11238708e+00     2.62935306e+00      
H    -3.10712653e+00     -1.49847146e+00     2.58484249e+00      
O    -1.92781572e+00     1.80078173e+00      -3.97657960e-01     
H    -2.81645421e+00     1.63042654e+00      -4.50954358e-02     
H    -2.01172312e+00     2.56676700e+00      -1.01063564e+00     
O    1.89370727e-01      -2.51607460e+00     -1.09743113e+00     
H    -6.77346017e-01     -2.92921584e+00     -1.04880428e+00     
H    6.42108055e-01      -2.93685660e+00     -1.83247457e+00     
O    -4.35260044e+00     1.12229021e+00      6.86499696e-01      
H    -4.67369204e+00     1.32515006e+00      1.56698598e+00      
H    -4.75167060e+00     2.77978677e-01      4.42066761e-01      
O    -4.63263953e+00     -1.96623899e+00     2.52660865e+00      
H    -4.97483288e+00     -2.07261054e+00     1.62855515e+00      
H    -5.04959503e+00     -2.63584657e+00     3.07675564e+00      
O    -5.01970816e+00     -1.53651352e+00     -2.04211629e-01     
H    -5.64352632e+00     -1.80715177e+00     -8.82490075e-01     
H    -4.14369950e+00     -1.71630131e+00     -5.60628808e-01     
O    2.51813487e+00      1.26073805e+00      4.25183948e-01      
H    2.65793644e+00      2.20725445e+00      4.99964686e-01      
H    3.39302202e+00      8.83798895e-01      3.10223021e-01      
29
3884.080090
N    3.61879436e-02      -1.82239228e-03     5.67376376e-02      
H    7.09631100e-02      -8.57552792e-01     -5.36462198e-01     
H    9.57864042e-01      4.73097981e-01      6.18557028e-02      
H    -6.96241083e-01     6.53683541e-01      -3.04747879e-01     
C    -3.16433894e-01     -3.65167137e-01     1.44196238e+00      
H    4.19825928e-01      -1.05342651e+00     1.84650691e+00      
H    -3.41551930e-01     5.31481131e-01      2.05347772e+00      
C    -1.68160387e+00     -1.03036634e+00     1.41363738e+00      
O    -2.20248312e+00     -1.42804424e+00     3.86549022e-01      
O    -2.17559811e+00     -1.11238740e+00     2.62935662e+00      
H    -3.10716197e+00     -1.49847042e+00     2.58483019e+00      
O    -1.92767892e+00     1.80319551e+00      -3.99666558e-01     
H    -2.82149725e+00     1.63066006e+00      -4.41729786e-02     
H    -2.00878182e+00     2.52819832e+00      -9.79604012e-01     
O    1.89311871e-01      -2.51607342e+00     -1.09739455e+00     
H    -6.76749369e-01     -2.92891722e+00     -1.04883066e+00     
H    6.42450529e-01      -2.93717288e+00     -1.83302885e+00     
O    -4.35262598e+00     1.12226171e+00      6.86522604e-01      
H    -4.67355898e+00     1.32495984e+00      1.56645150e+00      
H    -4.75144880e+00     2.78576941e-01      4.42305087e-01      
O    -4.63264771e+00     -1.96626467e+00     2.52665307e+00      
H    -4.97496662e+00     -2.07264610e+00     1.62822845e+00      
H    -5.04932025e+00     -2.63540179e+00     3.07637528e+00      
O    -5.01962062e+00     -1.53652200e+00     -2.04219603e-01     
H    -5.64376950e+00     -1.80727743e+00     -8.82805615e-01     
H    -4.14485602e+00     -1.71605197e+00     -5.60183822e-01     
O    2.51810169e+00      1.26073543e+00      4.25186232e-01      
H    2.65795310e+00      2.20754577e+00      4.99996784e-01      
H    3.39353580e+00      8.83549387e-01      3.10154115e-01      
29
3884.080090
N    3.61927365e-02      -1.82008674e-03     5.67360745e-02      
H    7.09523438e-02      -8.57560078e-01     -5.36448452e-01     
H    9.57827002e-01      4.73069325e-01      6.18711894e-02      
H    -6.96256173e-01     6.53703134e-01      -3.04795811e-01     
C    -3.16434289e-01     -3.65165300e-01     1.44196279e+00      
H    4.19829725e-01      -1.05343521e+00     1.84650897e+00      
H    -3.41558642e-01     5.31465850e-01      2.05346994e+00      
C    -1.68160495e+00     -1.03036615e+00     1.41363642e+00      
O    -2.20248232e+00     -1.42804393e+00     3.86549388e-01      
O    -2.17559775e+00     -1.11238748e+00     2.62935751e+00      
H    -3.10717083e+00     -1.49847015e+00     2.58482711e+00      
O    -1.92764471e+00     1.80379896e+00      -4.00168708e-01     
H    -2.82275801e+00     1.63071844e+00      -4.39423643e-02     
H    -2.00804649e+00     2.51855614e+00      -9.71846104e-01     
O    1.89297157e-01      -2.51607313e+00     -1.09738541e+00     
H    -6.76600206e-01     -2.92884256e+00     -1.04883726e+00     
H    6.42536148e-01      -2.93725195e+00     -1.83316742e+00     
O    -4.35263237e+00     1.12225459e+00      6.86528332e-01      
H    -4.67352571e+00     1.32491228e+00      1.56631788e+00      
H    -4.75139335e+00     2.78726507e-01      4.42364669e-01      
O    -4.63264976e+00     -1.96627109e+00     2.52666417e+00      
H    -4.97500006e+00     -2.07265499e+00     1.62814678e+00      
H    -5.04925155e+00     -2.63529060e+00     3.07628019e+00      
O    -5.01959873e+00     -1.53652412e+00     -2.04221596e-01     
H    -5.64383030e+00     -1.80730885e+00     -8.82884499e-01     
H    -4.14514514e+00     -1.71598963e+00     -5.60072576e-01     
O    2.51809339e+00      1.26073478e+00      4.25186804e-01      
H    2.65795727e+00      2.20761860e+00      5.00004808e-01      
H    3.39366424e+00      8.83487010e-01      3.10136888e-01      
29
3884.080090
N    3.61975295e-02      -1.81778121e-03     5.67345114e-02      
H    7.09415776e-02      -8.57567364e-01     -5.36434706e-01     
H    9.57789962e-01      4.73040669e-01      6.18866760e-02      
H    -6.96271263e-01     6.53722726e-01      -3.04843744e-01     
C    -3.16434684e-01     -3.65163462e-01     1.44196319e+00      
H    4.19833522e-01      -1.05344391e+00     1.84651103e+00      
H    -3.41565354e-01     5.31450570e-01      2.05346217e+00      
C    -1.68160603e+00     -1.03036596e+00     1.41363546e+00      
O    -2.20248151e+00     -1.42804363e+00     3.86549753e-01      
O    -2.17559739e+00     -1.11238756e+00     2.62935840e+00      
H    -3.10717969e+00     -1.49846989e+00     2.58482404e+00      
O    -1.92761051e+00     1.80440240e+00      -4.00670857e-01     
H    -2.82401877e+00     1.63077682e+00      -4.37117500e-02     
H    -2.00731117e+00     2.50891397e+00      -9.64088196e-01     
O    1.89282443e-01      -2.51607284e+00     -1.09737626e+00     
H    -6.76451044e-01     -2.92876791e+00     -1.04884385e+00     
H    6.42621767e-01      -2.93733103e+00     -1.83330599e+00     
O    -4.35263875e+00     1.12224747e+00      6.86534059e-01      
H    -4.67349244e+00     1.32486472e+00      1.56618426e+00      
H    -4.75133790e+00     2.78876073e-01      4.42424250e-01      
O    -4.63265181e+00     -1.96627751e+00     2.52667527e+00      
H    -4.97503349e+00     -2.07266387e+00     1.62806511e+00      
H    -5.04918286e+00     -2.63517940e+00     3.07618510e+00      
O    -5.01957684e+00     -1.53652624e+00     -2.04223589e-01     
H    -5.64389110e+00     -1.80734027e+00     -8.82963384e-01     
H    -4.14543427e+00     -1.71592730e+00     -5.59961330e-01     
O    2.51808510e+00      1.26073413e+00      4.25187375e-01      
H    2.65796143e+00      2.20769143e+00      5.00012833e-01      
H    3.39379268e+00      8.83424633e-01      3.10119662e-01      
29
3884.080090
N    3.62071153e-02      -1.81317015e-03     5.67313853e-02      
H    7.09200452e-02      -8.57581936e-01     -5.36407213e-01     
H    9.57715882e-01      4.72983356e-01      6.19176491e-02      
H    -6.96301443e-01     6.53761911e-01      -3.04939609e-01     
C    -3.16435475e-01     -3.65159788e-01     1.44196399e+00      
H    4.19841117e-01      -1.05346131e+00     1.84651516e+00      
H    -3.41578778e-01     5.31420009e-01      2.05344663e+00      
C    -1.68160818e+00     -1.03036559e+00     1.41363354e+00      
O    -2.20247991e+00     -1.42804302e+00     3.86550485e-01      
O    -2.17559667e+00     -1.11238771e+00     2.62936019e+00      
H    -3.10719741e+00     -1.49846937e+00     2.58481789e+00      
O    -1.92754211e+00     1.80560930e+00      -4.01675156e-01     
H    -2.82654029e+00     1.63089358e+00      -4.32505215e-02     
H    -2.00584052e+00     2.48962963e+00      -9.48572381e-01     
O    1.89253016e-01      -2.51607225e+00     -1.09735797e+00     
H    -6.76152720e-01     -2.92861859e+00     -1.04885704e+00     
H    6.42793004e-01      -2.93748917e+00     -1.83358313e+00     
O    -4.35265152e+00     1.12223322e+00      6.86545513e-01      
H    -4.67342591e+00     1.32476961e+00      1.56591702e+00      
H    -4.75122700e+00     2.79175206e-01      4.42543413e-01      
O    -4.63265590e+00     -1.96629034e+00     2.52669748e+00      
H    -4.97510036e+00     -2.07268165e+00     1.62790176e+00      
H    -5.04904546e+00     -2.63495702e+00     3.07599491e+00      
O    -5.01953307e+00     -1.53653048e+00     -2.04227576e-01     
H    -5.64401269e+00     -1.80740310e+00     -8.83121154e-01     
H    -4.14601253e+00     -1.71580262e+00     -5.59738837e-01     
O    2.51806851e+00      1.26073282e+00      4.25188517e-01      
H    2.65796976e+00      2.20783709e+00      5.00028882e-01      
H    3.39404957e+00      8.83299878e-01      3.10085209e-01      
29
3884.080090
N    3.62167011e-02      -1.80855908e-03     5.67282591e-02      
H    7.08985129e-02      -8.57596508e-01     -5.36379720e-01     
H    9.57641802e-01      4.72926043e-01      6.19486223e-02      
H    -6.96331623e-01     6.53801096e-01      -3.05035474e-01     
C    -3.16436266e-01     -3.65156114e-01     1.44196479e+00      
H    4.19848712e-01      -1.05347872e+00     1.84651928e+00      
H    -3.41592202e-01     5.31389448e-01      2.05343108e+00      
C    -1.68161033e+00     -1.03036521e+00     1.41363162e+00      
O    -2.20247831e+00     -1.42804241e+00     3.86551217e-01      
O    -2.17559595e+00     -1.11238787e+00     2.62936197e+00      
H    -3.10721513e+00     -1.49846884e+00     2.58481173e+00      
O    -1.92747370e+00     1.80681619e+00      -4.02679456e-01     
H    -2.82906181e+00     1.63101035e+00      -4.27892929e-02     
H    -2.00436987e+00     2.47034528e+00      -9.33056566e-01     
O    1.89223588e-01      -2.51607166e+00     -1.09733968e+00     
H    -6.75854396e-01     -2.92846928e+00     -1.04887024e+00     
H    6.42964241e-01      -2.93764731e+00     -1.83386026e+00     
O    -4.35266430e+00     1.12221897e+00      6.86556968e-01      
H    -4.67335938e+00     1.32467449e+00      1.56564978e+00      
H    -4.75111611e+00     2.79474338e-01      4.42662577e-01      
O    -4.63265999e+00     -1.96630318e+00     2.52671969e+00      
H    -4.97516723e+00     -2.07269943e+00     1.62773841e+00      
H    -5.04890807e+00     -2.63473463e+00     3.07580473e+00      
O    -5.01948929e+00     -1.53653472e+00     -2.04231563e-01     
H    -5.64413429e+00     -1.80746593e+00     -8.83278923e-01     
H    -4.14659078e+00     -1.71567795e+00     -5.59516345e-01     
O    2.51805191e+00      1.26073151e+00      4.25189660e-01      
H    2.65797809e+00      2.20798274e+00      5.00044931e-01      
H    3.39430645e+00      8.83175124e-01      3.10050756e-01      
29
3884.080090
N    3.62262869e-02      -1.80394802e-03     5.67251329e-02      
H    7.08769805e-02      -8.57611080e-01     -5.36352228e-01     
H    9.57567722e-01      4.72868731e-01      6.19795954e-02      
H    -6.96361803e-01     6.53840282e-01      -3.05131339e-01     
C    -3.16437056e-01     -3.65152440e-01     1.44196560e+00      
H    4.19856306e-01      -1.05349612e+00     1.84652341e+00      
H    -3.41605627e-01     5.31358887e-01      2.05341554e+00      
C    -1.68161249e+00     -1.03036483e+00     1.41362969e+00      
O    -2.20247671e+00     -1.42804180e+00     3.86551949e-01      
O    -2.17559524e+00     -1.11238803e+00     2.62936375e+00      
H    -3.10723285e+00     -1.49846832e+00     2.58480558e+00      
O    -1.92740530e+00     1.80802308e+00      -4.03683755e-01     
H    -2.83158333e+00     1.63112711e+00      -4.23280643e-02     
H    -2.00289922e+00     2.45106094e+00      -9.17540750e-01     
O    1.89194160e-01      -2.51607108e+00     -1.09732139e+00     
H    -6.75556071e-01     -2.92831997e+00     -1.04888343e+00     
H    6.43135479e-01      -2.93780546e+00     -1.83413740e+00     
O    -4.35267707e+00     1.12220473e+00      6.86568422e-01      
H    -4.67329285e+00     1.32457938e+00      1.56538254e+00      
H    -4.75100521e+00     2.79773470e-01      4.42781740e-01      
O    -4.63266408e+00     -1.96631602e+00     2.52674189e+00      
H    -4.97523410e+00     -2.07271721e+00     1.62757507e+00      
H    -5.04877068e+00     -2.63451224e+00     3.07561455e+00      
O    -5.01944552e+00     -1.53653896e+00     -2.04235550e-01     
H    -5.64425588e+00     -1.80752876e+00     -8.83436693e-01     
H    -4.14716904e+00     -1.71555328e+00     -5.59293852e-01     
O    2.51803532e+00      1.26073021e+00      4.25190802e-01      
H    2.65798642e+00      2.20812840e+00      5.00060980e-01      
H    3.39456334e+00      8.83050370e-01      3.10016303e-01      
29
3884.080090
N    3.62358728e-02      -1.79933695e-03     5.67220067e-02      
H    7.08554481e-02      -8.57625652e-01     -5.36324735e-01     
H    9.57493642e-01      4.72811418e-01      6.20105686e-02      
H    -6.96391983e-01     6.53879467e-01      -3.05227204e-01     
C    -3.16437847e-01     -3.65148765e-01     1.44196640e+00      
H    4.19863901e-01      -1.05351352e+00     1.84652753e+00      
H    -3.41619051e-01     5.31328326e-01      2.05339999e+00      
C    -1.68161464e+00     -1.03036445e+00     1.41362777e+00      
O    -2.20247510e+00     -1.42804119e+00     3.86552680e-01      
O    -2.17559452e+00     -1.11238819e+00     2.62936553e+00      
H    -3.10725057e+00     -1.49846780e+00     2.58479943e+00      
O    -1.92733690e+00     1.80922997e+00      -4.04688054e-01     
H    -2.83410485e+00     1.63124387e+00      -4.18668357e-02     
H    -2.00142857e+00     2.43177659e+00      -9.02024935e-01     
O    1.89164732e-01      -2.51607049e+00     -1.09730310e+00     
H    -6.75257747e-01     -2.92817066e+00     -1.04889662e+00     
H    6.43306716e-01      -2.93796360e+00     -1.83441454e+00     
O    -4.35268984e+00     1.12219048e+00      6.86579877e-01      
H    -4.67322631e+00     1.32448426e+00      1.56511531e+00      
H    -4.75089431e+00     2.80072602e-01      4.42900903e-01      
O    -4.63266818e+00     -1.96632886e+00     2.52676410e+00      
H    -4.97530097e+00     -2.07273498e+00     1.62741172e+00      
H    -5.04863329e+00     -2.63428985e+00     3.07542437e+00      
O    -5.01940174e+00     -1.53654320e+00     -2.04239536e-01     
H    -5.64437747e+00     -1.80759160e+00     -8.83594462e-01     
H    -4.14774729e+00     -1.71542861e+00     -5.59071360e-01     
O    2.51801873e+00      1.26072890e+00      4.25191945e-01      
H    2.65799476e+00      2.20827406e+00      5.00077029e-01      
H    3.39482023e+00      8.82925616e-01      3.09981849e-01      
29
3884.080090
N    3.62550444e-02      -1.79011482e-03     5.67157544e-02      
H    7.08123833e-02      -8.57654795e-01     -5.36269749e-01     
H    9.57345482e-01      4.72696793e-01      6.20725148e-02      
H    -6.96452343e-01     6.53957837e-01      -3.05418934e-01     
C    -3.16439429e-01     -3.65141417e-01     1.44196801e+00      
H    4.19879090e-01      -1.05354832e+00     1.84653578e+00      
H    -3.41645899e-01     5.31267203e-01      2.05336890e+00      
C    -1.68161895e+00     -1.03036370e+00     1.41362393e+00      
O    -2.20247190e+00     -1.42803996e+00     3.86554144e-01      
O    -2.17559308e+00     -1.11238850e+00     2.62936909e+00      
H    -3.10728600e+00     -1.49846675e+00     2.58478713e+00      
O    -1.92720009e+00     1.81164375e+00      -4.06696652e-01     
H    -2.83914789e+00     1.63147739e+00      -4.09443785e-02     
H    -1.99848727e+00     2.39320791e+00      -8.70993305e-01     
O    1.89105877e-01      -2.51606931e+00     -1.09726652e+00     
H    -6.74661098e-01     -2.92787203e+00     -1.04892300e+00     
H    6.43649191e-01      -2.93827989e+00     -1.83496882e+00     
O    -4.35271538e+00     1.12216199e+00      6.86602786e-01      
H    -4.67309325e+00     1.32429403e+00      1.56458083e+00      
H    -4.75067251e+00     2.80670866e-01      4.43139229e-01      
O    -4.63267636e+00     -1.96635453e+00     2.52680851e+00      
H    -4.97543472e+00     -2.07277054e+00     1.62708503e+00      
H    -5.04835850e+00     -2.63384508e+00     3.07504400e+00      
O    -5.01931419e+00     -1.53655168e+00     -2.04247510e-01     
H    -5.64462066e+00     -1.80771726e+00     -8.83910001e-01     
H    -4.14890380e+00     -1.71517926e+00     -5.58626375e-01     
O    2.51798555e+00      1.26072629e+00      4.25194230e-01      
H    2.65801142e+00      2.20856538e+00      5.00109127e-01      
H    3.39533400e+00      8.82676107e-01      3.09912943e-01      
