29
3822.645476
N    3.63399259e-02      -1.73303189e-03     5.67607638e-02      
H    7.09945997e-02      -8.58094749e-01     -5.36906405e-01     
H    9.55532886e-01      4.71881641e-01      6.20660701e-02      
H    -6.96517051e-01     6.53900276e-01      -3.04781978e-01     
C    -3.16446533e-01     -3.65180412e-01     1.44194624e+00      
H    4.19985027e-01      -1.05360056e+00     1.84665821e+00      
H    -3.41576426e-01     5.31766885e-01      2.05373565e+00      
C    -1.68162349e+00     -1.03037843e+00     1.41363208e+00      
O    -2.20248072e+00     -1.42804358e+00     3.86555148e-01      
O    -2.17559613e+00     -1.11238674e+00     2.62934921e+00      
H    -3.10715061e+00     -1.49846131e+00     2.58488721e+00      
O    -1.92775940e+00     1.80186864e+00      -3.98562981e-01     
H    -2.81859634e+00     1.63058156e+00      -4.47578682e-02     
H    -2.01041717e+00     2.54931586e+00      -9.96568683e-01     
O    1.89222459e-01      -2.51646797e+00     -1.09777981e+00     
H    -6.70610519e-01     -2.92629765e+00     -1.04956361e+00     
H    6.37729363e-01      -2.93343385e+00     -1.82611024e+00     
O    -4.35260337e+00     1.12229067e+00      6.86513950e-01      
H    -4.67363878e+00     1.32508714e+00      1.56676232e+00      
H    -4.75168943e+00     2.78011632e-01      4.42090552e-01      
O    -4.63264240e+00     -1.96625649e+00     2.52664369e+00      
H    -4.97496135e+00     -2.07264549e+00     1.62825439e+00      
H    -5.04939815e+00     -2.63552815e+00     3.07649348e+00      
O    -5.01968550e+00     -1.53653170e+00     -2.04250190e-01     
H    -5.64314488e+00     -1.80700962e+00     -8.82129392e-01     
H    -4.14445272e+00     -1.71615863e+00     -5.60378945e-01     
O    2.50949907e+00      1.25596276e+00      4.25472577e-01      
H    2.66998105e+00      2.34686975e+00      5.12153913e-01      
H    3.51863506e+00      8.20321265e-01      2.93222246e-01      
29
3822.645476
N    3.62995338e-02      -1.75652476e-03     5.67557638e-02      
H    7.09921104e-02      -8.57955617e-01     -5.36802226e-01     
H    9.56134195e-01      4.72200054e-01      6.20057350e-02      
H    -6.96440514e-01     6.53836296e-01      -3.04749487e-01     
C    -3.16443176e-01     -3.65178012e-01     1.44195007e+00      
H    4.19943353e-01      -1.05355270e+00     1.84661936e+00      
H    -3.41566946e-01     5.31703087e-01      2.05367505e+00      
C    -1.68161805e+00     -1.03037550e+00     1.41363388e+00      
O    -2.20248172e+00     -1.42804390e+00     3.86553433e-01      
O    -2.17559680e+00     -1.11238686e+00     2.62935062e+00      
H    -3.10714902e+00     -1.49846372e+00     2.58487449e+00      
O    -1.92775638e+00     1.80189864e+00      -3.98587801e-01     
H    -2.81869119e+00     1.63057199e+00      -4.47269529e-02     
H    -2.01037600e+00     2.54885756e+00      -9.96206469e-01     
O    1.89252169e-01      -2.51636948e+00     -1.09768807e+00     
H    -6.72219812e-01     -2.92698987e+00     -1.04937707e+00     
H    6.38866845e-01      -2.93432907e+00     -1.82777061e+00     
O    -4.35260583e+00     1.12228699e+00      6.86513250e-01      
H    -4.67363546e+00     1.32507910e+00      1.56675142e+00      
H    -4.75165700e+00     2.78078176e-01      4.42114395e-01      
O    -4.63264270e+00     -1.96625533e+00     2.52664048e+00      
H    -4.97494595e+00     -2.07264120e+00     1.62828875e+00      
H    -5.04941302e+00     -2.63555216e+00     3.07651147e+00      
O    -5.01968022e+00     -1.53652821e+00     -2.04241547e-01     
H    -5.64327063e+00     -1.80706087e+00     -8.82259005e-01     
H    -4.14440898e+00     -1.71616313e+00     -5.60385788e-01     
O    2.51165388e+00      1.25715625e+00      4.25400705e-01      
H    2.66697198e+00      2.31200234e+00      5.09110619e-01      
H    3.48729603e+00      8.36159484e-01      2.97463826e-01      
29
3822.645476
N    3.62793378e-02      -1.76827119e-03     5.67532638e-02      
H    7.09908657e-02      -8.57886050e-01     -5.36750137e-01     
H    9.56434850e-01      4.72359261e-01      6.19755674e-02      
H    -6.96402246e-01     6.53804306e-01      -3.04733242e-01     
C    -3.16441497e-01     -3.65176812e-01     1.44195199e+00      
H    4.19922516e-01      -1.05352877e+00     1.84659993e+00      
H    -3.41562206e-01     5.31671187e-01      2.05364475e+00      
C    -1.68161533e+00     -1.03037404e+00     1.41363479e+00      
O    -2.20248222e+00     -1.42804406e+00     3.86552576e-01      
O    -2.17559714e+00     -1.11238693e+00     2.62935132e+00      
H    -3.10714822e+00     -1.49846492e+00     2.58486813e+00      
O    -1.92775487e+00     1.80191363e+00      -3.98600210e-01     
H    -2.81873861e+00     1.63056721e+00      -4.47114953e-02     
H    -2.01035541e+00     2.54862841e+00      -9.96025362e-01     
O    1.89267024e-01      -2.51632023e+00     -1.09764220e+00     
H    -6.73024459e-01     -2.92733598e+00     -1.04928381e+00     
H    6.39435586e-01      -2.93477668e+00     -1.82860079e+00     
O    -4.35260706e+00     1.12228515e+00      6.86512900e-01      
H    -4.67363380e+00     1.32507507e+00      1.56674597e+00      
H    -4.75164078e+00     2.78111449e-01      4.42126316e-01      
O    -4.63264286e+00     -1.96625475e+00     2.52663888e+00      
H    -4.97493825e+00     -2.07263905e+00     1.62830592e+00      
H    -5.04942046e+00     -2.63556416e+00     3.07652047e+00      
O    -5.01967758e+00     -1.53652647e+00     -2.04237225e-01     
H    -5.64333351e+00     -1.80708649e+00     -8.82323812e-01     
H    -4.14438711e+00     -1.71616538e+00     -5.60389209e-01     
O    2.51273128e+00      1.25775300e+00      4.25364769e-01      
H    2.66546744e+00      2.29456864e+00      5.07588971e-01      
H    3.47162651e+00      8.44078594e-01      2.99584617e-01      
29
3822.645476
N    3.62591418e-02      -1.78001762e-03     5.67507638e-02      
H    7.09896210e-02      -8.57816484e-01     -5.36698048e-01     
H    9.56735504e-01      4.72518467e-01      6.19453999e-02      
H    -6.96363977e-01     6.53772316e-01      -3.04716996e-01     
C    -3.16439818e-01     -3.65175612e-01     1.44195391e+00      
H    4.19901680e-01      -1.05350483e+00     1.84658050e+00      
H    -3.41557466e-01     5.31639288e-01      2.05361445e+00      
C    -1.68161261e+00     -1.03037257e+00     1.41363569e+00      
O    -2.20248272e+00     -1.42804422e+00     3.86551719e-01      
O    -2.17559748e+00     -1.11238699e+00     2.62935203e+00      
H    -3.10714743e+00     -1.49846613e+00     2.58486177e+00      
O    -1.92775336e+00     1.80192863e+00      -3.98612620e-01     
H    -2.81878604e+00     1.63056243e+00      -4.46960377e-02     
H    -2.01033482e+00     2.54839926e+00      -9.95844255e-01     
O    1.89281879e-01      -2.51627099e+00     -1.09759632e+00     
H    -6.73829106e-01     -2.92768209e+00     -1.04919054e+00     
H    6.40004328e-01      -2.93522429e+00     -1.82943097e+00     
O    -4.35260829e+00     1.12228331e+00      6.86512550e-01      
H    -4.67363214e+00     1.32507105e+00      1.56674053e+00      
H    -4.75162457e+00     2.78144721e-01      4.42138238e-01      
O    -4.63264301e+00     -1.96625416e+00     2.52663728e+00      
H    -4.97493055e+00     -2.07263691e+00     1.62832310e+00      
H    -5.04942789e+00     -2.63557617e+00     3.07652947e+00      
O    -5.01967495e+00     -1.53652473e+00     -2.04232903e-01     
H    -5.64339639e+00     -1.80711211e+00     -8.82388619e-01     
H    -4.14436524e+00     -1.71616763e+00     -5.60392630e-01     
O    2.51380868e+00      1.25834975e+00      4.25328833e-01      
H    2.66396291e+00      2.27713493e+00      5.06067324e-01      
H    3.45595699e+00      8.51997703e-01      3.01705407e-01      
29
3822.645476
N    3.62389458e-02      -1.79176405e-03     5.67482638e-02      
H    7.09883764e-02      -8.57746918e-01     -5.36645959e-01     
H    9.57036159e-01      4.72677674e-01      6.19152323e-02      
H    -6.96325709e-01     6.53740326e-01      -3.04700751e-01     
C    -3.16438139e-01     -3.65174412e-01     1.44195583e+00      
H    4.19880843e-01      -1.05348090e+00     1.84656107e+00      
H    -3.41552726e-01     5.31607389e-01      2.05358415e+00      
C    -1.68160988e+00     -1.03037111e+00     1.41363659e+00      
O    -2.20248322e+00     -1.42804438e+00     3.86550862e-01      
O    -2.17559782e+00     -1.11238705e+00     2.62935273e+00      
H    -3.10714663e+00     -1.49846733e+00     2.58485542e+00      
O    -1.92775185e+00     1.80194363e+00      -3.98625030e-01     
H    -2.81883346e+00     1.63055765e+00      -4.46805801e-02     
H    -2.01031423e+00     2.54817011e+00      -9.95663148e-01     
O    1.89296734e-01      -2.51622174e+00     -1.09755045e+00     
H    -6.74633753e-01     -2.92802820e+00     -1.04909727e+00     
H    6.40573069e-01      -2.93567190e+00     -1.83026116e+00     
O    -4.35260952e+00     1.12228148e+00      6.86512200e-01      
H    -4.67363048e+00     1.32506702e+00      1.56673508e+00      
H    -4.75160835e+00     2.78177993e-01      4.42150159e-01      
O    -4.63264316e+00     -1.96625358e+00     2.52663567e+00      
H    -4.97492285e+00     -2.07263476e+00     1.62834027e+00      
H    -5.04943533e+00     -2.63558817e+00     3.07653847e+00      
O    -5.01967231e+00     -1.53652299e+00     -2.04228581e-01     
H    -5.64345927e+00     -1.80713773e+00     -8.82453425e-01     
H    -4.14434337e+00     -1.71616989e+00     -5.60396051e-01     
O    2.51488608e+00      1.25894650e+00      4.25292898e-01      
H    2.66245837e+00      2.25970123e+00      5.04545677e-01      
H    3.44028747e+00      8.59916813e-01      3.03826197e-01      
29
3822.645476
N    3.62187498e-02      -1.80351048e-03     5.67457638e-02      
H    7.09871317e-02      -8.57677352e-01     -5.36593869e-01     
H    9.57336813e-01      4.72836881e-01      6.18850648e-02      
H    -6.96287440e-01     6.53708336e-01      -3.04684505e-01     
C    -3.16436461e-01     -3.65173211e-01     1.44195774e+00      
H    4.19860006e-01      -1.05345697e+00     1.84654164e+00      
H    -3.41547986e-01     5.31575490e-01      2.05355386e+00      
C    -1.68160716e+00     -1.03036965e+00     1.41363749e+00      
O    -2.20248372e+00     -1.42804453e+00     3.86550004e-01      
O    -2.17559815e+00     -1.11238711e+00     2.62935343e+00      
H    -3.10714584e+00     -1.49846853e+00     2.58484906e+00      
O    -1.92775034e+00     1.80195863e+00      -3.98637440e-01     
H    -2.81888088e+00     1.63055286e+00      -4.46651224e-02     
H    -2.01029365e+00     2.54794096e+00      -9.95482041e-01     
O    1.89311589e-01      -2.51617250e+00     -1.09750458e+00     
H    -6.75438399e-01     -2.92837431e+00     -1.04900400e+00     
H    6.41141810e-01      -2.93611952e+00     -1.83109134e+00     
O    -4.35261075e+00     1.12227964e+00      6.86511850e-01      
H    -4.67362883e+00     1.32506300e+00      1.56672963e+00      
H    -4.75159213e+00     2.78211265e-01      4.42162081e-01      
O    -4.63264331e+00     -1.96625300e+00     2.52663407e+00      
H    -4.97491515e+00     -2.07263261e+00     1.62835745e+00      
H    -5.04944277e+00     -2.63560017e+00     3.07654746e+00      
O    -5.01966967e+00     -1.53652124e+00     -2.04224260e-01     
H    -5.64352215e+00     -1.80716336e+00     -8.82518232e-01     
H    -4.14432150e+00     -1.71617214e+00     -5.60399473e-01     
O    2.51596348e+00      1.25954324e+00      4.25256962e-01      
H    2.66095384e+00      2.24226752e+00      5.03024030e-01      
H    3.42461795e+00      8.67835922e-01      3.05946987e-01      
29
3822.645476
N    3.62086518e-02      -1.80938369e-03     5.67445138e-02      
H    7.09865094e-02      -8.57642569e-01     -5.36567825e-01     
H    9.57487140e-01      4.72916484e-01      6.18699810e-02      
H    -6.96268306e-01     6.53692341e-01      -3.04676382e-01     
C    -3.16435621e-01     -3.65172611e-01     1.44195870e+00      
H    4.19849588e-01      -1.05344501e+00     1.84653192e+00      
H    -3.41545616e-01     5.31559541e-01      2.05353871e+00      
C    -1.68160580e+00     -1.03036891e+00     1.41363795e+00      
O    -2.20248397e+00     -1.42804461e+00     3.86549576e-01      
O    -2.17559832e+00     -1.11238715e+00     2.62935379e+00      
H    -3.10714544e+00     -1.49846913e+00     2.58484588e+00      
O    -1.92774959e+00     1.80196612e+00      -3.98643644e-01     
H    -2.81890460e+00     1.63055047e+00      -4.46573936e-02     
H    -2.01028335e+00     2.54782638e+00      -9.95391487e-01     
O    1.89319016e-01      -2.51614788e+00     -1.09748165e+00     
H    -6.75840723e-01     -2.92854737e+00     -1.04895737e+00     
H    6.41426180e-01      -2.93634332e+00     -1.83150643e+00     
O    -4.35261137e+00     1.12227872e+00      6.86511675e-01      
H    -4.67362800e+00     1.32506099e+00      1.56672691e+00      
H    -4.75158402e+00     2.78227901e-01      4.42168042e-01      
O    -4.63264339e+00     -1.96625270e+00     2.52663327e+00      
H    -4.97491130e+00     -2.07263154e+00     1.62836604e+00      
H    -5.04944649e+00     -2.63560618e+00     3.07655196e+00      
O    -5.01966835e+00     -1.53652037e+00     -2.04222099e-01     
H    -5.64355359e+00     -1.80717617e+00     -8.82550635e-01     
H    -4.14431056e+00     -1.71617326e+00     -5.60401183e-01     
O    2.51650218e+00      1.25984162e+00      4.25238994e-01      
H    2.66020157e+00      2.23355067e+00      5.02263206e-01      
H    3.41678319e+00      8.71795477e-01      3.07007383e-01      
29
3822.645476
N    3.61985538e-02      -1.81525691e-03     5.67432638e-02      
H    7.09858871e-02      -8.57607786e-01     -5.36541780e-01     
H    9.57637468e-01      4.72996087e-01      6.18548972e-02      
H    -6.96249172e-01     6.53676346e-01      -3.04668260e-01     
C    -3.16434782e-01     -3.65172011e-01     1.44195966e+00      
H    4.19839170e-01      -1.05343304e+00     1.84652221e+00      
H    -3.41543246e-01     5.31543591e-01      2.05352356e+00      
C    -1.68160444e+00     -1.03036818e+00     1.41363840e+00      
O    -2.20248422e+00     -1.42804469e+00     3.86549147e-01      
O    -2.17559849e+00     -1.11238718e+00     2.62935414e+00      
H    -3.10714504e+00     -1.49846974e+00     2.58484270e+00      
O    -1.92774883e+00     1.80197362e+00      -3.98649849e-01     
H    -2.81892831e+00     1.63054808e+00      -4.46496648e-02     
H    -2.01027306e+00     2.54771181e+00      -9.95300934e-01     
O    1.89326444e-01      -2.51612325e+00     -1.09745871e+00     
H    -6.76243046e-01     -2.92872042e+00     -1.04891074e+00     
H    6.41710551e-01      -2.93656713e+00     -1.83192153e+00     
O    -4.35261198e+00     1.12227780e+00      6.86511500e-01      
H    -4.67362717e+00     1.32505897e+00      1.56672419e+00      
H    -4.75157592e+00     2.78244537e-01      4.42174002e-01      
O    -4.63264347e+00     -1.96625241e+00     2.52663246e+00      
H    -4.97490745e+00     -2.07263047e+00     1.62837462e+00      
H    -5.04945020e+00     -2.63561218e+00     3.07655646e+00      
O    -5.01966703e+00     -1.53651950e+00     -2.04219938e-01     
H    -5.64358503e+00     -1.80718898e+00     -8.82583038e-01     
H    -4.14429963e+00     -1.71617439e+00     -5.60402894e-01     
O    2.51704088e+00      1.26013999e+00      4.25221026e-01      
H    2.65944930e+00      2.22483382e+00      5.01502382e-01      
H    3.40894843e+00      8.75755032e-01      3.08067778e-01      
29
3822.645476
N    3.61581618e-02      -1.83874977e-03     5.67382638e-02      
H    7.09833977e-02      -8.57468654e-01     -5.36437602e-01     
H    9.58238776e-01      4.73314501e-01      6.17945622e-02      
H    -6.96172634e-01     6.53612366e-01      -3.04635768e-01     
C    -3.16431424e-01     -3.65169611e-01     1.44196350e+00      
H    4.19797496e-01      -1.05338518e+00     1.84648335e+00      
H    -3.41533766e-01     5.31479793e-01      2.05346296e+00      
C    -1.68159900e+00     -1.03036526e+00     1.41364020e+00      
O    -2.20248522e+00     -1.42804501e+00     3.86547433e-01      
O    -2.17559917e+00     -1.11238730e+00     2.62935554e+00      
H    -3.10714346e+00     -1.49847214e+00     2.58482998e+00      
O    -1.92774581e+00     1.80200362e+00      -3.98674669e-01     
H    -2.81902315e+00     1.63053852e+00      -4.46187496e-02     
H    -2.01023188e+00     2.54725351e+00      -9.94938720e-01     
O    1.89356154e-01      -2.51602477e+00     -1.09736697e+00     
H    -6.77852340e-01     -2.92941264e+00     -1.04872420e+00     
H    6.42848033e-01      -2.93746235e+00     -1.83358189e+00     
O    -4.35261444e+00     1.12227412e+00      6.86510800e-01      
H    -4.67362385e+00     1.32505093e+00      1.56671329e+00      
H    -4.75154348e+00     2.78311081e-01      4.42197846e-01      
O    -4.63264377e+00     -1.96625125e+00     2.52662926e+00      
H    -4.97489205e+00     -2.07262617e+00     1.62840898e+00      
H    -5.04946508e+00     -2.63563618e+00     3.07657446e+00      
O    -5.01966175e+00     -1.53651602e+00     -2.04211294e-01     
H    -5.64371079e+00     -1.80724022e+00     -8.82712652e-01     
H    -4.14425589e+00     -1.71617889e+00     -5.60409736e-01     
O    2.51919568e+00      1.26133349e+00      4.25149154e-01      
H    2.65644024e+00      2.18996640e+00      4.98459088e-01      
H    3.37760939e+00      8.91593250e-01      3.12309358e-01      
29
3822.645476
N    3.61480638e-02      -1.84462299e-03     5.67370138e-02      
H    7.09827754e-02      -8.57433871e-01     -5.36411557e-01     
H    9.58389104e-01      4.73394104e-01      6.17794784e-02      
H    -6.96153500e-01     6.53596371e-01      -3.04627646e-01     
C    -3.16430585e-01     -3.65169011e-01     1.44196446e+00      
H    4.19787078e-01      -1.05337321e+00     1.84647364e+00      
H    -3.41531396e-01     5.31463843e-01      2.05344781e+00      
C    -1.68159764e+00     -1.03036453e+00     1.41364065e+00      
O    -2.20248547e+00     -1.42804509e+00     3.86547004e-01      
O    -2.17559934e+00     -1.11238733e+00     2.62935589e+00      
H    -3.10714306e+00     -1.49847275e+00     2.58482680e+00      
O    -1.92774505e+00     1.80201112e+00      -3.98680874e-01     
H    -2.81904686e+00     1.63053613e+00      -4.46110208e-02     
H    -2.01022159e+00     2.54713894e+00      -9.94848167e-01     
O    1.89363582e-01      -2.51600014e+00     -1.09734403e+00     
H    -6.78254663e-01     -2.92958569e+00     -1.04867757e+00     
H    6.43132404e-01      -2.93768616e+00     -1.83399699e+00     
O    -4.35261505e+00     1.12227320e+00      6.86510625e-01      
H    -4.67362302e+00     1.32504891e+00      1.56671057e+00      
H    -4.75153538e+00     2.78327717e-01      4.42203806e-01      
O    -4.63264385e+00     -1.96625096e+00     2.52662845e+00      
H    -4.97488820e+00     -2.07262510e+00     1.62841756e+00      
H    -5.04946879e+00     -2.63564218e+00     3.07657896e+00      
O    -5.01966043e+00     -1.53651515e+00     -2.04209133e-01     
H    -5.64374223e+00     -1.80725303e+00     -8.82745055e-01     
H    -4.14424496e+00     -1.71618002e+00     -5.60411447e-01     
O    2.51973438e+00      1.26163186e+00      4.25131186e-01      
H    2.65568797e+00      2.18124955e+00      4.97698264e-01      
H    3.36977463e+00      8.95552805e-01      3.13369753e-01      
29
3822.645476
N    3.61379658e-02      -1.85049620e-03     5.67357638e-02      
H    7.09821531e-02      -8.57399088e-01     -5.36385513e-01     
H    9.58539431e-01      4.73473707e-01      6.17643946e-02      
H    -6.96134366e-01     6.53580376e-01      -3.04619523e-01     
C    -3.16429745e-01     -3.65168411e-01     1.44196542e+00      
H    4.19776660e-01      -1.05336125e+00     1.84646392e+00      
H    -3.41529026e-01     5.31447894e-01      2.05343266e+00      
C    -1.68159628e+00     -1.03036379e+00     1.41364111e+00      
O    -2.20248572e+00     -1.42804517e+00     3.86546576e-01      
O    -2.17559951e+00     -1.11238737e+00     2.62935625e+00      
H    -3.10714266e+00     -1.49847335e+00     2.58482362e+00      
O    -1.92774430e+00     1.80201861e+00      -3.98687078e-01     
H    -2.81907058e+00     1.63053374e+00      -4.46032920e-02     
H    -2.01021129e+00     2.54702436e+00      -9.94757613e-01     
O    1.89371009e-01      -2.51597552e+00     -1.09732110e+00     
H    -6.78656987e-01     -2.92975875e+00     -1.04863094e+00     
H    6.43416774e-01      -2.93790996e+00     -1.83441208e+00     
O    -4.35261567e+00     1.12227228e+00      6.86510450e-01      
H    -4.67362219e+00     1.32504690e+00      1.56670785e+00      
H    -4.75152727e+00     2.78344353e-01      4.42209767e-01      
O    -4.63264393e+00     -1.96625066e+00     2.52662765e+00      
H    -4.97488435e+00     -2.07262403e+00     1.62842615e+00      
H    -5.04947251e+00     -2.63564819e+00     3.07658346e+00      
O    -5.01965911e+00     -1.53651428e+00     -2.04206972e-01     
H    -5.64377367e+00     -1.80726584e+00     -8.82777458e-01     
H    -4.14423402e+00     -1.71618114e+00     -5.60413157e-01     
O    2.52027308e+00      1.26193024e+00      4.25113218e-01      
H    2.65493570e+00      2.17253270e+00      4.96937440e-01      
H    3.36193987e+00      8.99512360e-01      3.14430149e-01      
29
3822.645476
N    3.61177698e-02      -1.86224263e-03     5.67332638e-02      
H    7.09809084e-02      -8.57329522e-01     -5.36333423e-01     
H    9.58840085e-01      4.73632914e-01      6.17342271e-02      
H    -6.96096097e-01     6.53548386e-01      -3.04603277e-01     
C    -3.16428067e-01     -3.65167210e-01     1.44196733e+00      
H    4.19755823e-01      -1.05333732e+00     1.84644449e+00      
H    -3.41524286e-01     5.31415995e-01      2.05340237e+00      
C    -1.68159356e+00     -1.03036233e+00     1.41364201e+00      
O    -2.20248622e+00     -1.42804532e+00     3.86545718e-01      
O    -2.17559984e+00     -1.11238743e+00     2.62935695e+00      
H    -3.10714187e+00     -1.49847455e+00     2.58481726e+00      
O    -1.92774279e+00     1.80203361e+00      -3.98699488e-01     
H    -2.81911800e+00     1.63052895e+00      -4.45878343e-02     
H    -2.01019071e+00     2.54679521e+00      -9.94576506e-01     
O    1.89385864e-01      -2.51592628e+00     -1.09727523e+00     
H    -6.79461633e-01     -2.93010486e+00     -1.04853767e+00     
H    6.43985515e-01      -2.93835758e+00     -1.83524226e+00     
O    -4.35261690e+00     1.12227044e+00      6.86510100e-01      
H    -4.67362054e+00     1.32504288e+00      1.56670240e+00      
H    -4.75151105e+00     2.78377625e-01      4.42221689e-01      
O    -4.63264408e+00     -1.96625008e+00     2.52662605e+00      
H    -4.97487665e+00     -2.07262188e+00     1.62844333e+00      
H    -5.04947995e+00     -2.63566019e+00     3.07659245e+00      
O    -5.01965647e+00     -1.53651253e+00     -2.04202651e-01     
H    -5.64383655e+00     -1.80729147e+00     -8.82842265e-01     
H    -4.14421215e+00     -1.71618339e+00     -5.60416579e-01     
O    2.52135048e+00      1.26252698e+00      4.25077282e-01      
H    2.65343117e+00      2.15509899e+00      4.95415793e-01      
H    3.34627035e+00      9.07431469e-01      3.16550939e-01      
29
3822.645476
N    3.60975738e-02      -1.87398906e-03     5.67307638e-02      
H    7.09796638e-02      -8.57259956e-01     -5.36281334e-01     
H    9.59140740e-01      4.73792121e-01      6.17040595e-02      
H    -6.96057829e-01     6.53516396e-01      -3.04587032e-01     
C    -3.16426388e-01     -3.65166010e-01     1.44196925e+00      
H    4.19734986e-01      -1.05331339e+00     1.84642506e+00      
H    -3.41519546e-01     5.31384096e-01      2.05337207e+00      
C    -1.68159083e+00     -1.03036087e+00     1.41364291e+00      
O    -2.20248672e+00     -1.42804548e+00     3.86544861e-01      
O    -2.17560018e+00     -1.11238749e+00     2.62935765e+00      
H    -3.10714107e+00     -1.49847575e+00     2.58481091e+00      
O    -1.92774128e+00     1.80204861e+00      -3.98711898e-01     
H    -2.81916542e+00     1.63052417e+00      -4.45723767e-02     
H    -2.01017012e+00     2.54656606e+00      -9.94395399e-01     
O    1.89400719e-01      -2.51587703e+00     -1.09722936e+00     
H    -6.80266280e-01     -2.93045097e+00     -1.04844440e+00     
H    6.44554256e-01      -2.93880519e+00     -1.83607245e+00     
O    -4.35261813e+00     1.12226861e+00      6.86509750e-01      
H    -4.67361888e+00     1.32503885e+00      1.56669695e+00      
H    -4.75149483e+00     2.78410897e-01      4.42233610e-01      
O    -4.63264423e+00     -1.96624950e+00     2.52662444e+00      
H    -4.97486895e+00     -2.07261973e+00     1.62846050e+00      
H    -5.04948739e+00     -2.63567219e+00     3.07660145e+00      
O    -5.01965383e+00     -1.53651079e+00     -2.04198329e-01     
H    -5.64389943e+00     -1.80731709e+00     -8.82907071e-01     
H    -4.14419028e+00     -1.71618565e+00     -5.60420000e-01     
O    2.52242788e+00      1.26312373e+00      4.25041347e-01      
H    2.65192663e+00      2.13766529e+00      4.93894146e-01      
H    3.33060083e+00      9.15350579e-01      3.18671729e-01      
29
3822.645476
N    3.60773778e-02      -1.88573549e-03     5.67282638e-02      
H    7.09784191e-02      -8.57190390e-01     -5.36229245e-01     
H    9.59441394e-01      4.73951327e-01      6.16738920e-02      
H    -6.96019560e-01     6.53484406e-01      -3.04570786e-01     
C    -3.16424709e-01     -3.65164810e-01     1.44197117e+00      
H    4.19714150e-01      -1.05328945e+00     1.84640563e+00      
H    -3.41514806e-01     5.31352197e-01      2.05334177e+00      
C    -1.68158811e+00     -1.03035940e+00     1.41364381e+00      
O    -2.20248722e+00     -1.42804564e+00     3.86544004e-01      
O    -2.17560052e+00     -1.11238755e+00     2.62935836e+00      
H    -3.10714028e+00     -1.49847696e+00     2.58480455e+00      
O    -1.92773977e+00     1.80206361e+00      -3.98724308e-01     
H    -2.81921285e+00     1.63051939e+00      -4.45569191e-02     
H    -2.01014953e+00     2.54633691e+00      -9.94214292e-01     
O    1.89415574e-01      -2.51582779e+00     -1.09718348e+00     
H    -6.81070927e-01     -2.93079708e+00     -1.04835113e+00     
H    6.45122998e-01      -2.93925280e+00     -1.83690263e+00     
O    -4.35261936e+00     1.12226677e+00      6.86509400e-01      
H    -4.67361722e+00     1.32503483e+00      1.56669151e+00      
H    -4.75147862e+00     2.78444169e-01      4.42245532e-01      
O    -4.63264438e+00     -1.96624891e+00     2.52662284e+00      
H    -4.97486125e+00     -2.07261759e+00     1.62847768e+00      
H    -5.04949482e+00     -2.63568420e+00     3.07661045e+00      
O    -5.01965120e+00     -1.53650905e+00     -2.04194007e-01     
H    -5.64396231e+00     -1.80734271e+00     -8.82971878e-01     
H    -4.14416841e+00     -1.71618790e+00     -5.60423421e-01     
O    2.52350528e+00      1.26372048e+00      4.25005411e-01      
H    2.65042210e+00      2.12023158e+00      4.92372499e-01      
H    3.31493131e+00      9.23269688e-01      3.20792519e-01      
29
3822.645476
N    3.60571818e-02      -1.89748192e-03     5.67257638e-02      
H    7.09771744e-02      -8.57120823e-01     -5.36177156e-01     
H    9.59742049e-01      4.74110534e-01      6.16437244e-02      
H    -6.95981292e-01     6.53452416e-01      -3.04554541e-01     
C    -3.16423030e-01     -3.65163610e-01     1.44197309e+00      
H    4.19693313e-01      -1.05326552e+00     1.84638620e+00      
H    -3.41510066e-01     5.31320297e-01      2.05331147e+00      
C    -1.68158539e+00     -1.03035794e+00     1.41364472e+00      
O    -2.20248772e+00     -1.42804580e+00     3.86543147e-01      
O    -2.17560086e+00     -1.11238762e+00     2.62935906e+00      
H    -3.10713948e+00     -1.49847816e+00     2.58479819e+00      
O    -1.92773826e+00     1.80207860e+00      -3.98736717e-01     
H    -2.81926027e+00     1.63051461e+00      -4.45414615e-02     
H    -2.01012894e+00     2.54610776e+00      -9.94033185e-01     
O    1.89430429e-01      -2.51577854e+00     -1.09713761e+00     
H    -6.81875574e-01     -2.93114319e+00     -1.04825787e+00     
H    6.45691739e-01      -2.93970041e+00     -1.83773281e+00     
O    -4.35262059e+00     1.12226493e+00      6.86509050e-01      
H    -4.67361556e+00     1.32503080e+00      1.56668606e+00      
H    -4.75146240e+00     2.78477442e-01      4.42257453e-01      
O    -4.63264454e+00     -1.96624833e+00     2.52662124e+00      
H    -4.97485355e+00     -2.07261544e+00     1.62849485e+00      
H    -5.04950226e+00     -2.63569620e+00     3.07661945e+00      
O    -5.01964856e+00     -1.53650731e+00     -2.04189685e-01     
H    -5.64402519e+00     -1.80736833e+00     -8.83036685e-01     
H    -4.14414654e+00     -1.71619015e+00     -5.60426842e-01     
O    2.52458268e+00      1.26431723e+00      4.24969475e-01      
H    2.64891756e+00      2.10279788e+00      4.90850851e-01      
H    3.29926179e+00      9.31188798e-01      3.22913310e-01      
29
3822.645476
N    3.60167897e-02      -1.92097479e-03     5.67207638e-02      
H    7.09746851e-02      -8.56981691e-01     -5.36072977e-01     
H    9.60343358e-01      4.74428947e-01      6.15833893e-02      
H    -6.95904755e-01     6.53388436e-01      -3.04522050e-01     
C    -3.16419673e-01     -3.65161210e-01     1.44197692e+00      
H    4.19651639e-01      -1.05321766e+00     1.84634735e+00      
H    -3.41500586e-01     5.31256499e-01      2.05325087e+00      
C    -1.68157995e+00     -1.03035501e+00     1.41364652e+00      
O    -2.20248872e+00     -1.42804612e+00     3.86541432e-01      
O    -2.17560153e+00     -1.11238774e+00     2.62936047e+00      
H    -3.10713789e+00     -1.49848057e+00     2.58478547e+00      
O    -1.92773524e+00     1.80210860e+00      -3.98761537e-01     
H    -2.81935512e+00     1.63050504e+00      -4.45105462e-02     
H    -2.01008777e+00     2.54564946e+00      -9.93670971e-01     
O    1.89460139e-01      -2.51568005e+00     -1.09704587e+00     
H    -6.83484867e-01     -2.93183541e+00     -1.04807133e+00     
H    6.46829221e-01      -2.94059563e+00     -1.83939318e+00     
O    -4.35262305e+00     1.12226125e+00      6.86508350e-01      
H    -4.67361224e+00     1.32502276e+00      1.56667516e+00      
H    -4.75142997e+00     2.78543986e-01      4.42281296e-01      
O    -4.63264484e+00     -1.96624717e+00     2.52661803e+00      
H    -4.97483815e+00     -2.07261115e+00     1.62852921e+00      
H    -5.04951713e+00     -2.63572021e+00     3.07663744e+00      
O    -5.01964328e+00     -1.53650382e+00     -2.04181042e-01     
H    -5.64415094e+00     -1.80741958e+00     -8.83166298e-01     
H    -4.14410280e+00     -1.71619465e+00     -5.60433685e-01     
O    2.52673749e+00      1.26551072e+00      4.24897603e-01      
H    2.64590849e+00      2.06793047e+00      4.87807557e-01      
H    3.26792276e+00      9.47027017e-01      3.27154890e-01      
