29
3842.830123
N    3.60882480e-02      -1.85507095e-03     5.67406401e-02      
H    7.12404301e-02      -8.57499322e-01     -5.36496551e-01     
H    9.58569890e-01      4.73448713e-01      6.18111631e-02      
H    -6.95875928e-01     6.53680901e-01      -3.04611334e-01     
C    -3.16414862e-01     -3.65162872e-01     1.44196150e+00      
H    4.19743657e-01      -1.05335104e+00     1.84655805e+00      
H    -3.41490457e-01     5.31412415e-01      2.05353096e+00      
C    -1.68159674e+00     -1.03036290e+00     1.41365689e+00      
O    -2.20249236e+00     -1.42805202e+00     3.86526067e-01      
O    -2.17571866e+00     -1.11243807e+00     2.62934581e+00      
H    -3.10432381e+00     -1.49651729e+00     2.58407440e+00      
O    -1.92774281e+00     1.80212606e+00      -3.98781952e-01     
H    -2.81924589e+00     1.63060976e+00      -4.45205801e-02     
H    -2.01006074e+00     2.54526551e+00      -9.93315569e-01     
O    1.89428663e-01      -2.51608126e+00     -1.09747616e+00     
H    -6.77831534e-01     -2.92950310e+00     -1.04877327e+00     
H    6.41694082e-01      -2.93647965e+00     -1.83179313e+00     
O    -4.35307876e+00     1.12198081e+00      6.87058483e-01      
H    -4.66966471e+00     1.32183044e+00      1.55514634e+00      
H    -4.74804385e+00     2.86329390e-01      4.45192365e-01      
O    -4.62990420e+00     -1.95937440e+00     2.51523904e+00      
H    -4.94251945e+00     -2.05907348e+00     1.70418970e+00      
H    -5.12624046e+00     -2.75903799e+00     3.18224544e+00      
O    -5.01973695e+00     -1.53624573e+00     -2.03486897e-01     
H    -5.65257932e+00     -1.81057196e+00     -8.91109167e-01     
H    -4.13438335e+00     -1.71769513e+00     -5.63391366e-01     
O    2.51810675e+00      1.26072596e+00      4.25184098e-01      
H    2.65797988e+00      2.20764086e+00      5.00008815e-01      
H    3.39342500e+00      8.83604382e-01      3.10177176e-01      
29
3842.830123
N    3.61107754e-02      -1.84805405e-03     5.67406710e-02      
H    7.11764831e-02      -8.57509047e-01     -5.36494836e-01     
H    9.58411948e-01      4.73375358e-01      6.18145547e-02      
H    -6.95959672e-01     6.53671765e-01      -3.04621504e-01     
C    -3.16419422e-01     -3.65164857e-01     1.44196152e+00      
H    4.19762326e-01      -1.05336556e+00     1.84654424e+00      
H    -3.41502469e-01     5.31437234e-01      2.05352154e+00      
C    -1.68159799e+00     -1.03036386e+00     1.41365249e+00      
O    -2.20249045e+00     -1.42805023e+00     3.86531623e-01      
O    -2.17568870e+00     -1.11242536e+00     2.62934807e+00      
H    -3.10502892e+00     -1.49700570e+00     2.58426488e+00      
O    -1.92774394e+00     1.80209170e+00      -3.98752029e-01     
H    -2.81917835e+00     1.63059314e+00      -4.45489869e-02     
H    -2.01010867e+00     2.54581980e+00      -9.93766633e-01     
O    1.89406822e-01      -2.51607945e+00     -1.09746033e+00     
H    -6.77635574e-01     -2.92939395e+00     -1.04878432e+00     
H    6.41840385e-01      -2.93661342e+00     -1.83203278e+00     
O    -4.35296237e+00     1.12205459e+00      6.86921649e-01      
H    -4.67065491e+00     1.32263657e+00      1.55803944e+00      
H    -4.74892281e+00     2.84316495e-01      4.44440755e-01      
O    -4.63058906e+00     -1.96109375e+00     2.51808700e+00      
H    -4.95061452e+00     -2.06246219e+00     1.68524023e+00      
H    -5.10704476e+00     -2.72818454e+00     3.15582544e+00      
O    -5.01971881e+00     -1.53631373e+00     -2.03669077e-01     
H    -5.65034647e+00     -1.80973262e+00     -8.88993837e-01     
H    -4.13685695e+00     -1.71731551e+00     -5.62645103e-01     
O    2.51810964e+00      1.26072866e+00      4.25184346e-01      
H    2.65797110e+00      2.20758067e+00      5.00001795e-01      
H    3.39338848e+00      8.83621822e-01      3.10180024e-01      
29
3842.830123
N    3.61220392e-02      -1.84454560e-03     5.67406865e-02      
H    7.11445097e-02      -8.57513909e-01     -5.36493978e-01     
H    9.58332977e-01      4.73338681e-01      6.18162505e-02      
H    -6.96001544e-01     6.53667197e-01      -3.04626589e-01     
C    -3.16421703e-01     -3.65165849e-01     1.44196153e+00      
H    4.19771660e-01      -1.05337282e+00     1.84653733e+00      
H    -3.41508475e-01     5.31449644e-01      2.05351683e+00      
C    -1.68159861e+00     -1.03036433e+00     1.41365029e+00      
O    -2.20248949e+00     -1.42804933e+00     3.86534401e-01      
O    -2.17567372e+00     -1.11241901e+00     2.62934920e+00      
H    -3.10538147e+00     -1.49724991e+00     2.58436012e+00      
O    -1.92774450e+00     1.80207452e+00      -3.98737067e-01     
H    -2.81914458e+00     1.63058484e+00      -4.45631903e-02     
H    -2.01013264e+00     2.54609694e+00      -9.93992165e-01     
O    1.89395901e-01      -2.51607854e+00     -1.09745242e+00     
H    -6.77537594e-01     -2.92933938e+00     -1.04878984e+00     
H    6.41913536e-01      -2.93668031e+00     -1.83215260e+00     
O    -4.35290418e+00     1.12209149e+00      6.86853233e-01      
H    -4.67115001e+00     1.32303963e+00      1.55948599e+00      
H    -4.74936230e+00     2.83310047e-01      4.44064950e-01      
O    -4.63093149e+00     -1.96195343e+00     2.51951097e+00      
H    -4.95466206e+00     -2.06415654e+00     1.67576549e+00      
H    -5.09744690e+00     -2.71275781e+00     3.14261544e+00      
O    -5.01970974e+00     -1.53634774e+00     -2.03760167e-01     
H    -5.64923004e+00     -1.80931295e+00     -8.87936171e-01     
H    -4.13809375e+00     -1.71712570e+00     -5.62271972e-01     
O    2.51811108e+00      1.26073001e+00      4.25184470e-01      
H    2.65796671e+00      2.20755058e+00      4.99998285e-01      
H    3.39337022e+00      8.83630542e-01      3.10181448e-01      
29
3842.830123
N    3.61333029e-02      -1.84103715e-03     5.67407019e-02      
H    7.11125362e-02      -8.57518771e-01     -5.36493121e-01     
H    9.58254006e-01      4.73302004e-01      6.18179464e-02      
H    -6.96043415e-01     6.53662628e-01      -3.04631674e-01     
C    -3.16423983e-01     -3.65166841e-01     1.44196154e+00      
H    4.19780995e-01      -1.05338007e+00     1.84653042e+00      
H    -3.41514481e-01     5.31462054e-01      2.05351211e+00      
C    -1.68159923e+00     -1.03036481e+00     1.41364809e+00      
O    -2.20248854e+00     -1.42804844e+00     3.86537179e-01      
O    -2.17565875e+00     -1.11241265e+00     2.62935033e+00      
H    -3.10573403e+00     -1.49749411e+00     2.58445537e+00      
O    -1.92774507e+00     1.80205734e+00      -3.98722106e-01     
H    -2.81911081e+00     1.63057653e+00      -4.45773937e-02     
H    -2.01015661e+00     2.54637408e+00      -9.94217698e-01     
O    1.89384981e-01      -2.51607764e+00     -1.09744450e+00     
H    -6.77439613e-01     -2.92928481e+00     -1.04879537e+00     
H    6.41986687e-01      -2.93674720e+00     -1.83227242e+00     
O    -4.35284599e+00     1.12212838e+00      6.86784816e-01      
H    -4.67164511e+00     1.32344270e+00      1.56093254e+00      
H    -4.74980178e+00     2.82303600e-01      4.43689145e-01      
O    -4.63127391e+00     -1.96281311e+00     2.52093495e+00      
H    -4.95870960e+00     -2.06585090e+00     1.66629075e+00      
H    -5.08784905e+00     -2.69733108e+00     3.12940545e+00      
O    -5.01970067e+00     -1.53638174e+00     -2.03851257e-01     
H    -5.64811362e+00     -1.80889328e+00     -8.86878506e-01     
H    -4.13933056e+00     -1.71693588e+00     -5.61898840e-01     
O    2.51811252e+00      1.26073135e+00      4.25184594e-01      
H    2.65796232e+00      2.20752048e+00      4.99994775e-01      
H    3.39335196e+00      8.83639262e-01      3.10182872e-01      
29
3842.830123
N    3.61445666e-02      -1.83752870e-03     5.67407174e-02      
H    7.10805628e-02      -8.57523633e-01     -5.36492263e-01     
H    9.58175035e-01      4.73265326e-01      6.18196422e-02      
H    -6.96085287e-01     6.53658060e-01      -3.04636759e-01     
C    -3.16426263e-01     -3.65167834e-01     1.44196155e+00      
H    4.19790329e-01      -1.05338733e+00     1.84652351e+00      
H    -3.41520487e-01     5.31474463e-01      2.05350740e+00      
C    -1.68159985e+00     -1.03036529e+00     1.41364589e+00      
O    -2.20248758e+00     -1.42804754e+00     3.86539957e-01      
O    -2.17564377e+00     -1.11240630e+00     2.62935146e+00      
H    -3.10608658e+00     -1.49773832e+00     2.58455061e+00      
O    -1.92774563e+00     1.80204016e+00      -3.98707144e-01     
H    -2.81907704e+00     1.63056822e+00      -4.45915971e-02     
H    -2.01018057e+00     2.54665123e+00      -9.94443230e-01     
O    1.89374060e-01      -2.51607673e+00     -1.09743659e+00     
H    -6.77341633e-01     -2.92923024e+00     -1.04880089e+00     
H    6.42059838e-01      -2.93681408e+00     -1.83239224e+00     
O    -4.35278779e+00     1.12216528e+00      6.86716400e-01      
H    -4.67214021e+00     1.32384576e+00      1.56237909e+00      
H    -4.75024126e+00     2.81297152e-01      4.43313339e-01      
O    -4.63161634e+00     -1.96367279e+00     2.52235893e+00      
H    -4.96275714e+00     -2.06754525e+00     1.65681601e+00      
H    -5.07825120e+00     -2.68190436e+00     3.11619545e+00      
O    -5.01969160e+00     -1.53641575e+00     -2.03942346e-01     
H    -5.64699719e+00     -1.80847361e+00     -8.85820841e-01     
H    -4.14056736e+00     -1.71674607e+00     -5.61525709e-01     
O    2.51811396e+00      1.26073270e+00      4.25184718e-01      
H    2.65795794e+00      2.20749039e+00      4.99991265e-01      
H    3.39333370e+00      8.83647981e-01      3.10184296e-01      
29
3842.830123
N    3.61558303e-02      -1.83402024e-03     5.67407329e-02      
H    7.10485893e-02      -8.57528496e-01     -5.36491406e-01     
H    9.58096064e-01      4.73228649e-01      6.18213380e-02      
H    -6.96127159e-01     6.53653492e-01      -3.04641844e-01     
C    -3.16428543e-01     -3.65168826e-01     1.44196156e+00      
H    4.19799664e-01      -1.05339459e+00     1.84651660e+00      
H    -3.41526494e-01     5.31486873e-01      2.05350269e+00      
C    -1.68160048e+00     -1.03036577e+00     1.41364370e+00      
O    -2.20248663e+00     -1.42804664e+00     3.86542734e-01      
O    -2.17562879e+00     -1.11239995e+00     2.62935258e+00      
H    -3.10643914e+00     -1.49798253e+00     2.58464585e+00      
O    -1.92774619e+00     1.80202298e+00      -3.98692182e-01     
H    -2.81904327e+00     1.63055991e+00      -4.46058004e-02     
H    -2.01020454e+00     2.54692837e+00      -9.94668762e-01     
O    1.89363140e-01      -2.51607582e+00     -1.09742867e+00     
H    -6.77243653e-01     -2.92917567e+00     -1.04880642e+00     
H    6.42132990e-01      -2.93688097e+00     -1.83251207e+00     
O    -4.35272960e+00     1.12220217e+00      6.86647983e-01      
H    -4.67263531e+00     1.32424882e+00      1.56382564e+00      
H    -4.75068074e+00     2.80290704e-01      4.42937534e-01      
O    -4.63195877e+00     -1.96453247e+00     2.52378291e+00      
H    -4.96680467e+00     -2.06923961e+00     1.64734128e+00      
H    -5.06865335e+00     -2.66647763e+00     3.10298545e+00      
O    -5.01968253e+00     -1.53644975e+00     -2.04033436e-01     
H    -5.64588076e+00     -1.80805394e+00     -8.84763176e-01     
H    -4.14180416e+00     -1.71655626e+00     -5.61152578e-01     
O    2.51811540e+00      1.26073405e+00      4.25184842e-01      
H    2.65795355e+00      2.20746030e+00      4.99987755e-01      
H    3.39331543e+00      8.83656701e-01      3.10185720e-01      
29
3842.830123
N    3.61614622e-02      -1.83226602e-03     5.67407406e-02      
H    7.10326026e-02      -8.57530927e-01     -5.36490977e-01     
H    9.58056578e-01      4.73210310e-01      6.18221860e-02      
H    -6.96148095e-01     6.53651208e-01      -3.04644387e-01     
C    -3.16429683e-01     -3.65169322e-01     1.44196156e+00      
H    4.19804331e-01      -1.05339822e+00     1.84651314e+00      
H    -3.41529497e-01     5.31493078e-01      2.05350033e+00      
C    -1.68160079e+00     -1.03036600e+00     1.41364260e+00      
O    -2.20248615e+00     -1.42804619e+00     3.86544123e-01      
O    -2.17562130e+00     -1.11239677e+00     2.62935315e+00      
H    -3.10661542e+00     -1.49810463e+00     2.58469348e+00      
O    -1.92774647e+00     1.80201439e+00      -3.98684701e-01     
H    -2.81902639e+00     1.63055576e+00      -4.46129021e-02     
H    -2.01021652e+00     2.54706694e+00      -9.94781529e-01     
O    1.89357680e-01      -2.51607537e+00     -1.09742471e+00     
H    -6.77194663e-01     -2.92914839e+00     -1.04880918e+00     
H    6.42169565e-01      -2.93691441e+00     -1.83257198e+00     
O    -4.35270050e+00     1.12222062e+00      6.86613775e-01      
H    -4.67288286e+00     1.32445035e+00      1.56454892e+00      
H    -4.75090048e+00     2.79787480e-01      4.42749632e-01      
O    -4.63212998e+00     -1.96496231e+00     2.52449489e+00      
H    -4.96882844e+00     -2.07008679e+00     1.64260391e+00      
H    -5.06385442e+00     -2.65876427e+00     3.09638046e+00      
O    -5.01967800e+00     -1.53646675e+00     -2.04078981e-01     
H    -5.64532255e+00     -1.80784410e+00     -8.84234343e-01     
H    -4.14242256e+00     -1.71646136e+00     -5.60966012e-01     
O    2.51811612e+00      1.26073472e+00      4.25184904e-01      
H    2.65795135e+00      2.20744525e+00      4.99986000e-01      
H    3.39330630e+00      8.83661061e-01      3.10186432e-01      
29
3842.830123
N    3.61670941e-02      -1.83051179e-03     5.67407483e-02      
H    7.10166159e-02      -8.57533358e-01     -5.36490548e-01     
H    9.58017093e-01      4.73191971e-01      6.18230339e-02      
H    -6.96169031e-01     6.53648924e-01      -3.04646929e-01     
C    -3.16430823e-01     -3.65169819e-01     1.44196157e+00      
H    4.19808998e-01      -1.05340185e+00     1.84650969e+00      
H    -3.41532500e-01     5.31499282e-01      2.05349797e+00      
C    -1.68160110e+00     -1.03036624e+00     1.41364150e+00      
O    -2.20248567e+00     -1.42804575e+00     3.86545512e-01      
O    -2.17561381e+00     -1.11239359e+00     2.62935371e+00      
H    -3.10679169e+00     -1.49822673e+00     2.58474110e+00      
O    -1.92774676e+00     1.80200580e+00      -3.98677221e-01     
H    -2.81900950e+00     1.63055161e+00      -4.46200038e-02     
H    -2.01022850e+00     2.54720552e+00      -9.94894295e-01     
O    1.89352219e-01      -2.51607492e+00     -1.09742076e+00     
H    -6.77145673e-01     -2.92912110e+00     -1.04881194e+00     
H    6.42206141e-01      -2.93694785e+00     -1.83263189e+00     
O    -4.35267140e+00     1.12223907e+00      6.86579567e-01      
H    -4.67313041e+00     1.32465189e+00      1.56527219e+00      
H    -4.75112022e+00     2.79284257e-01      4.42561729e-01      
O    -4.63230119e+00     -1.96539215e+00     2.52520688e+00      
H    -4.97085221e+00     -2.07093396e+00     1.63786654e+00      
H    -5.05905549e+00     -2.65105091e+00     3.08977546e+00      
O    -5.01967346e+00     -1.53648376e+00     -2.04124526e-01     
H    -5.64476434e+00     -1.80763427e+00     -8.83705510e-01     
H    -4.14304096e+00     -1.71636645e+00     -5.60779446e-01     
O    2.51811684e+00      1.26073539e+00      4.25184966e-01      
H    2.65794916e+00      2.20743020e+00      4.99984245e-01      
H    3.39329717e+00      8.83665421e-01      3.10187144e-01      
29
3842.830123
N    3.61896215e-02      -1.82349489e-03     5.67407793e-02      
H    7.09526689e-02      -8.57543082e-01     -5.36488834e-01     
H    9.57859151e-01      4.73118617e-01      6.18264255e-02      
H    -6.96252775e-01     6.53639788e-01      -3.04657099e-01     
C    -3.16435383e-01     -3.65171803e-01     1.44196159e+00      
H    4.19827668e-01      -1.05341637e+00     1.84649587e+00      
H    -3.41544512e-01     5.31524102e-01      2.05348855e+00      
C    -1.68160234e+00     -1.03036720e+00     1.41363710e+00      
O    -2.20248377e+00     -1.42804395e+00     3.86551068e-01      
O    -2.17558385e+00     -1.11238089e+00     2.62935597e+00      
H    -3.10749681e+00     -1.49871515e+00     2.58493158e+00      
O    -1.92774788e+00     1.80197144e+00      -3.98647297e-01     
H    -2.81894196e+00     1.63053499e+00      -4.46484106e-02     
H    -2.01027644e+00     2.54775980e+00      -9.95345359e-01     
O    1.89330379e-01      -2.51607310e+00     -1.09740492e+00     
H    -6.76949713e-01     -2.92901196e+00     -1.04882300e+00     
H    6.42352443e-01      -2.93708163e+00     -1.83287153e+00     
O    -4.35255502e+00     1.12231285e+00      6.86442733e-01      
H    -4.67412061e+00     1.32545801e+00      1.56816529e+00      
H    -4.75199918e+00     2.77271361e-01      4.41810119e-01      
O    -4.63298605e+00     -1.96711151e+00     2.52805484e+00      
H    -4.97894729e+00     -2.07432268e+00     1.61891706e+00      
H    -5.03985979e+00     -2.62019745e+00     3.06335546e+00      
O    -5.01965532e+00     -1.53655176e+00     -2.04306706e-01     
H    -5.64253148e+00     -1.80679493e+00     -8.81590180e-01     
H    -4.14551456e+00     -1.71598683e+00     -5.60033184e-01     
O    2.51811972e+00      1.26073809e+00      4.25185214e-01      
H    2.65794038e+00      2.20737002e+00      4.99977225e-01      
H    3.39326065e+00      8.83682861e-01      3.10189992e-01      
29
3842.830123
N    3.61952534e-02      -1.82174066e-03     5.67407870e-02      
H    7.09366822e-02      -8.57545513e-01     -5.36488405e-01     
H    9.57819666e-01      4.73100278e-01      6.18272734e-02      
H    -6.96273711e-01     6.53637504e-01      -3.04659641e-01     
C    -3.16436523e-01     -3.65172300e-01     1.44196160e+00      
H    4.19832335e-01      -1.05342000e+00     1.84649242e+00      
H    -3.41547515e-01     5.31530306e-01      2.05348619e+00      
C    -1.68160265e+00     -1.03036744e+00     1.41363600e+00      
O    -2.20248329e+00     -1.42804351e+00     3.86552457e-01      
O    -2.17557636e+00     -1.11237771e+00     2.62935653e+00      
H    -3.10767308e+00     -1.49883725e+00     2.58497920e+00      
O    -1.92774817e+00     1.80196285e+00      -3.98639817e-01     
H    -2.81892507e+00     1.63053084e+00      -4.46555123e-02     
H    -2.01028842e+00     2.54789838e+00      -9.95458125e-01     
O    1.89324918e-01      -2.51607265e+00     -1.09740097e+00     
H    -6.76900723e-01     -2.92898467e+00     -1.04882576e+00     
H    6.42389019e-01      -2.93711507e+00     -1.83293144e+00     
O    -4.35252592e+00     1.12233130e+00      6.86408525e-01      
H    -4.67436816e+00     1.32565955e+00      1.56888856e+00      
H    -4.75221892e+00     2.76768138e-01      4.41622216e-01      
O    -4.63315726e+00     -1.96754135e+00     2.52876683e+00      
H    -4.98097106e+00     -2.07516985e+00     1.61417969e+00      
H    -5.03506086e+00     -2.61248409e+00     3.05675046e+00      
O    -5.01965078e+00     -1.53656877e+00     -2.04352251e-01     
H    -5.64197327e+00     -1.80658510e+00     -8.81061347e-01     
H    -4.14613296e+00     -1.71589192e+00     -5.59846618e-01     
O    2.51812044e+00      1.26073876e+00      4.25185276e-01      
H    2.65793819e+00      2.20735497e+00      4.99975470e-01      
H    3.39325152e+00      8.83687221e-01      3.10190704e-01      
29
3842.830123
N    3.62008853e-02      -1.81998644e-03     5.67407947e-02      
H    7.09206955e-02      -8.57547944e-01     -5.36487976e-01     
H    9.57780180e-01      4.73081939e-01      6.18281214e-02      
H    -6.96294647e-01     6.53635220e-01      -3.04662184e-01     
C    -3.16437663e-01     -3.65172796e-01     1.44196160e+00      
H    4.19837002e-01      -1.05342363e+00     1.84648896e+00      
H    -3.41550518e-01     5.31536511e-01      2.05348383e+00      
C    -1.68160296e+00     -1.03036767e+00     1.41363490e+00      
O    -2.20248281e+00     -1.42804306e+00     3.86553846e-01      
O    -2.17556887e+00     -1.11237453e+00     2.62935710e+00      
H    -3.10784936e+00     -1.49895935e+00     2.58502683e+00      
O    -1.92774845e+00     1.80195426e+00      -3.98632336e-01     
H    -2.81890819e+00     1.63052669e+00      -4.46626140e-02     
H    -2.01030040e+00     2.54803695e+00      -9.95570892e-01     
O    1.89319458e-01      -2.51607220e+00     -1.09739701e+00     
H    -6.76851733e-01     -2.92895739e+00     -1.04882852e+00     
H    6.42425594e-01      -2.93714851e+00     -1.83299135e+00     
O    -4.35249682e+00     1.12234975e+00      6.86374317e-01      
H    -4.67461571e+00     1.32586108e+00      1.56961184e+00      
H    -4.75243866e+00     2.76264914e-01      4.41434314e-01      
O    -4.63332847e+00     -1.96797119e+00     2.52947881e+00      
H    -4.98299483e+00     -2.07601703e+00     1.60944232e+00      
H    -5.03026193e+00     -2.60477073e+00     3.05014547e+00      
O    -5.01964625e+00     -1.53658577e+00     -2.04397796e-01     
H    -5.64141506e+00     -1.80637526e+00     -8.80532514e-01     
H    -4.14675136e+00     -1.71579702e+00     -5.59660052e-01     
O    2.51812116e+00      1.26073943e+00      4.25185338e-01      
H    2.65793599e+00      2.20733992e+00      4.99973715e-01      
H    3.39324239e+00      8.83691581e-01      3.10191416e-01      
29
3842.830123
N    3.62121490e-02      -1.81647798e-03     5.67408102e-02      
H    7.08887220e-02      -8.57552807e-01     -5.36487119e-01     
H    9.57701209e-01      4.73045262e-01      6.18298172e-02      
H    -6.96336519e-01     6.53630652e-01      -3.04667269e-01     
C    -3.16439943e-01     -3.65173788e-01     1.44196161e+00      
H    4.19846337e-01      -1.05343089e+00     1.84648205e+00      
H    -3.41556525e-01     5.31548921e-01      2.05347912e+00      
C    -1.68160359e+00     -1.03036815e+00     1.41363271e+00      
O    -2.20248186e+00     -1.42804216e+00     3.86556623e-01      
O    -2.17555389e+00     -1.11236818e+00     2.62935822e+00      
H    -3.10820192e+00     -1.49920356e+00     2.58512207e+00      
O    -1.92774901e+00     1.80193708e+00      -3.98617374e-01     
H    -2.81887442e+00     1.63051838e+00      -4.46768173e-02     
H    -2.01032437e+00     2.54831409e+00      -9.95796424e-01     
O    1.89308538e-01      -2.51607129e+00     -1.09738909e+00     
H    -6.76753753e-01     -2.92890282e+00     -1.04883405e+00     
H    6.42498746e-01      -2.93721540e+00     -1.83311118e+00     
O    -4.35243863e+00     1.12238664e+00      6.86305900e-01      
H    -4.67511081e+00     1.32626414e+00      1.57105839e+00      
H    -4.75287814e+00     2.75258466e-01      4.41058509e-01      
O    -4.63367090e+00     -1.96883087e+00     2.53090279e+00      
H    -4.98704236e+00     -2.07771139e+00     1.59996759e+00      
H    -5.02066408e+00     -2.58934400e+00     3.03693547e+00      
O    -5.01963718e+00     -1.53661977e+00     -2.04488886e-01     
H    -5.64029863e+00     -1.80595559e+00     -8.79474849e-01     
H    -4.14798816e+00     -1.71560721e+00     -5.59286921e-01     
O    2.51812260e+00      1.26074078e+00      4.25185462e-01      
H    2.65793160e+00      2.20730983e+00      4.99970205e-01      
H    3.39322412e+00      8.83700301e-01      3.10192840e-01      
29
3842.830123
N    3.62234127e-02      -1.81296953e-03     5.67408257e-02      
H    7.08567486e-02      -8.57557669e-01     -5.36486261e-01     
H    9.57622238e-01      4.73008584e-01      6.18315130e-02      
H    -6.96378391e-01     6.53626084e-01      -3.04672354e-01     
C    -3.16442223e-01     -3.65174781e-01     1.44196162e+00      
H    4.19855671e-01      -1.05343815e+00     1.84647514e+00      
H    -3.41562531e-01     5.31561330e-01      2.05347441e+00      
C    -1.68160421e+00     -1.03036863e+00     1.41363051e+00      
O    -2.20248090e+00     -1.42804126e+00     3.86559401e-01      
O    -2.17553891e+00     -1.11236183e+00     2.62935935e+00      
H    -3.10855447e+00     -1.49944777e+00     2.58521731e+00      
O    -1.92774957e+00     1.80191990e+00      -3.98602412e-01     
H    -2.81884065e+00     1.63051007e+00      -4.46910207e-02     
H    -2.01034833e+00     2.54859124e+00      -9.96021956e-01     
O    1.89297617e-01      -2.51607038e+00     -1.09738118e+00     
H    -6.76655773e-01     -2.92884825e+00     -1.04883957e+00     
H    6.42571897e-01      -2.93728228e+00     -1.83323100e+00     
O    -4.35238043e+00     1.12242354e+00      6.86237484e-01      
H    -4.67560591e+00     1.32666720e+00      1.57250494e+00      
H    -4.75331762e+00     2.74252018e-01      4.40682703e-01      
O    -4.63401333e+00     -1.96969055e+00     2.53232677e+00      
H    -4.99108990e+00     -2.07940574e+00     1.59049285e+00      
H    -5.01106623e+00     -2.57391728e+00     3.02372547e+00      
O    -5.01962811e+00     -1.53665378e+00     -2.04579975e-01     
H    -5.63918220e+00     -1.80553592e+00     -8.78417184e-01     
H    -4.14922496e+00     -1.71541740e+00     -5.58913790e-01     
O    2.51812404e+00      1.26074213e+00      4.25185586e-01      
H    2.65792722e+00      2.20727974e+00      4.99966695e-01      
H    3.39320586e+00      8.83709020e-01      3.10194264e-01      
29
3842.830123
N    3.62346764e-02      -1.80946108e-03     5.67408411e-02      
H    7.08247751e-02      -8.57562531e-01     -5.36485404e-01     
H    9.57543267e-01      4.72971907e-01      6.18332089e-02      
H    -6.96420262e-01     6.53621515e-01      -3.04677439e-01     
C    -3.16444503e-01     -3.65175773e-01     1.44196163e+00      
H    4.19865006e-01      -1.05344540e+00     1.84646823e+00      
H    -3.41568537e-01     5.31573740e-01      2.05346969e+00      
C    -1.68160483e+00     -1.03036911e+00     1.41362831e+00      
O    -2.20247995e+00     -1.42804037e+00     3.86562179e-01      
O    -2.17552394e+00     -1.11235547e+00     2.62936048e+00      
H    -3.10890703e+00     -1.49969197e+00     2.58531256e+00      
O    -1.92775014e+00     1.80190272e+00      -3.98587451e-01     
H    -2.81880688e+00     1.63050176e+00      -4.47052241e-02     
H    -2.01037230e+00     2.54886838e+00      -9.96247489e-01     
O    1.89286697e-01      -2.51606948e+00     -1.09737326e+00     
H    -6.76557792e-01     -2.92879368e+00     -1.04884510e+00     
H    6.42645048e-01      -2.93734917e+00     -1.83335082e+00     
O    -4.35232224e+00     1.12246043e+00      6.86169067e-01      
H    -4.67610101e+00     1.32707027e+00      1.57395149e+00      
H    -4.75375710e+00     2.73245571e-01      4.40306898e-01      
O    -4.63435575e+00     -1.97055023e+00     2.53375075e+00      
H    -4.99513744e+00     -2.08110010e+00     1.58101811e+00      
H    -5.00146838e+00     -2.55849055e+00     3.01051548e+00      
O    -5.01961904e+00     -1.53668778e+00     -2.04671065e-01     
H    -5.63806578e+00     -1.80511625e+00     -8.77359519e-01     
H    -4.15046177e+00     -1.71522758e+00     -5.58540658e-01     
O    2.51812548e+00      1.26074347e+00      4.25185710e-01      
H    2.65792283e+00      2.20724964e+00      4.99963185e-01      
H    3.39318760e+00      8.83717740e-01      3.10195688e-01      
29
3842.830123
N    3.62459402e-02      -1.80595263e-03     5.67408566e-02      
H    7.07928017e-02      -8.57567393e-01     -5.36484546e-01     
H    9.57464296e-01      4.72935230e-01      6.18349047e-02      
H    -6.96462134e-01     6.53616947e-01      -3.04682524e-01     
C    -3.16446784e-01     -3.65176765e-01     1.44196164e+00      
H    4.19874340e-01      -1.05345266e+00     1.84646132e+00      
H    -3.41574543e-01     5.31586150e-01      2.05346498e+00      
C    -1.68160545e+00     -1.03036958e+00     1.41362611e+00      
O    -2.20247899e+00     -1.42803947e+00     3.86564957e-01      
O    -2.17550896e+00     -1.11234912e+00     2.62936161e+00      
H    -3.10925958e+00     -1.49993618e+00     2.58540780e+00      
O    -1.92775070e+00     1.80188554e+00      -3.98572489e-01     
H    -2.81877311e+00     1.63049346e+00      -4.47194275e-02     
H    -2.01039627e+00     2.54914552e+00      -9.96473021e-01     
O    1.89275776e-01      -2.51606857e+00     -1.09736535e+00     
H    -6.76459812e-01     -2.92873911e+00     -1.04885062e+00     
H    6.42718199e-01      -2.93741606e+00     -1.83347064e+00     
O    -4.35226405e+00     1.12249733e+00      6.86100651e-01      
H    -4.67659611e+00     1.32747333e+00      1.57539804e+00      
H    -4.75419659e+00     2.72239123e-01      4.39931093e-01      
O    -4.63469818e+00     -1.97140991e+00     2.53517472e+00      
H    -4.99918498e+00     -2.08279445e+00     1.57154337e+00      
H    -4.99187052e+00     -2.54306382e+00     2.99730548e+00      
O    -5.01960997e+00     -1.53672179e+00     -2.04762155e-01     
H    -5.63694935e+00     -1.80469658e+00     -8.76301853e-01     
H    -4.15169857e+00     -1.71503777e+00     -5.58167527e-01     
O    2.51812692e+00      1.26074482e+00      4.25185834e-01      
H    2.65791844e+00      2.20721955e+00      4.99959675e-01      
H    3.39316934e+00      8.83726460e-01      3.10197112e-01      
29
3842.830123
N    3.62684676e-02      -1.79893573e-03     5.67408875e-02      
H    7.07288547e-02      -8.57577118e-01     -5.36482831e-01     
H    9.57306354e-01      4.72861875e-01      6.18382963e-02      
H    -6.96545878e-01     6.53607811e-01      -3.04692694e-01     
C    -3.16451344e-01     -3.65178750e-01     1.44196166e+00      
H    4.19893009e-01      -1.05346718e+00     1.84644751e+00      
H    -3.41586555e-01     5.31610969e-01      2.05345556e+00      
C    -1.68160670e+00     -1.03037054e+00     1.41362171e+00      
O    -2.20247708e+00     -1.42803768e+00     3.86570513e-01      
O    -2.17547900e+00     -1.11233641e+00     2.62936387e+00      
H    -3.10996469e+00     -1.50042459e+00     2.58559828e+00      
O    -1.92775183e+00     1.80185118e+00      -3.98542566e-01     
H    -2.81870557e+00     1.63047684e+00      -4.47478343e-02     
H    -2.01044420e+00     2.54969981e+00      -9.96924085e-01     
O    1.89253935e-01      -2.51606676e+00     -1.09734952e+00     
H    -6.76263852e-01     -2.92862996e+00     -1.04886167e+00     
H    6.42864502e-01      -2.93754983e+00     -1.83371029e+00     
O    -4.35214766e+00     1.12257111e+00      6.85963817e-01      
H    -4.67758631e+00     1.32827946e+00      1.57829114e+00      
H    -4.75507555e+00     2.70226228e-01      4.39179483e-01      
O    -4.63538304e+00     -1.97312926e+00     2.53802268e+00      
H    -5.00728005e+00     -2.08618316e+00     1.55259390e+00      
H    -4.97267482e+00     -2.51221037e+00     2.97088548e+00      
O    -5.01959183e+00     -1.53678979e+00     -2.04944335e-01     
H    -5.63471650e+00     -1.80385724e+00     -8.74186523e-01     
H    -4.15417217e+00     -1.71465815e+00     -5.57421264e-01     
O    2.51812981e+00      1.26074752e+00      4.25186082e-01      
H    2.65790966e+00      2.20715936e+00      4.99952655e-01      
H    3.39313282e+00      8.83743900e-01      3.10199960e-01      
