29
35.631670
N    2.80206616e-02      1.68396614e-02      6.52386782e-02      
H    5.83105069e-02      -8.42080871e-01     -5.23414260e-01     
H    9.54411750e-01      4.83051645e-01      6.69480285e-02      
H    -7.00490593e-01     6.74531831e-01      -2.99921354e-01     
C    -3.28525629e-01     -3.39497250e-01     1.45123837e+00      
H    4.11765425e-01      -1.01817191e+00     1.86463995e+00      
H    -3.65691549e-01     5.60886408e-01      2.05692402e+00      
C    -1.68725250e+00     -1.01752164e+00     1.41983754e+00      
O    -2.20445761e+00     -1.41467337e+00     3.90653635e-01      
O    -2.18027237e+00     -1.11200848e+00     2.63501086e+00      
H    -3.10550769e+00     -1.51294708e+00     2.58724517e+00      
O    -1.93338701e+00     1.82177629e+00      -3.96300167e-01     
H    -2.82629317e+00     1.64537265e+00      -4.93085096e-02     
H    -2.01501900e+00     2.56767818e+00      -9.92406508e-01     
O    1.87460730e-01      -2.50690123e+00     -1.07110773e+00     
H    -6.77838036e-01     -2.92203246e+00     -1.02089037e+00     
H    6.42103755e-01      -2.93109489e+00     -1.80354055e+00     
O    -4.36167572e+00     1.12685528e+00      6.75245523e-01      
H    -4.70254697e+00     1.34944948e+00      1.54363134e+00      
H    -4.75970754e+00     2.80539774e-01      4.37333610e-01      
O    -4.62052677e+00     -2.01509659e+00     2.51774504e+00      
H    -4.96354756e+00     -2.10300379e+00     1.61772699e+00      
H    -5.02860285e+00     -2.70265293e+00     3.05197841e+00      
O    -5.01818890e+00     -1.53686470e+00     -2.07944406e-01     
H    -5.64056148e+00     -1.80554935e+00     -8.88721503e-01     
H    -4.14177950e+00     -1.70723247e+00     -5.66289097e-01     
O    2.54744409e+00      1.21928011e+00      3.94460950e-01      
H    2.71910484e+00      2.15957382e+00      4.90292015e-01      
H    3.40763004e+00      8.17414639e-01      2.47332169e-01      
29
35.631670
N    3.00600856e-02      1.21729952e-02      6.31141996e-02      
H    6.14790408e-02      -8.45945208e-01     -5.26683118e-01     
H    9.55293343e-01      4.80577557e-01      6.56672038e-02      
H    -6.99420670e-01     6.69309962e-01      -3.01104019e-01     
C    -3.25502498e-01     -3.45915640e-01     1.44891917e+00      
H    4.13778652e-01      -1.02698121e+00     1.86010565e+00      
H    -3.59653288e-01     5.53542729e-01      2.05606633e+00      
C    -1.68583980e+00     -1.02073291e+00     1.41828798e+00      
O    -2.20396439e+00     -1.41801624e+00     3.89627298e-01      
O    -2.17910398e+00     -1.11210317e+00     2.63359686e+00      
H    -3.10591683e+00     -1.50932805e+00     2.58664296e+00      
O    -1.93197709e+00     1.81682937e+00      -3.96890690e-01     
H    -2.82446381e+00     1.64166531e+00      -4.81399340e-02     
H    -2.01382737e+00     2.56262930e+00      -9.93084837e-01     
O    1.87930872e-01      -2.50919443e+00     -1.07768401e+00     
H    -6.77640450e-01     -2.92379097e+00     -1.02787214e+00     
H    6.42147639e-01      -2.93257485e+00     -1.81084334e+00     
O    -4.35941009e+00     1.12571045e+00      6.78061930e-01      
H    -4.69531660e+00     1.34335085e+00      1.54940319e+00      
H    -4.75767058e+00     2.79974282e-01      4.38546688e-01      
O    -4.62355598e+00     -2.00288540e+00     2.51996650e+00      
H    -4.96638561e+00     -2.09540992e+00     1.62039319e+00      
H    -5.03381655e+00     -2.68589574e+00     3.05812517e+00      
O    -5.01855777e+00     -1.53677797e+00     -2.07012209e-01     
H    -5.64133309e+00     -1.80596567e+00     -8.87203088e-01     
H    -4.14240406e+00     -1.70946851e+00     -5.64818402e-01     
O    2.54011264e+00      1.22964427e+00      4.02141985e-01      
H    2.70381482e+00      2.17153040e+00      4.92714195e-01      
H    3.40404226e+00      8.33979514e-01      2.63046269e-01      
29
35.631670
N    3.10797977e-02      9.83966212e-03      6.20519603e-02      
H    6.30633077e-02      -8.47877377e-01     -5.28317547e-01     
H    9.55734139e-01      4.79340513e-01      6.50267914e-02      
H    -6.98885709e-01     6.66699028e-01      -3.01695351e-01     
C    -3.23990932e-01     -3.49124835e-01     1.44775958e+00      
H    4.14785266e-01      -1.03138586e+00     1.85783851e+00      
H    -3.56634158e-01     5.49870890e-01      2.05563748e+00      
C    -1.68513346e+00     -1.02233854e+00     1.41751320e+00      
O    -2.20371778e+00     -1.41968768e+00     3.89114130e-01      
O    -2.17851979e+00     -1.11215051e+00     2.63288985e+00      
H    -3.10612140e+00     -1.50751853e+00     2.58634186e+00      
O    -1.93127213e+00     1.81435591e+00      -3.97185952e-01     
H    -2.82354913e+00     1.63981165e+00      -4.75556462e-02     
H    -2.01323155e+00     2.56010486e+00      -9.93424002e-01     
O    1.88165943e-01      -2.51034102e+00     -1.08097215e+00     
H    -6.77541657e-01     -2.92467023e+00     -1.03136303e+00     
H    6.42169582e-01      -2.93331483e+00     -1.81449474e+00     
O    -4.35827728e+00     1.12513804e+00      6.79470133e-01      
H    -4.69170142e+00     1.34030153e+00      1.55228911e+00      
H    -4.75665210e+00     2.79691537e-01      4.39153227e-01      
O    -4.62507059e+00     -1.99677981e+00     2.52107722e+00      
H    -4.96780463e+00     -2.09161299e+00     1.62172629e+00      
H    -5.03642340e+00     -2.67751715e+00     3.06119855e+00      
O    -5.01874221e+00     -1.53673460e+00     -2.06546110e-01     
H    -5.64171889e+00     -1.80617382e+00     -8.86443881e-01     
H    -4.14271634e+00     -1.71058653e+00     -5.64083054e-01     
O    2.53644691e+00      1.23482635e+00      4.05982503e-01      
H    2.69616981e+00      2.17750868e+00      4.93925285e-01      
H    3.40224837e+00      8.42261952e-01      2.70903319e-01      
29
35.631670
N    3.20995097e-02      7.50632903e-03      6.09897210e-02      
H    6.46475747e-02      -8.49809545e-01     -5.29951976e-01     
H    9.56174936e-01      4.78103470e-01      6.43863791e-02      
H    -6.98350748e-01     6.64088094e-01      -3.02286684e-01     
C    -3.22479366e-01     -3.52334031e-01     1.44659998e+00      
H    4.15791879e-01      -1.03579051e+00     1.85557136e+00      
H    -3.53615027e-01     5.46199050e-01      2.05520864e+00      
C    -1.68442711e+00     -1.02394418e+00     1.41673842e+00      
O    -2.20347117e+00     -1.42135911e+00     3.88600962e-01      
O    -2.17793560e+00     -1.11219786e+00     2.63218285e+00      
H    -3.10632597e+00     -1.50570901e+00     2.58604076e+00      
O    -1.93056717e+00     1.81188246e+00      -3.97481213e-01     
H    -2.82263445e+00     1.63795798e+00      -4.69713584e-02     
H    -2.01263574e+00     2.55758042e+00      -9.93763167e-01     
O    1.88401014e-01      -2.51148762e+00     -1.08426029e+00     
H    -6.77442865e-01     -2.92554949e+00     -1.03485392e+00     
H    6.42191524e-01      -2.93405482e+00     -1.81814613e+00     
O    -4.35714447e+00     1.12456562e+00      6.80878337e-01      
H    -4.68808624e+00     1.33725222e+00      1.55517504e+00      
H    -4.75563362e+00     2.79408791e-01      4.39759767e-01      
O    -4.62658519e+00     -1.99067421e+00     2.52218795e+00      
H    -4.96922366e+00     -2.08781606e+00     1.62305939e+00      
H    -5.03903025e+00     -2.66913856e+00     3.06427194e+00      
O    -5.01892664e+00     -1.53669123e+00     -2.06080011e-01     
H    -5.64210470e+00     -1.80638198e+00     -8.85684674e-01     
H    -4.14302863e+00     -1.71170455e+00     -5.63347706e-01     
O    2.53278119e+00      1.24000843e+00      4.09823020e-01      
H    2.68852480e+00      2.18348697e+00      4.95136375e-01      
H    3.40045448e+00      8.50544390e-01      2.78760369e-01      
29
35.631670
N    3.31192217e-02      5.17299594e-03      5.99274817e-02      
H    6.62318416e-02      -8.51741714e-01     -5.31586405e-01     
H    9.56615732e-01      4.76866426e-01      6.37459667e-02      
H    -6.97815787e-01     6.61477159e-01      -3.02878016e-01     
C    -3.20967800e-01     -3.55543226e-01     1.44544038e+00      
H    4.16798493e-01      -1.04019516e+00     1.85330422e+00      
H    -3.50595897e-01     5.42527211e-01      2.05477979e+00      
C    -1.68372076e+00     -1.02554981e+00     1.41596364e+00      
O    -2.20322456e+00     -1.42303055e+00     3.88087794e-01      
O    -2.17735141e+00     -1.11224520e+00     2.63147585e+00      
H    -3.10653054e+00     -1.50389949e+00     2.58573965e+00      
O    -1.92986221e+00     1.80940900e+00      -3.97776475e-01     
H    -2.82171977e+00     1.63610431e+00      -4.63870706e-02     
H    -2.01203992e+00     2.55505598e+00      -9.94102332e-01     
O    1.88636086e-01      -2.51263422e+00     -1.08754842e+00     
H    -6.77344072e-01     -2.92642875e+00     -1.03834481e+00     
H    6.42213466e-01      -2.93479480e+00     -1.82179753e+00     
O    -4.35601165e+00     1.12399321e+00      6.82286540e-01      
H    -4.68447106e+00     1.33420290e+00      1.55806096e+00      
H    -4.75461514e+00     2.79126046e-01      4.40366306e-01      
O    -4.62809980e+00     -1.98456862e+00     2.52329868e+00      
H    -4.97064268e+00     -2.08401912e+00     1.62439249e+00      
H    -5.04163709e+00     -2.66075996e+00     3.06734532e+00      
O    -5.01911108e+00     -1.53664786e+00     -2.05613912e-01     
H    -5.64249050e+00     -1.80659013e+00     -8.84925467e-01     
H    -4.14334091e+00     -1.71282257e+00     -5.62612358e-01     
O    2.52911546e+00      1.24519050e+00      4.13663538e-01      
H    2.68087979e+00      2.18946525e+00      4.96347465e-01      
H    3.39866058e+00      8.58826828e-01      2.86617419e-01      
29
35.631670
N    3.41389337e-02      2.83966284e-03      5.88652424e-02      
H    6.78161085e-02      -8.53673883e-01     -5.33220833e-01     
H    9.57056529e-01      4.75629382e-01      6.31055544e-02      
H    -6.97280825e-01     6.58866225e-01      -3.03469349e-01     
C    -3.19456235e-01     -3.58752421e-01     1.44428078e+00      
H    4.17805106e-01      -1.04459981e+00     1.85103707e+00      
H    -3.47576767e-01     5.38855371e-01      2.05435095e+00      
C    -1.68301441e+00     -1.02715545e+00     1.41518886e+00      
O    -2.20297794e+00     -1.42470198e+00     3.87574626e-01      
O    -2.17676721e+00     -1.11229255e+00     2.63076885e+00      
H    -3.10673511e+00     -1.50208998e+00     2.58543855e+00      
O    -1.92915724e+00     1.80693554e+00      -3.98071736e-01     
H    -2.82080509e+00     1.63425064e+00      -4.58027828e-02     
H    -2.01144410e+00     2.55253154e+00      -9.94441497e-01     
O    1.88871157e-01      -2.51378082e+00     -1.09083656e+00     
H    -6.77245279e-01     -2.92730801e+00     -1.04183569e+00     
H    6.42235408e-01      -2.93553478e+00     -1.82544892e+00     
O    -4.35487884e+00     1.12342079e+00      6.83694743e-01      
H    -4.68085587e+00     1.33115358e+00      1.56094689e+00      
H    -4.75359666e+00     2.78843300e-01      4.40972845e-01      
O    -4.62961441e+00     -1.97846302e+00     2.52440941e+00      
H    -4.97206170e+00     -2.08022219e+00     1.62572560e+00      
H    -5.04424394e+00     -2.65238137e+00     3.07041870e+00      
O    -5.01929552e+00     -1.53660450e+00     -2.05147814e-01     
H    -5.64287630e+00     -1.80679829e+00     -8.84166259e-01     
H    -4.14365319e+00     -1.71394060e+00     -5.61877011e-01     
O    2.52544973e+00      1.25037258e+00      4.17504055e-01      
H    2.67323479e+00      2.19544354e+00      4.97558555e-01      
H    3.39686669e+00      8.67109265e-01      2.94474468e-01      
29
35.631670
N    3.46487898e-02      1.67299630e-03      5.83341228e-02      
H    6.86082420e-02      -8.54639967e-01     -5.34038048e-01     
H    9.57276927e-01      4.75010860e-01      6.27853482e-02      
H    -6.97013345e-01     6.57560758e-01      -3.03765015e-01     
C    -3.18700452e-01     -3.60357018e-01     1.44370098e+00      
H    4.18308413e-01      -1.04680214e+00     1.84990350e+00      
H    -3.46067202e-01     5.37019451e-01      2.05413653e+00      
C    -1.68266124e+00     -1.02795827e+00     1.41480147e+00      
O    -2.20285464e+00     -1.42553770e+00     3.87318042e-01      
O    -2.17647512e+00     -1.11231622e+00     2.63041534e+00      
H    -3.10683740e+00     -1.50118522e+00     2.58528800e+00      
O    -1.92880476e+00     1.80569881e+00      -3.98219367e-01     
H    -2.82034775e+00     1.63332380e+00      -4.55106389e-02     
H    -2.01114619e+00     2.55126932e+00      -9.94611080e-01     
O    1.88988692e-01      -2.51435411e+00     -1.09248063e+00     
H    -6.77195882e-01     -2.92774764e+00     -1.04358114e+00     
H    6.42246379e-01      -2.93590477e+00     -1.82727462e+00     
O    -4.35431243e+00     1.12313458e+00      6.84398845e-01      
H    -4.67904828e+00     1.32962893e+00      1.56238985e+00      
H    -4.75308742e+00     2.78701927e-01      4.41276115e-01      
O    -4.63037171e+00     -1.97541022e+00     2.52496477e+00      
H    -4.97277122e+00     -2.07832372e+00     1.62639215e+00      
H    -5.04554737e+00     -2.64819207e+00     3.07195539e+00      
O    -5.01938774e+00     -1.53658281e+00     -2.04914764e-01     
H    -5.64306920e+00     -1.80690237e+00     -8.83786656e-01     
H    -4.14380934e+00     -1.71449961e+00     -5.61509337e-01     
O    2.52361687e+00      1.25296362e+00      4.19424314e-01      
H    2.66941228e+00      2.19843268e+00      4.98164100e-01      
H    3.39596975e+00      8.71250484e-01      2.98402993e-01      
29
35.631670
N    3.51586458e-02      5.06329752e-04      5.78030031e-02      
H    6.94003755e-02      -8.55606051e-01     -5.34855262e-01     
H    9.57497325e-01      4.74392338e-01      6.24651420e-02      
H    -6.96745864e-01     6.56255290e-01      -3.04060681e-01     
C    -3.17944669e-01     -3.61961616e-01     1.44312118e+00      
H    4.18811720e-01      -1.04900446e+00     1.84876993e+00      
H    -3.44557636e-01     5.35183532e-01      2.05392210e+00      
C    -1.68230807e+00     -1.02876108e+00     1.41441408e+00      
O    -2.20273133e+00     -1.42637342e+00     3.87061458e-01      
O    -2.17618302e+00     -1.11233989e+00     2.63006184e+00      
H    -3.10693968e+00     -1.50028046e+00     2.58513744e+00      
O    -1.92845228e+00     1.80446208e+00      -3.98366998e-01     
H    -2.81989041e+00     1.63239697e+00      -4.52184950e-02     
H    -2.01084829e+00     2.55000710e+00      -9.94780662e-01     
O    1.89106228e-01      -2.51492741e+00     -1.09412470e+00     
H    -6.77146486e-01     -2.92818727e+00     -1.04532658e+00     
H    6.42257350e-01      -2.93627476e+00     -1.82910032e+00     
O    -4.35374602e+00     1.12284838e+00      6.85102947e-01      
H    -4.67724069e+00     1.32810427e+00      1.56383281e+00      
H    -4.75257818e+00     2.78560555e-01      4.41579385e-01      
O    -4.63112901e+00     -1.97235743e+00     2.52552013e+00      
H    -4.97348073e+00     -2.07642525e+00     1.62705870e+00      
H    -5.04685079e+00     -2.64400277e+00     3.07349208e+00      
O    -5.01947995e+00     -1.53656113e+00     -2.04681715e-01     
H    -5.64326211e+00     -1.80700644e+00     -8.83407052e-01     
H    -4.14396548e+00     -1.71505862e+00     -5.61141663e-01     
O    2.52178401e+00      1.25555466e+00      4.21344573e-01      
H    2.66558978e+00      2.20142182e+00      4.98769645e-01      
H    3.39507280e+00      8.75391703e-01      3.02331518e-01      
29
35.631670
N    3.71980698e-02      -4.16033643e-03     5.56785245e-02      
H    7.25689093e-02      -8.59470389e-01     -5.38124120e-01     
H    9.58378919e-01      4.71918250e-01      6.11843174e-02      
H    -6.95675942e-01     6.51033422e-01      -3.05243347e-01     
C    -3.14921537e-01     -3.68380006e-01     1.44080198e+00      
H    4.20824946e-01      -1.05781376e+00     1.84423563e+00      
H    -3.38519376e-01     5.27839852e-01      2.05306442e+00      
C    -1.68089537e+00     -1.03197236e+00     1.41286452e+00      
O    -2.20223811e+00     -1.42971628e+00     3.86035122e-01      
O    -2.17501464e+00     -1.11243459e+00     2.62864784e+00      
H    -3.10734882e+00     -1.49666142e+00     2.58453524e+00      
O    -1.92704236e+00     1.79951516e+00      -3.98957520e-01     
H    -2.81806105e+00     1.62868963e+00      -4.40499194e-02     
H    -2.00965665e+00     2.54495822e+00      -9.95458992e-01     
O    1.89576370e-01      -2.51722061e+00     -1.10070098e+00     
H    -6.76948900e-01     -2.92994579e+00     -1.05230836e+00     
H    6.42301234e-01      -2.93775472e+00     -1.83640310e+00     
O    -4.35148040e+00     1.12170354e+00      6.87919353e-01      
H    -4.67001033e+00     1.32200563e+00      1.56960467e+00      
H    -4.75054122e+00     2.77995063e-01      4.42792463e-01      
O    -4.63415823e+00     -1.96014623e+00     2.52774159e+00      
H    -4.97631877e+00     -2.06883139e+00     1.62972490e+00      
H    -5.05206449e+00     -2.62724559e+00     3.07963884e+00      
O    -5.01984883e+00     -1.53647439e+00     -2.03749517e-01     
H    -5.64403371e+00     -1.80742276e+00     -8.81888638e-01     
H    -4.14459004e+00     -1.71729466e+00     -5.59670967e-01     
O    2.51445255e+00      1.26591882e+00      4.29025607e-01      
H    2.65029976e+00      2.21337840e+00      5.01191825e-01      
H    3.39148502e+00      8.91956579e-01      3.18045618e-01      
29
35.631670
N    3.77079258e-02      -5.32700298e-03     5.51474048e-02      
H    7.33610428e-02      -8.60436473e-01     -5.38941334e-01     
H    9.58599317e-01      4.71299728e-01      6.08641112e-02      
H    -6.95408461e-01     6.49727954e-01      -3.05539013e-01     
C    -3.14165754e-01     -3.69984604e-01     1.44022218e+00      
H    4.21328253e-01      -1.06001608e+00     1.84310206e+00      
H    -3.37009810e-01     5.26003933e-01      2.05284999e+00      
C    -1.68054220e+00     -1.03277517e+00     1.41247713e+00      
O    -2.20211480e+00     -1.43055200e+00     3.85778538e-01      
O    -2.17472254e+00     -1.11245826e+00     2.62829434e+00      
H    -3.10745110e+00     -1.49575666e+00     2.58438468e+00      
O    -1.92668988e+00     1.79827843e+00      -3.99105151e-01     
H    -2.81760371e+00     1.62776280e+00      -4.37577755e-02     
H    -2.00935875e+00     2.54369600e+00      -9.95628574e-01     
O    1.89693906e-01      -2.51779391e+00     -1.10234505e+00     
H    -6.76899504e-01     -2.93038542e+00     -1.05405380e+00     
H    6.42312205e-01      -2.93812471e+00     -1.83822880e+00     
O    -4.35091399e+00     1.12141734e+00      6.88623455e-01      
H    -4.66820274e+00     1.32048097e+00      1.57104763e+00      
H    -4.75003198e+00     2.77853691e-01      4.43095733e-01      
O    -4.63491553e+00     -1.95709344e+00     2.52829695e+00      
H    -4.97702828e+00     -2.06693292e+00     1.63039145e+00      
H    -5.05336791e+00     -2.62305629e+00     3.08117553e+00      
O    -5.01994104e+00     -1.53645271e+00     -2.03516468e-01     
H    -5.64422662e+00     -1.80752683e+00     -8.81509034e-01     
H    -4.14474618e+00     -1.71785367e+00     -5.59303293e-01     
O    2.51261969e+00      1.26850986e+00      4.30945866e-01      
H    2.64647726e+00      2.21636754e+00      5.01797370e-01      
H    3.39058807e+00      8.96097798e-01      3.21974143e-01      
29
35.631670
N    3.82177819e-02      -6.49366952e-03     5.46162852e-02      
H    7.41531763e-02      -8.61402557e-01     -5.39758549e-01     
H    9.58819715e-01      4.70681206e-01      6.05439050e-02      
H    -6.95140981e-01     6.48422487e-01      -3.05834679e-01     
C    -3.13409971e-01     -3.71589201e-01     1.43964238e+00      
H    4.21831560e-01      -1.06221841e+00     1.84196849e+00      
H    -3.35500245e-01     5.24168013e-01      2.05263557e+00      
C    -1.68018903e+00     -1.03357799e+00     1.41208974e+00      
O    -2.20199150e+00     -1.43138772e+00     3.85521954e-01      
O    -2.17443045e+00     -1.11248193e+00     2.62794083e+00      
H    -3.10755339e+00     -1.49485190e+00     2.58423413e+00      
O    -1.92633740e+00     1.79704170e+00      -3.99252782e-01     
H    -2.81714637e+00     1.62683596e+00      -4.34656316e-02     
H    -2.00906084e+00     2.54243378e+00      -9.95798157e-01     
O    1.89811441e-01      -2.51836720e+00     -1.10398912e+00     
H    -6.76850107e-01     -2.93082505e+00     -1.05579925e+00     
H    6.42323176e-01      -2.93849470e+00     -1.84005450e+00     
O    -4.35034758e+00     1.12113113e+00      6.89327557e-01      
H    -4.66639515e+00     1.31895632e+00      1.57249059e+00      
H    -4.74952274e+00     2.77712318e-01      4.43399003e-01      
O    -4.63567283e+00     -1.95404064e+00     2.52885231e+00      
H    -4.97773780e+00     -2.06503445e+00     1.63105800e+00      
H    -5.05467134e+00     -2.61886699e+00     3.08271222e+00      
O    -5.02003326e+00     -1.53643102e+00     -2.03283418e-01     
H    -5.64441952e+00     -1.80763091e+00     -8.81129431e-01     
H    -4.14490233e+00     -1.71841268e+00     -5.58935619e-01     
O    2.51078683e+00      1.27110090e+00      4.32866125e-01      
H    2.64265475e+00      2.21935668e+00      5.02402915e-01      
H    3.38969113e+00      9.00239017e-01      3.25902668e-01      
29
35.631670
N    3.92374939e-02      -8.82700262e-03     5.35540459e-02      
H    7.57374432e-02      -8.63334726e-01     -5.41392977e-01     
H    9.59260512e-01      4.69444162e-01      5.99034927e-02      
H    -6.94606019e-01     6.45811553e-01      -3.06426012e-01     
C    -3.11898406e-01     -3.74798396e-01     1.43848278e+00      
H    4.22838173e-01      -1.06662306e+00     1.83970134e+00      
H    -3.32481115e-01     5.20496173e-01      2.05220673e+00      
C    -1.67948268e+00     -1.03518363e+00     1.41131496e+00      
O    -2.20174488e+00     -1.43305915e+00     3.85008786e-01      
O    -2.17384625e+00     -1.11252928e+00     2.62723383e+00      
H    -3.10775796e+00     -1.49304239e+00     2.58393303e+00      
O    -1.92563243e+00     1.79456824e+00      -3.99548043e-01     
H    -2.81623169e+00     1.62498229e+00      -4.28813438e-02     
H    -2.00846502e+00     2.53990934e+00      -9.96137322e-01     
O    1.90046512e-01      -2.51951380e+00     -1.10727726e+00     
H    -6.76751314e-01     -2.93170431e+00     -1.05929013e+00     
H    6.42345118e-01      -2.93923468e+00     -1.84370589e+00     
O    -4.34921477e+00     1.12055871e+00      6.90735760e-01      
H    -4.66277996e+00     1.31590700e+00      1.57537652e+00      
H    -4.74850426e+00     2.77429572e-01      4.44005542e-01      
O    -4.63718744e+00     -1.94793504e+00     2.52996304e+00      
H    -4.97915682e+00     -2.06123752e+00     1.63239111e+00      
H    -5.05727819e+00     -2.61048840e+00     3.08578560e+00      
O    -5.02021770e+00     -1.53638766e+00     -2.02817320e-01     
H    -5.64480532e+00     -1.80783907e+00     -8.80370223e-01     
H    -4.14521461e+00     -1.71953071e+00     -5.58200272e-01     
O    2.50712110e+00      1.27628298e+00      4.36706642e-01      
H    2.63500975e+00      2.22533497e+00      5.03614005e-01      
H    3.38789724e+00      9.08521454e-01      3.33759717e-01      
29
35.631670
N    4.02572059e-02      -1.11603357e-02     5.24918066e-02      
H    7.73217101e-02      -8.65266895e-01     -5.43027406e-01     
H    9.59701308e-01      4.68207118e-01      5.92630803e-02      
H    -6.94071058e-01     6.43200618e-01      -3.07017344e-01     
C    -3.10386840e-01     -3.78007591e-01     1.43732318e+00      
H    4.23844787e-01      -1.07102771e+00     1.83743420e+00      
H    -3.29461985e-01     5.16824334e-01      2.05177788e+00      
C    -1.67877633e+00     -1.03678926e+00     1.41054018e+00      
O    -2.20149827e+00     -1.43473059e+00     3.84495618e-01      
O    -2.17326206e+00     -1.11257662e+00     2.62652683e+00      
H    -3.10796253e+00     -1.49123287e+00     2.58363192e+00      
O    -1.92492747e+00     1.79209478e+00      -3.99843305e-01     
H    -2.81531701e+00     1.62312862e+00      -4.22970560e-02     
H    -2.00786920e+00     2.53738490e+00      -9.96476487e-01     
O    1.90281584e-01      -2.52066040e+00     -1.11056539e+00     
H    -6.76652521e-01     -2.93258357e+00     -1.06278102e+00     
H    6.42367060e-01      -2.93997466e+00     -1.84735729e+00     
O    -4.34808195e+00     1.11998630e+00      6.92143963e-01      
H    -4.65916478e+00     1.31285768e+00      1.57826244e+00      
H    -4.74748578e+00     2.77146827e-01      4.44612081e-01      
O    -4.63870205e+00     -1.94182945e+00     2.53107377e+00      
H    -4.98057584e+00     -2.05744058e+00     1.63372421e+00      
H    -5.05988503e+00     -2.60210980e+00     3.08885898e+00      
O    -5.02040214e+00     -1.53634429e+00     -2.02351221e-01     
H    -5.64519112e+00     -1.80804722e+00     -8.79611016e-01     
H    -4.14552689e+00     -1.72064873e+00     -5.57464924e-01     
O    2.50345537e+00      1.28146505e+00      4.40547160e-01      
H    2.62736474e+00      2.23131325e+00      5.04825095e-01      
H    3.38610334e+00      9.16803892e-01      3.41616767e-01      
29
35.631670
N    4.12769179e-02      -1.34936688e-02     5.14295673e-02      
H    7.89059771e-02      -8.67199063e-01     -5.44661835e-01     
H    9.60142105e-01      4.66970075e-01      5.86226680e-02      
H    -6.93536097e-01     6.40589684e-01      -3.07608677e-01     
C    -3.08875274e-01     -3.81216787e-01     1.43616358e+00      
H    4.24851400e-01      -1.07543236e+00     1.83516705e+00      
H    -3.26442854e-01     5.13152494e-01      2.05134904e+00      
C    -1.67806998e+00     -1.03839490e+00     1.40976540e+00      
O    -2.20125166e+00     -1.43640202e+00     3.83982450e-01      
O    -2.17267787e+00     -1.11262397e+00     2.62581983e+00      
H    -3.10816710e+00     -1.48942335e+00     2.58333082e+00      
O    -1.92422251e+00     1.78962133e+00      -4.00138566e-01     
H    -2.81440233e+00     1.62127495e+00      -4.17127682e-02     
H    -2.00727339e+00     2.53486046e+00      -9.96815652e-01     
O    1.90516655e-01      -2.52180700e+00     -1.11385353e+00     
H    -6.76553729e-01     -2.93346283e+00     -1.06627191e+00     
H    6.42389002e-01      -2.94071465e+00     -1.85100868e+00     
O    -4.34694914e+00     1.11941388e+00      6.93552167e-01      
H    -4.65554960e+00     1.30980837e+00      1.58114837e+00      
H    -4.74646730e+00     2.76864081e-01      4.45218621e-01      
O    -4.64021665e+00     -1.93572385e+00     2.53218450e+00      
H    -4.98199487e+00     -2.05364365e+00     1.63505731e+00      
H    -5.06249188e+00     -2.59373121e+00     3.09193237e+00      
O    -5.02058657e+00     -1.53630092e+00     -2.01885122e-01     
H    -5.64557693e+00     -1.80825538e+00     -8.78851809e-01     
H    -4.14583918e+00     -1.72176675e+00     -5.56729576e-01     
O    2.49978965e+00      1.28664713e+00      4.44387677e-01      
H    2.61971973e+00      2.23729154e+00      5.06036185e-01      
H    3.38430945e+00      9.25086330e-01      3.49473817e-01      
29
35.631670
N    4.22966300e-02      -1.58270019e-02     5.03673280e-02      
H    8.04902440e-02      -8.69131232e-01     -5.46296264e-01     
H    9.60582901e-01      4.65733031e-01      5.79822556e-02      
H    -6.93001136e-01     6.37978750e-01      -3.08200009e-01     
C    -3.07363708e-01     -3.84425982e-01     1.43500399e+00      
H    4.25858014e-01      -1.07983701e+00     1.83289991e+00      
H    -3.23423724e-01     5.09480655e-01      2.05092019e+00      
C    -1.67736364e+00     -1.04000053e+00     1.40899062e+00      
O    -2.20100505e+00     -1.43807346e+00     3.83469282e-01      
O    -2.17209368e+00     -1.11267131e+00     2.62511282e+00      
H    -3.10837167e+00     -1.48761383e+00     2.58302972e+00      
O    -1.92351755e+00     1.78714787e+00      -4.00433828e-01     
H    -2.81348765e+00     1.61942129e+00      -4.11284804e-02     
H    -2.00667757e+00     2.53233602e+00      -9.97154817e-01     
O    1.90751726e-01      -2.52295359e+00     -1.11714167e+00     
H    -6.76454936e-01     -2.93434209e+00     -1.06976280e+00     
H    6.42410945e-01      -2.94145463e+00     -1.85466008e+00     
O    -4.34581633e+00     1.11884147e+00      6.94960370e-01      
H    -4.65193442e+00     1.30675905e+00      1.58403429e+00      
H    -4.74544882e+00     2.76581336e-01      4.45825160e-01      
O    -4.64173126e+00     -1.92961826e+00     2.53329522e+00      
H    -4.98341389e+00     -2.04984672e+00     1.63639041e+00      
H    -5.06509873e+00     -2.58535262e+00     3.09500575e+00      
O    -5.02077101e+00     -1.53625755e+00     -2.01419023e-01     
H    -5.64596273e+00     -1.80846353e+00     -8.78092602e-01     
H    -4.14615146e+00     -1.72288477e+00     -5.55994228e-01     
O    2.49612392e+00      1.29182921e+00      4.48228195e-01      
H    2.61207472e+00      2.24326982e+00      5.07247275e-01      
H    3.38251556e+00      9.33368768e-01      3.57330867e-01      
29
35.631670
N    4.43360540e-02      -2.04936681e-02     4.82428494e-02      
H    8.36587779e-02      -8.72995569e-01     -5.49565122e-01     
H    9.61464494e-01      4.63258943e-01      5.67014309e-02      
H    -6.91931213e-01     6.32756881e-01      -3.09382674e-01     
C    -3.04340577e-01     -3.90844372e-01     1.43268479e+00      
H    4.27871241e-01      -1.08864631e+00     1.82836561e+00      
H    -3.17385463e-01     5.02136976e-01      2.05006250e+00      
C    -1.67595094e+00     -1.04321180e+00     1.40744106e+00      
O    -2.20051183e+00     -1.44141633e+00     3.82442945e-01      
O    -2.17092529e+00     -1.11276600e+00     2.62369882e+00      
H    -3.10878081e+00     -1.48399480e+00     2.58242751e+00      
O    -1.92210763e+00     1.78220095e+00      -4.01024351e-01     
H    -2.81165829e+00     1.61571395e+00      -3.99599048e-02     
H    -2.00548594e+00     2.52728714e+00      -9.97833146e-01     
O    1.91221868e-01      -2.52524679e+00     -1.12371795e+00     
H    -6.76257350e-01     -2.93610060e+00     -1.07674457e+00     
H    6.42454829e-01      -2.94293459e+00     -1.86196287e+00     
O    -4.34355070e+00     1.11769664e+00      6.97776777e-01      
H    -4.64470405e+00     1.30066042e+00      1.58980614e+00      
H    -4.74341186e+00     2.76015844e-01      4.47038238e-01      
O    -4.64476047e+00     -1.91740707e+00     2.53551668e+00      
H    -4.98625194e+00     -2.04225285e+00     1.63905661e+00      
H    -5.07031243e+00     -2.56859543e+00     3.10115251e+00      
O    -5.02113988e+00     -1.53617082e+00     -2.00486826e-01     
H    -5.64673434e+00     -1.80887985e+00     -8.76574187e-01     
H    -4.14677602e+00     -1.72512081e+00     -5.54523533e-01     
O    2.48879247e+00      1.30219337e+00      4.55909230e-01      
H    2.59678470e+00      2.25522640e+00      5.09669455e-01      
H    3.37892778e+00      9.49933643e-01      3.73044967e-01      
