29
3893.034018
N    3.61330619e-02      -1.85898132e-03     5.67551995e-02      
H    7.12174371e-02      -8.57355600e-01     -5.36528340e-01     
H    9.58363879e-01      4.73344737e-01      6.17621268e-02      
H    -6.96191970e-01     6.53828125e-01      -3.04785394e-01     
C    -3.16403757e-01     -3.65150241e-01     1.44197748e+00      
H    4.19713994e-01      -1.05335787e+00     1.84651711e+00      
H    -3.41539662e-01     5.31319935e-01      2.05342294e+00      
C    -1.68161435e+00     -1.03035911e+00     1.41368992e+00      
O    -2.20249106e+00     -1.42806107e+00     3.86505380e-01      
O    -2.17552428e+00     -1.11236428e+00     2.62934634e+00      
H    -3.10819749e+00     -1.49884468e+00     2.58468524e+00      
O    -1.92768150e+00     1.80178441e+00      -3.98515817e-01     
H    -2.81978104e+00     1.63038233e+00      -4.40030320e-02     
H    -2.01050404e+00     2.55093728e+00      -9.97902517e-01     
O    1.90438009e-01      -2.51600130e+00     -1.09798608e+00     
H    -6.89404390e-01     -2.93515931e+00     -1.04809108e+00     
H    6.37210813e-01      -2.93218364e+00     -1.82438667e+00     
O    -4.35372004e+00     1.12618258e+00      6.93492759e-01      
H    -4.63739575e+00     1.29963577e+00      1.46425918e+00      
H    -4.77012496e+00     2.41284204e-01      4.33807791e-01      
O    -4.63262901e+00     -1.96640719e+00     2.52710847e+00      
H    -4.97677383e+00     -2.07280204e+00     1.62292819e+00      
H    -5.04754260e+00     -2.63262338e+00     3.07415252e+00      
O    -5.00870824e+00     -1.53585426e+00     -2.01860462e-01     
H    -5.71570683e+00     -1.83893533e+00     -9.61874710e-01     
H    -4.24658847e+00     -1.69490907e+00     -5.18126196e-01     
O    2.51810152e+00      1.26073662e+00      4.25186456e-01      
H    2.65795813e+00      2.20749045e+00      4.99985840e-01      
H    3.39350884e+00      8.83574429e-01      3.10160193e-01      
29
3893.034018
N    3.61443859e-02      -1.85098683e-03     5.67515906e-02      
H    7.11592384e-02      -8.57401255e-01     -5.36518678e-01     
H    9.58257440e-01      4.73297377e-01      6.17777775e-02      
H    -6.96196703e-01     6.53782183e-01      -3.04752049e-01     
C    -3.16411094e-01     -3.65155383e-01     1.44197350e+00      
H    4.19740079e-01      -1.05337068e+00     1.84651353e+00      
H    -3.41539373e-01     5.31367874e-01      2.05344052e+00      
C    -1.68161119e+00     -1.03036101e+00     1.41367726e+00      
O    -2.20248948e+00     -1.42805702e+00     3.86516107e-01      
O    -2.17554291e+00     -1.11237002e+00     2.62934847e+00      
H    -3.10793418e+00     -1.49875124e+00     2.58472301e+00      
O    -1.92769796e+00     1.80183546e+00      -3.98552428e-01     
H    -2.81957972e+00     1.63042257e+00      -4.41608258e-02     
H    -2.01044114e+00     2.55007362e+00      -9.97206844e-01     
O    1.90163832e-01      -2.51601948e+00     -1.09784277e+00     
H    -6.86315215e-01     -2.93363611e+00     -1.04827268e+00     
H    6.38477933e-01      -2.93339142e+00     -1.82647793e+00     
O    -4.35344333e+00     1.12520593e+00      6.91747357e-01      
H    -4.64645319e+00     1.30599056e+00      1.48987407e+00      
H    -4.76548364e+00     2.50532605e-01      4.35902324e-01      
O    -4.63263266e+00     -1.96636835e+00     2.52698907e+00      
H    -4.97630531e+00     -2.07275861e+00     1.62429409e+00      
H    -5.04802136e+00     -2.63337358e+00     3.07475576e+00      
O    -5.01144728e+00     -1.53602013e+00     -2.02449251e-01     
H    -5.69769210e+00     -1.83100515e+00     -9.42067994e-01     
H    -4.22101079e+00     -1.70022596e+00     -5.28696226e-01     
O    2.51810571e+00      1.26073665e+00      4.25186114e-01      
H    2.65795479e+00      2.20746787e+00      4.99984564e-01      
H    3.39345136e+00      8.83599357e-01      3.10167287e-01      
29
3893.034018
N    3.61500479e-02      -1.84698958e-03     5.67497861e-02      
H    7.11301391e-02      -8.57424083e-01     -5.36513847e-01     
H    9.58204220e-01      4.73273696e-01      6.17856029e-02      
H    -6.96199070e-01     6.53759212e-01      -3.04735377e-01     
C    -3.16414762e-01     -3.65157954e-01     1.44197152e+00      
H    4.19753121e-01      -1.05337709e+00     1.84651174e+00      
H    -3.41539228e-01     5.31391844e-01      2.05344931e+00      
C    -1.68160961e+00     -1.03036196e+00     1.41367094e+00      
O    -2.20248868e+00     -1.42805499e+00     3.86521471e-01      
O    -2.17555223e+00     -1.11237289e+00     2.62934953e+00      
H    -3.10780253e+00     -1.49870453e+00     2.58474190e+00      
O    -1.92770618e+00     1.80186099e+00      -3.98570733e-01     
H    -2.81947905e+00     1.63044269e+00      -4.42397227e-02     
H    -2.01040970e+00     2.54964180e+00      -9.96859008e-01     
O    1.90026743e-01      -2.51602857e+00     -1.09777111e+00     
H    -6.84770628e-01     -2.93287452e+00     -1.04836348e+00     
H    6.39111493e-01      -2.93399530e+00     -1.82752356e+00     
O    -4.35330498e+00     1.12471760e+00      6.90874656e-01      
H    -4.65098191e+00     1.30916796e+00      1.50268151e+00      
H    -4.76316299e+00     2.55156806e-01      4.36949591e-01      
O    -4.63263449e+00     -1.96634893e+00     2.52692937e+00      
H    -4.97607105e+00     -2.07273689e+00     1.62497704e+00      
H    -5.04826074e+00     -2.63374868e+00     3.07505738e+00      
O    -5.01281679e+00     -1.53610307e+00     -2.02743645e-01     
H    -5.68868474e+00     -1.82704006e+00     -9.32164636e-01     
H    -4.20822195e+00     -1.70288441e+00     -5.33981240e-01     
O    2.51810780e+00      1.26073667e+00      4.25185944e-01      
H    2.65795312e+00      2.20745657e+00      4.99983925e-01      
H    3.39342262e+00      8.83611821e-01      3.10170834e-01      
29
3893.034018
N    3.61557099e-02      -1.84299233e-03     5.67479816e-02      
H    7.11010398e-02      -8.57446910e-01     -5.36509016e-01     
H    9.58151001e-01      4.73250016e-01      6.17934282e-02      
H    -6.96201437e-01     6.53736240e-01      -3.04718704e-01     
C    -3.16418430e-01     -3.65160526e-01     1.44196953e+00      
H    4.19766164e-01      -1.05338349e+00     1.84650995e+00      
H    -3.41539084e-01     5.31415814e-01      2.05345810e+00      
C    -1.68160803e+00     -1.03036292e+00     1.41366461e+00      
O    -2.20248789e+00     -1.42805296e+00     3.86526835e-01      
O    -2.17556155e+00     -1.11237576e+00     2.62935059e+00      
H    -3.10767087e+00     -1.49865781e+00     2.58476079e+00      
O    -1.92771441e+00     1.80188651e+00      -3.98589038e-01     
H    -2.81937839e+00     1.63046282e+00      -4.43186196e-02     
H    -2.01037825e+00     2.54920997e+00      -9.96511172e-01     
O    1.89889654e-01      -2.51603766e+00     -1.09769946e+00     
H    -6.83226041e-01     -2.93211292e+00     -1.04845428e+00     
H    6.39745053e-01      -2.93459919e+00     -1.82856919e+00     
O    -4.35316663e+00     1.12422927e+00      6.90001955e-01      
H    -4.65551063e+00     1.31234536e+00      1.51548896e+00      
H    -4.76084233e+00     2.59781006e-01      4.37996858e-01      
O    -4.63263631e+00     -1.96632951e+00     2.52686967e+00      
H    -4.97583679e+00     -2.07271518e+00     1.62566000e+00      
H    -5.04850012e+00     -2.63412378e+00     3.07535899e+00      
O    -5.01418631e+00     -1.53618601e+00     -2.03038039e-01     
H    -5.67967737e+00     -1.82307496e+00     -9.22261278e-01     
H    -4.19543312e+00     -1.70554285e+00     -5.39266255e-01     
O    2.51810990e+00      1.26073668e+00      4.25185773e-01      
H    2.65795145e+00      2.20744528e+00      4.99983287e-01      
H    3.39339388e+00      8.83624285e-01      3.10174380e-01      
29
3893.034018
N    3.61613719e-02      -1.83899508e-03     5.67461772e-02      
H    7.10719404e-02      -8.57469738e-01     -5.36504184e-01     
H    9.58097781e-01      4.73226335e-01      6.18012536e-02      
H    -6.96203803e-01     6.53713269e-01      -3.04702032e-01     
C    -3.16422098e-01     -3.65163097e-01     1.44196754e+00      
H    4.19779206e-01      -1.05338990e+00     1.84650816e+00      
H    -3.41538939e-01     5.31439783e-01      2.05346689e+00      
C    -1.68160646e+00     -1.03036387e+00     1.41365828e+00      
O    -2.20248710e+00     -1.42805093e+00     3.86532199e-01      
O    -2.17557087e+00     -1.11237863e+00     2.62935165e+00      
H    -3.10753922e+00     -1.49861109e+00     2.58477968e+00      
O    -1.92772264e+00     1.80191204e+00      -3.98607343e-01     
H    -2.81927772e+00     1.63048294e+00      -4.43975165e-02     
H    -2.01034681e+00     2.54877814e+00      -9.96163336e-01     
O    1.89752565e-01      -2.51604674e+00     -1.09762780e+00     
H    -6.81681454e-01     -2.93135132e+00     -1.04854507e+00     
H    6.40378613e-01      -2.93520308e+00     -1.82961482e+00     
O    -4.35302827e+00     1.12374094e+00      6.89129253e-01      
H    -4.66003935e+00     1.31552276e+00      1.52829640e+00      
H    -4.75852167e+00     2.64405207e-01      4.39044124e-01      
O    -4.63263814e+00     -1.96631009e+00     2.52680996e+00      
H    -4.97560253e+00     -2.07269346e+00     1.62634295e+00      
H    -5.04873950e+00     -2.63449888e+00     3.07566061e+00      
O    -5.01555583e+00     -1.53626895e+00     -2.03332433e-01     
H    -5.67067001e+00     -1.81910987e+00     -9.12357919e-01     
H    -4.18264428e+00     -1.70820130e+00     -5.44551270e-01     
O    2.51811199e+00      1.26073670e+00      4.25185602e-01      
H    2.65794978e+00      2.20743399e+00      4.99982649e-01      
H    3.39336513e+00      8.83636749e-01      3.10177927e-01      
29
3893.034018
N    3.61670338e-02      -1.83499784e-03     5.67443727e-02      
H    7.10428411e-02      -8.57492565e-01     -5.36499353e-01     
H    9.58044561e-01      4.73202655e-01      6.18090790e-02      
H    -6.96206170e-01     6.53690298e-01      -3.04685359e-01     
C    -3.16425767e-01     -3.65165668e-01     1.44196555e+00      
H    4.19792248e-01      -1.05339630e+00     1.84650636e+00      
H    -3.41538795e-01     5.31463753e-01      2.05347568e+00      
C    -1.68160488e+00     -1.03036482e+00     1.41365195e+00      
O    -2.20248631e+00     -1.42804891e+00     3.86537562e-01      
O    -2.17558019e+00     -1.11238150e+00     2.62935272e+00      
H    -3.10740756e+00     -1.49856437e+00     2.58479856e+00      
O    -1.92773087e+00     1.80193757e+00      -3.98625649e-01     
H    -2.81917706e+00     1.63050306e+00      -4.44764134e-02     
H    -2.01031536e+00     2.54834631e+00      -9.95815499e-01     
O    1.89615477e-01      -2.51605583e+00     -1.09755615e+00     
H    -6.80136867e-01     -2.93058972e+00     -1.04863587e+00     
H    6.41012172e-01      -2.93580697e+00     -1.83066045e+00     
O    -4.35288992e+00     1.12325262e+00      6.88256552e-01      
H    -4.66456807e+00     1.31870015e+00      1.54110385e+00      
H    -4.75620101e+00     2.69029408e-01      4.40091391e-01      
O    -4.63263997e+00     -1.96629067e+00     2.52675026e+00      
H    -4.97536827e+00     -2.07267175e+00     1.62702590e+00      
H    -5.04897888e+00     -2.63487398e+00     3.07596223e+00      
O    -5.01692535e+00     -1.53635188e+00     -2.03626828e-01     
H    -5.66166264e+00     -1.81514478e+00     -9.02454561e-01     
H    -4.16985544e+00     -1.71085975e+00     -5.49836285e-01     
O    2.51811409e+00      1.26073671e+00      4.25185431e-01      
H    2.65794811e+00      2.20742270e+00      4.99982011e-01      
H    3.39333639e+00      8.83649213e-01      3.10181474e-01      
29
3893.034018
N    3.61698648e-02      -1.83299921e-03     5.67434705e-02      
H    7.10282914e-02      -8.57503979e-01     -5.36496938e-01     
H    9.58017951e-01      4.73190815e-01      6.18129917e-02      
H    -6.96207353e-01     6.53678813e-01      -3.04677023e-01     
C    -3.16427601e-01     -3.65166954e-01     1.44196456e+00      
H    4.19798769e-01      -1.05339950e+00     1.84650547e+00      
H    -3.41538723e-01     5.31475738e-01      2.05348007e+00      
C    -1.68160409e+00     -1.03036529e+00     1.41364879e+00      
O    -2.20248591e+00     -1.42804789e+00     3.86540244e-01      
O    -2.17558485e+00     -1.11238294e+00     2.62935325e+00      
H    -3.10734173e+00     -1.49854102e+00     2.58480801e+00      
O    -1.92773498e+00     1.80195033e+00      -3.98634801e-01     
H    -2.81912673e+00     1.63051312e+00      -4.45158618e-02     
H    -2.01029964e+00     2.54813040e+00      -9.95641581e-01     
O    1.89546932e-01      -2.51606038e+00     -1.09752032e+00     
H    -6.79364574e-01     -2.93020893e+00     -1.04868127e+00     
H    6.41328952e-01      -2.93610891e+00     -1.83118327e+00     
O    -4.35282074e+00     1.12300845e+00      6.87820202e-01      
H    -4.66683243e+00     1.32028885e+00      1.54750757e+00      
H    -4.75504069e+00     2.71341508e-01      4.40615024e-01      
O    -4.63264088e+00     -1.96628096e+00     2.52672041e+00      
H    -4.97525114e+00     -2.07266089e+00     1.62736737e+00      
H    -5.04909857e+00     -2.63506153e+00     3.07611303e+00      
O    -5.01761011e+00     -1.53639335e+00     -2.03774025e-01     
H    -5.65715896e+00     -1.81316224e+00     -8.97502882e-01     
H    -4.16346102e+00     -1.71218897e+00     -5.52478793e-01     
O    2.51811514e+00      1.26073672e+00      4.25185346e-01      
H    2.65794727e+00      2.20741705e+00      4.99981692e-01      
H    3.39332202e+00      8.83655445e-01      3.10183248e-01      
29
3893.034018
N    3.61726958e-02      -1.83100059e-03     5.67425683e-02      
H    7.10137417e-02      -8.57515393e-01     -5.36494522e-01     
H    9.57991342e-01      4.73178974e-01      6.18169043e-02      
H    -6.96208536e-01     6.53667327e-01      -3.04668687e-01     
C    -3.16429435e-01     -3.65168240e-01     1.44196357e+00      
H    4.19805291e-01      -1.05340271e+00     1.84650457e+00      
H    -3.41538650e-01     5.31487722e-01      2.05348447e+00      
C    -1.68160330e+00     -1.03036577e+00     1.41364563e+00      
O    -2.20248551e+00     -1.42804688e+00     3.86542926e-01      
O    -2.17558951e+00     -1.11238437e+00     2.62935378e+00      
H    -3.10727591e+00     -1.49851766e+00     2.58481745e+00      
O    -1.92773909e+00     1.80196309e+00      -3.98643954e-01     
H    -2.81907639e+00     1.63052318e+00      -4.45553103e-02     
H    -2.01028392e+00     2.54791449e+00      -9.95467663e-01     
O    1.89478388e-01      -2.51606492e+00     -1.09748449e+00     
H    -6.78592280e-01     -2.92982813e+00     -1.04872667e+00     
H    6.41645732e-01      -2.93641085e+00     -1.83170608e+00     
O    -4.35275156e+00     1.12276429e+00      6.87383851e-01      
H    -4.66909679e+00     1.32187755e+00      1.55391129e+00      
H    -4.75388036e+00     2.73653608e-01      4.41138657e-01      
O    -4.63264179e+00     -1.96627125e+00     2.52669056e+00      
H    -4.97513401e+00     -2.07265003e+00     1.62770885e+00      
H    -5.04921826e+00     -2.63524908e+00     3.07626384e+00      
O    -5.01829487e+00     -1.53643482e+00     -2.03921222e-01     
H    -5.65265528e+00     -1.81117969e+00     -8.92551203e-01     
H    -4.15706660e+00     -1.71351819e+00     -5.55121300e-01     
O    2.51811618e+00      1.26073673e+00      4.25185261e-01      
H    2.65794644e+00      2.20741140e+00      4.99981373e-01      
H    3.39330765e+00      8.83661677e-01      3.10185021e-01      
29
3893.034018
N    3.61840198e-02      -1.82300609e-03     5.67389593e-02      
H    7.09555431e-02      -8.57561047e-01     -5.36484860e-01     
H    9.57884902e-01      4.73131614e-01      6.18325551e-02      
H    -6.96213270e-01     6.53621385e-01      -3.04635341e-01     
C    -3.16436771e-01     -3.65173382e-01     1.44195959e+00      
H    4.19831375e-01      -1.05341551e+00     1.84650099e+00      
H    -3.41538362e-01     5.31535662e-01      2.05350205e+00      
C    -1.68160014e+00     -1.03036767e+00     1.41363297e+00      
O    -2.20248393e+00     -1.42804282e+00     3.86553654e-01      
O    -2.17560815e+00     -1.11239011e+00     2.62935590e+00      
H    -3.10701259e+00     -1.49842422e+00     2.58485523e+00      
O    -1.92775555e+00     1.80201415e+00      -3.98680564e-01     
H    -2.81887507e+00     1.63056342e+00      -4.47131041e-02     
H    -2.01022102e+00     2.54705083e+00      -9.94771991e-01     
O    1.89204210e-01      -2.51608310e+00     -1.09734119e+00     
H    -6.75503106e-01     -2.92830493e+00     -1.04890827e+00     
H    6.42912852e-01      -2.93761863e+00     -1.83379734e+00     
O    -4.35247486e+00     1.12178763e+00      6.85638449e-01      
H    -4.67815423e+00     1.32823235e+00      1.57952619e+00      
H    -4.74923904e+00     2.82902010e-01      4.43233191e-01      
O    -4.63264545e+00     -1.96623241e+00     2.52657116e+00      
H    -4.97466549e+00     -2.07260661e+00     1.62907475e+00      
H    -5.04969702e+00     -2.63599928e+00     3.07686708e+00      
O    -5.02103391e+00     -1.53660070e+00     -2.04510010e-01     
H    -5.63464054e+00     -1.80324951e+00     -8.72744487e-01     
H    -4.13148892e+00     -1.71883509e+00     -5.65691330e-01     
O    2.51812038e+00      1.26073675e+00      4.25184919e-01      
H    2.65794310e+00      2.20738882e+00      4.99980097e-01      
H    3.39325017e+00      8.83686605e-01      3.10192115e-01      
29
3893.034018
N    3.61868508e-02      -1.82100747e-03     5.67380571e-02      
H    7.09409934e-02      -8.57572461e-01     -5.36482444e-01     
H    9.57858293e-01      4.73119773e-01      6.18364677e-02      
H    -6.96214453e-01     6.53609899e-01      -3.04627005e-01     
C    -3.16438605e-01     -3.65174668e-01     1.44195860e+00      
H    4.19837897e-01      -1.05341872e+00     1.84650009e+00      
H    -3.41538289e-01     5.31547646e-01      2.05350645e+00      
C    -1.68159935e+00     -1.03036815e+00     1.41362981e+00      
O    -2.20248353e+00     -1.42804181e+00     3.86556336e-01      
O    -2.17561281e+00     -1.11239154e+00     2.62935643e+00      
H    -3.10694677e+00     -1.49840086e+00     2.58486467e+00      
O    -1.92775966e+00     1.80202691e+00      -3.98689717e-01     
H    -2.81882473e+00     1.63057348e+00      -4.47525526e-02     
H    -2.01020530e+00     2.54683492e+00      -9.94598073e-01     
O    1.89135666e-01      -2.51608764e+00     -1.09730536e+00     
H    -6.74730812e-01     -2.92792413e+00     -1.04895367e+00     
H    6.43229632e-01      -2.93792057e+00     -1.83432015e+00     
O    -4.35240568e+00     1.12154347e+00      6.85202098e-01      
H    -4.68041859e+00     1.32982105e+00      1.58592991e+00      
H    -4.74807871e+00     2.85214110e-01      4.43756824e-01      
O    -4.63264636e+00     -1.96622270e+00     2.52654131e+00      
H    -4.97454836e+00     -2.07259575e+00     1.62941623e+00      
H    -5.04981671e+00     -2.63618683e+00     3.07701789e+00      
O    -5.02171867e+00     -1.53664217e+00     -2.04657207e-01     
H    -5.63013686e+00     -1.80126696e+00     -8.67792808e-01     
H    -4.12509450e+00     -1.72016431e+00     -5.68333837e-01     
O    2.51812142e+00      1.26073676e+00      4.25184834e-01      
H    2.65794227e+00      2.20738317e+00      4.99979778e-01      
H    3.39323580e+00      8.83692837e-01      3.10193888e-01      
29
3893.034018
N    3.61896818e-02      -1.81900884e-03     5.67371549e-02      
H    7.09264437e-02      -8.57583875e-01     -5.36480029e-01     
H    9.57831683e-01      4.73107933e-01      6.18403804e-02      
H    -6.96215636e-01     6.53598414e-01      -3.04618669e-01     
C    -3.16440439e-01     -3.65175954e-01     1.44195761e+00      
H    4.19844418e-01      -1.05342192e+00     1.84649920e+00      
H    -3.41538217e-01     5.31559631e-01      2.05351084e+00      
C    -1.68159856e+00     -1.03036862e+00     1.41362665e+00      
O    -2.20248313e+00     -1.42804079e+00     3.86559018e-01      
O    -2.17561747e+00     -1.11239298e+00     2.62935696e+00      
H    -3.10688094e+00     -1.49837751e+00     2.58487412e+00      
O    -1.92776377e+00     1.80203967e+00      -3.98698869e-01     
H    -2.81877440e+00     1.63058354e+00      -4.47920010e-02     
H    -2.01018958e+00     2.54661901e+00      -9.94424155e-01     
O    1.89067121e-01      -2.51609219e+00     -1.09726953e+00     
H    -6.73958519e-01     -2.92754334e+00     -1.04899907e+00     
H    6.43546412e-01      -2.93822251e+00     -1.83484297e+00     
O    -4.35233650e+00     1.12129930e+00      6.84765748e-01      
H    -4.68268295e+00     1.33140975e+00      1.59233363e+00      
H    -4.74691839e+00     2.87526210e-01      4.44280457e-01      
O    -4.63264727e+00     -1.96621299e+00     2.52651146e+00      
H    -4.97443123e+00     -2.07258489e+00     1.62975770e+00      
H    -5.04993640e+00     -2.63637438e+00     3.07716869e+00      
O    -5.02240343e+00     -1.53668364e+00     -2.04804404e-01     
H    -5.62563318e+00     -1.79928442e+00     -8.62841129e-01     
H    -4.11870008e+00     -1.72149353e+00     -5.70976345e-01     
O    2.51812247e+00      1.26073677e+00      4.25184749e-01      
H    2.65794143e+00      2.20737752e+00      4.99979459e-01      
H    3.39322143e+00      8.83699069e-01      3.10195662e-01      
29
3893.034018
N    3.61953437e-02      -1.81501160e-03     5.67353504e-02      
H    7.08973444e-02      -8.57606702e-01     -5.36475198e-01     
H    9.57778463e-01      4.73084253e-01      6.18482058e-02      
H    -6.96218003e-01     6.53575443e-01      -3.04601996e-01     
C    -3.16444108e-01     -3.65178525e-01     1.44195562e+00      
H    4.19857460e-01      -1.05342832e+00     1.84649740e+00      
H    -3.41538073e-01     5.31583601e-01      2.05351963e+00      
C    -1.68159698e+00     -1.03036957e+00     1.41362032e+00      
O    -2.20248234e+00     -1.42803877e+00     3.86564381e-01      
O    -2.17562679e+00     -1.11239585e+00     2.62935803e+00      
H    -3.10674928e+00     -1.49833079e+00     2.58489300e+00      
O    -1.92777200e+00     1.80206520e+00      -3.98717175e-01     
H    -2.81867374e+00     1.63060366e+00      -4.48708979e-02     
H    -2.01015813e+00     2.54618718e+00      -9.94076318e-01     
O    1.88930033e-01      -2.51610128e+00     -1.09719788e+00     
H    -6.72413932e-01     -2.92678174e+00     -1.04908987e+00     
H    6.44179971e-01      -2.93882640e+00     -1.83588860e+00     
O    -4.35219815e+00     1.12081098e+00      6.83893047e-01      
H    -4.68721167e+00     1.33458714e+00      1.60514108e+00      
H    -4.74459773e+00     2.92150411e-01      4.45327724e-01      
O    -4.63264910e+00     -1.96619357e+00     2.52645176e+00      
H    -4.97419697e+00     -2.07256318e+00     1.63044065e+00      
H    -5.05017578e+00     -2.63674948e+00     3.07747031e+00      
O    -5.02377295e+00     -1.53676657e+00     -2.05098799e-01     
H    -5.61662581e+00     -1.79531933e+00     -8.52937771e-01     
H    -4.10591124e+00     -1.72415198e+00     -5.76261360e-01     
O    2.51812457e+00      1.26073678e+00      4.25184578e-01      
H    2.65793976e+00      2.20736623e+00      4.99978821e-01      
H    3.39319269e+00      8.83711533e-01      3.10199209e-01      
29
3893.034018
N    3.62010057e-02      -1.81101435e-03     5.67335460e-02      
H    7.08682450e-02      -8.57629530e-01     -5.36470366e-01     
H    9.57725243e-01      4.73060572e-01      6.18560312e-02      
H    -6.96220369e-01     6.53552472e-01      -3.04585324e-01     
C    -3.16447776e-01     -3.65181096e-01     1.44195363e+00      
H    4.19870502e-01      -1.05343473e+00     1.84649561e+00      
H    -3.41537928e-01     5.31607570e-01      2.05352842e+00      
C    -1.68159541e+00     -1.03037052e+00     1.41361399e+00      
O    -2.20248155e+00     -1.42803674e+00     3.86569745e-01      
O    -2.17563611e+00     -1.11239872e+00     2.62935909e+00      
H    -3.10661763e+00     -1.49828407e+00     2.58491189e+00      
O    -1.92778023e+00     1.80209073e+00      -3.98735480e-01     
H    -2.81857307e+00     1.63062378e+00      -4.49497948e-02     
H    -2.01012669e+00     2.54575535e+00      -9.93728482e-01     
O    1.88792944e-01      -2.51611036e+00     -1.09712622e+00     
H    -6.70869345e-01     -2.92602014e+00     -1.04918066e+00     
H    6.44813531e-01      -2.93943029e+00     -1.83693423e+00     
O    -4.35205979e+00     1.12032265e+00      6.83020345e-01      
H    -4.69174039e+00     1.33776454e+00      1.61794852e+00      
H    -4.74227707e+00     2.96774612e-01      4.46374990e-01      
O    -4.63265093e+00     -1.96617415e+00     2.52639205e+00      
H    -4.97396271e+00     -2.07254146e+00     1.63112360e+00      
H    -5.05041516e+00     -2.63712458e+00     3.07777193e+00      
O    -5.02514247e+00     -1.53684951e+00     -2.05393193e-01     
H    -5.60761845e+00     -1.79135424e+00     -8.43034412e-01     
H    -4.09312240e+00     -1.72681043e+00     -5.81546375e-01     
O    2.51812666e+00      1.26073680e+00      4.25184407e-01      
H    2.65793809e+00      2.20735494e+00      4.99978183e-01      
H    3.39316394e+00      8.83723997e-01      3.10202756e-01      
29
3893.034018
N    3.62066677e-02      -1.80701710e-03     5.67317415e-02      
H    7.08391457e-02      -8.57652357e-01     -5.36465535e-01     
H    9.57672024e-01      4.73036892e-01      6.18638565e-02      
H    -6.96222736e-01     6.53529500e-01      -3.04568651e-01     
C    -3.16451444e-01     -3.65183668e-01     1.44195164e+00      
H    4.19883545e-01      -1.05344113e+00     1.84649382e+00      
H    -3.41537784e-01     5.31631540e-01      2.05353721e+00      
C    -1.68159383e+00     -1.03037148e+00     1.41360766e+00      
O    -2.20248076e+00     -1.42803471e+00     3.86575109e-01      
O    -2.17564543e+00     -1.11240159e+00     2.62936015e+00      
H    -3.10648597e+00     -1.49823735e+00     2.58493078e+00      
O    -1.92778846e+00     1.80211625e+00      -3.98753785e-01     
H    -2.81847241e+00     1.63064391e+00      -4.50286917e-02     
H    -2.01009524e+00     2.54532352e+00      -9.93380646e-01     
O    1.88655855e-01      -2.51611945e+00     -1.09705457e+00     
H    -6.69324758e-01     -2.92525854e+00     -1.04927146e+00     
H    6.45447091e-01      -2.94003418e+00     -1.83797986e+00     
O    -4.35192144e+00     1.11983432e+00      6.82147644e-01      
H    -4.69626911e+00     1.34094194e+00      1.63075597e+00      
H    -4.73995641e+00     3.01398812e-01      4.47422257e-01      
O    -4.63265275e+00     -1.96615473e+00     2.52633235e+00      
H    -4.97372845e+00     -2.07251975e+00     1.63180656e+00      
H    -5.05065454e+00     -2.63749968e+00     3.07807354e+00      
O    -5.02651199e+00     -1.53693245e+00     -2.05687587e-01     
H    -5.59861108e+00     -1.78738914e+00     -8.33131054e-01     
H    -4.08033357e+00     -1.72946887e+00     -5.86831390e-01     
O    2.51812876e+00      1.26073681e+00      4.25184236e-01      
H    2.65793642e+00      2.20734365e+00      4.99977545e-01      
H    3.39313520e+00      8.83736461e-01      3.10206302e-01      
29
3893.034018
N    3.62123297e-02      -1.80301985e-03     5.67299370e-02      
H    7.08100464e-02      -8.57675185e-01     -5.36460704e-01     
H    9.57618804e-01      4.73013211e-01      6.18716819e-02      
H    -6.96225103e-01     6.53506529e-01      -3.04551979e-01     
C    -3.16455112e-01     -3.65186239e-01     1.44194966e+00      
H    4.19896587e-01      -1.05344754e+00     1.84649203e+00      
H    -3.41537639e-01     5.31655510e-01      2.05354600e+00      
C    -1.68159225e+00     -1.03037243e+00     1.41360134e+00      
O    -2.20247996e+00     -1.42803268e+00     3.86580473e-01      
O    -2.17565475e+00     -1.11240446e+00     2.62936121e+00      
H    -3.10635432e+00     -1.49819064e+00     2.58494967e+00      
O    -1.92779668e+00     1.80214178e+00      -3.98772090e-01     
H    -2.81837174e+00     1.63066403e+00      -4.51075886e-02     
H    -2.01006380e+00     2.54489170e+00      -9.93032810e-01     
O    1.88518766e-01      -2.51612854e+00     -1.09698291e+00     
H    -6.67780171e-01     -2.92449695e+00     -1.04936226e+00     
H    6.46080651e-01      -2.94063806e+00     -1.83902549e+00     
O    -4.35178309e+00     1.11934599e+00      6.81274943e-01      
H    -4.70079783e+00     1.34411934e+00      1.64356341e+00      
H    -4.73763576e+00     3.06023013e-01      4.48469524e-01      
O    -4.63265458e+00     -1.96613531e+00     2.52627265e+00      
H    -4.97349419e+00     -2.07249803e+00     1.63248951e+00      
H    -5.05089392e+00     -2.63787478e+00     3.07837516e+00      
O    -5.02788150e+00     -1.53701539e+00     -2.05981981e-01     
H    -5.58960372e+00     -1.78342405e+00     -8.23227696e-01     
H    -4.06754473e+00     -1.73212732e+00     -5.92116404e-01     
O    2.51813085e+00      1.26073683e+00      4.25184066e-01      
H    2.65793475e+00      2.20733235e+00      4.99976906e-01      
H    3.39310646e+00      8.83748925e-01      3.10209849e-01      
29
3893.034018
N    3.62236537e-02      -1.79502536e-03     5.67263281e-02      
H    7.07518477e-02      -8.57720840e-01     -5.36451042e-01     
H    9.57512365e-01      4.72965851e-01      6.18873326e-02      
H    -6.96229836e-01     6.53460587e-01      -3.04518634e-01     
C    -3.16462449e-01     -3.65191381e-01     1.44194568e+00      
H    4.19922672e-01      -1.05346035e+00     1.84648845e+00      
H    -3.41537350e-01     5.31703449e-01      2.05356358e+00      
C    -1.68158909e+00     -1.03037433e+00     1.41358868e+00      
O    -2.20247838e+00     -1.42802863e+00     3.86591200e-01      
O    -2.17567338e+00     -1.11241020e+00     2.62936334e+00      
H    -3.10609101e+00     -1.49809720e+00     2.58498744e+00      
O    -1.92781314e+00     1.80219283e+00      -3.98808701e-01     
H    -2.81817042e+00     1.63070427e+00      -4.52653824e-02     
H    -2.01000090e+00     2.54402804e+00      -9.92337137e-01     
O    1.88244589e-01      -2.51614672e+00     -1.09683960e+00     
H    -6.64690996e-01     -2.92297375e+00     -1.04954386e+00     
H    6.47347771e-01      -2.94184584e+00     -1.84111675e+00     
O    -4.35150638e+00     1.11836934e+00      6.79529541e-01      
H    -4.70985527e+00     1.35047413e+00      1.66917830e+00      
H    -4.73299444e+00     3.15271414e-01      4.50564057e-01      
O    -4.63265823e+00     -1.96609647e+00     2.52615325e+00      
H    -4.97302567e+00     -2.07245460e+00     1.63385541e+00      
H    -5.05137268e+00     -2.63862498e+00     3.07897840e+00      
O    -5.03062054e+00     -1.53718126e+00     -2.06570770e-01     
H    -5.57158899e+00     -1.77549387e+00     -8.03420980e-01     
H    -4.04196705e+00     -1.73744421e+00     -6.02686434e-01     
O    2.51813504e+00      1.26073686e+00      4.25183724e-01      
H    2.65793141e+00      2.20730977e+00      4.99975630e-01      
H    3.39304898e+00      8.83773853e-01      3.10216943e-01      
