29
43.431769
N    4.04303588e-02      -1.58639120e-02     7.02665976e-02      
H    7.20752388e-02      -8.67442619e-01     -5.29124796e-01     
H    9.61029870e-01      4.61711669e-01      7.33129348e-02      
H    -6.92146686e-01     6.43528375e-01      -2.84353081e-01     
C    -3.07936013e-01     -3.88740202e-01     1.45414770e+00      
H    4.24578357e-01      -1.08610086e+00     1.84984168e+00      
H    -3.24583513e-01     5.02647712e-01      2.07383483e+00      
C    -1.67810240e+00     -1.04376190e+00     1.42508462e+00      
O    -2.20771411e+00     -1.42344816e+00     3.95472435e-01      
O    -2.16616845e+00     -1.13847566e+00     2.64228458e+00      
H    -3.10003721e+00     -1.51923890e+00     2.59730172e+00      
O    -1.90224035e+00     1.81250825e+00      -3.73283854e-01     
H    -2.80570764e+00     1.64206943e+00      -4.89749703e-02     
H    -1.96589320e+00     2.55563140e+00      -9.75401632e-01     
O    1.75305243e-01      -2.52357073e+00     -1.10128780e+00     
H    -6.93658336e-01     -2.93173324e+00     -1.05862069e+00     
H    6.29208159e-01      -2.94390047e+00     -1.83639196e+00     
O    -4.37173349e+00     1.15496289e+00      6.25962280e-01      
H    -4.71537778e+00     1.38541236e+00      1.49159269e+00      
H    -4.76012744e+00     3.00420263e-01      4.00514148e-01      
O    -4.62601298e+00     -1.98271888e+00     2.53410371e+00      
H    -4.97320442e+00     -2.07005573e+00     1.63556989e+00      
H    -5.04742098e+00     -2.65726749e+00     3.07417614e+00      
O    -5.02136308e+00     -1.52991012e+00     -1.97523764e-01     
H    -5.64268619e+00     -1.80938035e+00     -8.74972775e-01     
H    -4.14458159e+00     -1.71364987e+00     -5.48303237e-01     
O    2.50523617e+00      1.29326164e+00      4.02614759e-01      
H    2.62113784e+00      2.24410175e+00      4.68332340e-01      
H    3.38998659e+00      9.36642436e-01      2.93773352e-01      
29
43.431769
N    3.93673585e-02      -1.23546848e-02     6.68851391e-02      
H    7.18025897e-02      -8.64966519e-01     -5.30966020e-01     
H    9.60256933e-01      4.64572575e-01      7.04408836e-02      
H    -6.93162740e-01     6.46057370e-01      -2.89427814e-01     
C    -3.10060285e-01     -3.82847854e-01     1.45110117e+00      
H    4.23388351e-01      -1.07792792e+00     1.84900695e+00      
H    -3.28822261e-01     5.09863707e-01      2.06874944e+00      
C    -1.67897723e+00     -1.04041310e+00     1.42222329e+00      
O    -2.20640676e+00     -1.42459733e+00     3.93241399e-01      
O    -2.16852605e+00     -1.13195355e+00     2.63905215e+00      
H    -3.10181397e+00     -1.51404691e+00     2.59418538e+00      
O    -1.90861710e+00     1.80987834e+00      -3.79628455e-01     
H    -2.80902466e+00     1.63918790e+00      -4.78897795e-02     
H    -1.97698301e+00     2.55359422e+00      -9.80331181e-01     
O    1.78814257e-01      -2.52169655e+00     -1.10031906e+00     
H    -6.89505675e-01     -2.93106656e+00     -1.05616989e+00     
H    6.32475942e-01      -2.94217904e+00     -1.83548190e+00     
O    -4.36695342e+00     1.14679115e+00      6.41099497e-01      
H    -4.70493971e+00     1.37032301e+00      1.51037420e+00      
H    -4.75798550e+00     2.94884650e-01      4.10932092e-01      
O    -4.62767064e+00     -1.97860212e+00     2.53223550e+00      
H    -4.97362825e+00     -2.07069888e+00     1.63377537e+00      
H    -5.04793015e+00     -2.65185666e+00     3.07477347e+00      
O    -5.02093841e+00     -1.53156203e+00     -1.99196727e-01     
H    -5.64292662e+00     -1.80883891e+00     -8.76891542e-01     
H    -4.14450563e+00     -1.71428156e+00     -5.51329006e-01     
O    2.50845670e+00      1.28513041e+00      4.08257341e-01      
H    2.63033957e+00      2.23492634e+00      4.76244439e-01      
H    3.39080967e+00      9.23400362e-01      2.97877156e-01      
29
43.431769
N    3.88358584e-02      -1.06000712e-02     6.51944099e-02      
H    7.16662652e-02      -8.63728469e-01     -5.31886631e-01     
H    9.59870465e-01      4.66003028e-01      6.90048579e-02      
H    -6.93670767e-01     6.47321868e-01      -2.91965181e-01     
C    -3.11122421e-01     -3.79901680e-01     1.44957791e+00      
H    4.22793348e-01      -1.07384145e+00     1.84858959e+00      
H    -3.30941636e-01     5.13471704e-01      2.06620674e+00      
C    -1.67941465e+00     -1.03873871e+00     1.42079263e+00      
O    -2.20575309e+00     -1.42517192e+00     3.92125881e-01      
O    -2.16970484e+00     -1.12869250e+00     2.63743593e+00      
H    -3.10270235e+00     -1.51145092e+00     2.59262720e+00      
O    -1.91180547e+00     1.80856339e+00      -3.82800756e-01     
H    -2.81068317e+00     1.63774713e+00      -4.73471841e-02     
H    -1.98252792e+00     2.55257562e+00      -9.82795955e-01     
O    1.80568764e-01      -2.52075946e+00     -1.09983469e+00     
H    -6.87429345e-01     -2.93073322e+00     -1.05494448e+00     
H    6.34109834e-01      -2.94131832e+00     -1.83502687e+00     
O    -4.36456338e+00     1.14270529e+00      6.48668106e-01      
H    -4.69972068e+00     1.36277833e+00      1.51976496e+00      
H    -4.75691454e+00     2.92116843e-01      4.16141064e-01      
O    -4.62849947e+00     -1.97654374e+00     2.53130139e+00      
H    -4.97384017e+00     -2.07102045e+00     1.63287810e+00      
H    -5.04818473e+00     -2.64915125e+00     3.07507214e+00      
O    -5.02072607e+00     -1.53238799e+00     -2.00033208e-01     
H    -5.64304683e+00     -1.80856819e+00     -8.77850926e-01     
H    -4.14446765e+00     -1.71459741e+00     -5.52841891e-01     
O    2.51006696e+00      1.28106480e+00      4.11078633e-01      
H    2.63494044e+00      2.23033863e+00      4.80200488e-01      
H    3.39122121e+00      9.16779325e-01      2.99929058e-01      
29
43.431769
N    3.83043583e-02      -8.84545765e-03     6.35036807e-02      
H    7.15299406e-02      -8.62490420e-01     -5.32807243e-01     
H    9.59483996e-01      4.67433481e-01      6.75688323e-02      
H    -6.94178795e-01     6.48586365e-01      -2.94502548e-01     
C    -3.12184558e-01     -3.76955506e-01     1.44805464e+00      
H    4.22198345e-01      -1.06975498e+00     1.84817223e+00      
H    -3.33061010e-01     5.17079702e-01      2.06366405e+00      
C    -1.67985206e+00     -1.03706431e+00     1.41936196e+00      
O    -2.20509942e+00     -1.42574651e+00     3.91010363e-01      
O    -2.17088364e+00     -1.12543145e+00     2.63581971e+00      
H    -3.10359073e+00     -1.50885492e+00     2.59106903e+00      
O    -1.91499384e+00     1.80724843e+00      -3.85973057e-01     
H    -2.81234168e+00     1.63630636e+00      -4.68045887e-02     
H    -1.98807283e+00     2.55155703e+00      -9.85260730e-01     
O    1.82323271e-01      -2.51982237e+00     -1.09935032e+00     
H    -6.85353014e-01     -2.93039988e+00     -1.05371908e+00     
H    6.35743725e-01      -2.94045760e+00     -1.83457184e+00     
O    -4.36217335e+00     1.13861942e+00      6.56236715e-01      
H    -4.69450165e+00     1.35523366e+00      1.52915571e+00      
H    -4.75584357e+00     2.89349036e-01      4.21350036e-01      
O    -4.62932830e+00     -1.97448536e+00     2.53036728e+00      
H    -4.97405209e+00     -2.07134203e+00     1.63198084e+00      
H    -5.04843931e+00     -2.64644584e+00     3.07537080e+00      
O    -5.02051374e+00     -1.53321394e+00     -2.00869690e-01     
H    -5.64316705e+00     -1.80829747e+00     -8.78810310e-01     
H    -4.14442968e+00     -1.71491325e+00     -5.54354776e-01     
O    2.51167723e+00      1.27699919e+00      4.13899924e-01      
H    2.63954131e+00      2.22575093e+00      4.84156537e-01      
H    3.39163275e+00      9.10158288e-01      3.01980960e-01      
29
43.431769
N    3.77728582e-02      -7.09084407e-03     6.18129515e-02      
H    7.13936161e-02      -8.61252370e-01     -5.33727855e-01     
H    9.59097528e-01      4.68863935e-01      6.61328066e-02      
H    -6.94686822e-01     6.49850863e-01      -2.97039914e-01     
C    -3.13246694e-01     -3.74009333e-01     1.44653138e+00      
H    4.21603342e-01      -1.06566851e+00     1.84775487e+00      
H    -3.35180384e-01     5.20687699e-01      2.06112135e+00      
C    -1.68028948e+00     -1.03538991e+00     1.41793130e+00      
O    -2.20444574e+00     -1.42632109e+00     3.89894844e-01      
O    -2.17206244e+00     -1.12217040e+00     2.63420349e+00      
H    -3.10447911e+00     -1.50625893e+00     2.58951086e+00      
O    -1.91818221e+00     1.80593348e+00      -3.89145357e-01     
H    -2.81400020e+00     1.63486560e+00      -4.62619934e-02     
H    -1.99361774e+00     2.55053844e+00      -9.87725504e-01     
O    1.84077778e-01      -2.51888528e+00     -1.09886595e+00     
H    -6.83276684e-01     -2.93006655e+00     -1.05249368e+00     
H    6.37377617e-01      -2.93959689e+00     -1.83411680e+00     
O    -4.35978331e+00     1.13453356e+00      6.63805324e-01      
H    -4.68928261e+00     1.34768898e+00      1.53854647e+00      
H    -4.75477260e+00     2.86581229e-01      4.26559008e-01      
O    -4.63015713e+00     -1.97242697e+00     2.52943318e+00      
H    -4.97426400e+00     -2.07166360e+00     1.63108358e+00      
H    -5.04869389e+00     -2.64374042e+00     3.07566947e+00      
O    -5.02030140e+00     -1.53403990e+00     -2.01706171e-01     
H    -5.64328726e+00     -1.80802676e+00     -8.79769694e-01     
H    -4.14439170e+00     -1.71522910e+00     -5.55867661e-01     
O    2.51328749e+00      1.27293358e+00      4.16721216e-01      
H    2.64414217e+00      2.22116322e+00      4.88112587e-01      
H    3.39204429e+00      9.03537252e-01      3.04032862e-01      
29
43.431769
N    3.72413580e-02      -5.33623049e-03     6.01222222e-02      
H    7.12572915e-02      -8.60014320e-01     -5.34648467e-01     
H    9.58711059e-01      4.70294388e-01      6.46967810e-02      
H    -6.95194849e-01     6.51115361e-01      -2.99577281e-01     
C    -3.14308830e-01     -3.71063159e-01     1.44500811e+00      
H    4.21008339e-01      -1.06158205e+00     1.84733750e+00      
H    -3.37299758e-01     5.24295697e-01      2.05857865e+00      
C    -1.68072689e+00     -1.03371551e+00     1.41650063e+00      
O    -2.20379207e+00     -1.42689568e+00     3.88779326e-01      
O    -2.17324124e+00     -1.11890934e+00     2.63258728e+00      
H    -3.10536749e+00     -1.50366293e+00     2.58795269e+00      
O    -1.92137058e+00     1.80461853e+00      -3.92317658e-01     
H    -2.81565871e+00     1.63342483e+00      -4.57193980e-02     
H    -1.99916265e+00     2.54951985e+00      -9.90190278e-01     
O    1.85832285e-01      -2.51794819e+00     -1.09838158e+00     
H    -6.81200354e-01     -2.92973321e+00     -1.05126828e+00     
H    6.39011509e-01      -2.93873617e+00     -1.83366177e+00     
O    -4.35739328e+00     1.13044769e+00      6.71373932e-01      
H    -4.68406358e+00     1.34014430e+00      1.54793723e+00      
H    -4.75370163e+00     2.83813423e-01      4.31767980e-01      
O    -4.63098596e+00     -1.97036859e+00     2.52849907e+00      
H    -4.97447592e+00     -2.07198517e+00     1.63018632e+00      
H    -5.04894848e+00     -2.64103501e+00     3.07596813e+00      
O    -5.02008906e+00     -1.53486585e+00     -2.02542653e-01     
H    -5.64340748e+00     -1.80775604e+00     -8.80729077e-01     
H    -4.14435372e+00     -1.71554495e+00     -5.57380545e-01     
O    2.51489775e+00      1.26886796e+00      4.19542507e-01      
H    2.64874304e+00      2.21657552e+00      4.92068636e-01      
H    3.39245583e+00      8.96916215e-01      3.06084764e-01      
29
43.431769
N    3.69756080e-02      -4.45892371e-03     5.92768576e-02      
H    7.11891292e-02      -8.59395295e-01     -5.35108773e-01     
H    9.58517825e-01      4.71009614e-01      6.39787682e-02      
H    -6.95448862e-01     6.51747610e-01      -3.00845964e-01     
C    -3.14839899e-01     -3.69590072e-01     1.44424648e+00      
H    4.20710838e-01      -1.05953881e+00     1.84712882e+00      
H    -3.38359445e-01     5.26099696e-01      2.05730730e+00      
C    -1.68094560e+00     -1.03287832e+00     1.41578530e+00      
O    -2.20346523e+00     -1.42718297e+00     3.88221567e-01      
O    -2.17383063e+00     -1.11727882e+00     2.63177917e+00      
H    -3.10581168e+00     -1.50236493e+00     2.58717360e+00      
O    -1.92296476e+00     1.80396105e+00      -3.93903808e-01     
H    -2.81648796e+00     1.63270445e+00      -4.54481003e-02     
H    -2.00193511e+00     2.54901055e+00      -9.91422666e-01     
O    1.86709538e-01      -2.51747965e+00     -1.09813939e+00     
H    -6.80162189e-01     -2.92956654e+00     -1.05065557e+00     
H    6.39828454e-01      -2.93830581e+00     -1.83343426e+00     
O    -4.35619826e+00     1.12840476e+00      6.75158237e-01      
H    -4.68145406e+00     1.33637197e+00      1.55263261e+00      
H    -4.75316615e+00     2.82429519e-01      4.34372466e-01      
O    -4.63140038e+00     -1.96933940e+00     2.52803202e+00      
H    -4.97458188e+00     -2.07214596e+00     1.62973769e+00      
H    -5.04907577e+00     -2.63968230e+00     3.07611746e+00      
O    -5.01998289e+00     -1.53527883e+00     -2.02960894e-01     
H    -5.64346759e+00     -1.80762068e+00     -8.81208769e-01     
H    -4.14433473e+00     -1.71570287e+00     -5.58136988e-01     
O    2.51570289e+00      1.26683516e+00      4.20953153e-01      
H    2.65104347e+00      2.21428167e+00      4.94046661e-01      
H    3.39266160e+00      8.93605696e-01      3.07110715e-01      
29
43.431769
N    3.67098579e-02      -3.58161692e-03     5.84314930e-02      
H    7.11209670e-02      -8.58776270e-01     -5.35569079e-01     
H    9.58324591e-01      4.71724841e-01      6.32607553e-02      
H    -6.95702876e-01     6.52379858e-01      -3.02114647e-01     
C    -3.15370967e-01     -3.68116985e-01     1.44348485e+00      
H    4.20413336e-01      -1.05749558e+00     1.84692014e+00      
H    -3.39419132e-01     5.27903694e-01      2.05603596e+00      
C    -1.68116431e+00     -1.03204112e+00     1.41506997e+00      
O    -2.20313839e+00     -1.42747026e+00     3.87663808e-01      
O    -2.17442003e+00     -1.11564829e+00     2.63097106e+00      
H    -3.10625587e+00     -1.50106694e+00     2.58639451e+00      
O    -1.92455895e+00     1.80330357e+00      -3.95489958e-01     
H    -2.81731722e+00     1.63198407e+00      -4.51768026e-02     
H    -2.00470756e+00     2.54850125e+00      -9.92655053e-01     
O    1.87586792e-01      -2.51701110e+00     -1.09789721e+00     
H    -6.79124023e-01     -2.92939987e+00     -1.05004287e+00     
H    6.40645400e-01      -2.93787546e+00     -1.83320674e+00     
O    -4.35500324e+00     1.12636183e+00      6.78942541e-01      
H    -4.67884454e+00     1.33259963e+00      1.55732798e+00      
H    -4.75263067e+00     2.81045616e-01      4.36976952e-01      
O    -4.63181479e+00     -1.96831021e+00     2.52756497e+00      
H    -4.97468783e+00     -2.07230675e+00     1.62928906e+00      
H    -5.04920306e+00     -2.63832959e+00     3.07626680e+00      
O    -5.01987673e+00     -1.53569181e+00     -2.03379134e-01     
H    -5.64352769e+00     -1.80748532e+00     -8.81688461e-01     
H    -4.14431574e+00     -1.71586079e+00     -5.58893430e-01     
O    2.51650802e+00      1.26480235e+00      4.22363799e-01      
H    2.65334390e+00      2.21198781e+00      4.96024686e-01      
H    3.39286737e+00      8.90295178e-01      3.08136666e-01      
29
43.431769
N    3.56468577e-02      -7.23897630e-05     5.50500346e-02      
H    7.08483178e-02      -8.56300170e-01     -5.37410303e-01     
H    9.57551653e-01      4.74585747e-01      6.03887041e-02      
H    -6.96718930e-01     6.54908854e-01      -3.07189381e-01     
C    -3.17495239e-01     -3.62224637e-01     1.44043831e+00      
H    4.19223330e-01      -1.04932264e+00     1.84608542e+00      
H    -3.43657880e-01     5.35119690e-01      2.05095056e+00      
C    -1.68203913e+00     -1.02869232e+00     1.41220863e+00      
O    -2.20183105e+00     -1.42861944e+00     3.85432772e-01      
O    -2.17677763e+00     -1.10912619e+00     2.62773862e+00      
H    -3.10803263e+00     -1.49587494e+00     2.58327817e+00      
O    -1.93093569e+00     1.80067367e+00      -4.01834560e-01     
H    -2.82063424e+00     1.62910253e+00      -4.40916118e-02     
H    -2.01579738e+00     2.54646407e+00      -9.97584601e-01     
O    1.91095806e-01      -2.51513692e+00     -1.09692847e+00     
H    -6.74971363e-01     -2.92873319e+00     -1.04759207e+00     
H    6.43913184e-01      -2.93615402e+00     -1.83229668e+00     
O    -4.35022318e+00     1.11819009e+00      6.94079759e-01      
H    -4.66840648e+00     1.31751027e+00      1.57610950e+00      
H    -4.75048873e+00     2.75510002e-01      4.47394896e-01      
O    -4.63347245e+00     -1.96419345e+00     2.52569675e+00      
H    -4.97511167e+00     -2.07294989e+00     1.62749454e+00      
H    -5.04971222e+00     -2.63291877e+00     3.07686412e+00      
O    -5.01945205e+00     -1.53734371e+00     -2.05052098e-01     
H    -5.64376813e+00     -1.80694388e+00     -8.83607229e-01     
H    -4.14423978e+00     -1.71649249e+00     -5.61919200e-01     
O    2.51972854e+00      1.25667113e+00      4.28006381e-01      
H    2.66254564e+00      2.20281241e+00      5.03936784e-01      
H    3.39369045e+00      8.77053104e-01      3.12240470e-01      
29
43.431769
N    3.53811076e-02      8.04917025e-04      5.42046700e-02      
H    7.07801556e-02      -8.55681145e-01     -5.37870609e-01     
H    9.57358419e-01      4.75300974e-01      5.96706912e-02      
H    -6.96972944e-01     6.55541102e-01      -3.08458064e-01     
C    -3.18026307e-01     -3.60751550e-01     1.43967668e+00      
H    4.18925828e-01      -1.04727941e+00     1.84587674e+00      
H    -3.44717567e-01     5.36923688e-01      2.04967922e+00      
C    -1.68225784e+00     -1.02785512e+00     1.41149330e+00      
O    -2.20150421e+00     -1.42890673e+00     3.84875013e-01      
O    -2.17736703e+00     -1.10749566e+00     2.62693051e+00      
H    -3.10847682e+00     -1.49457695e+00     2.58249908e+00      
O    -1.93252988e+00     1.80001619e+00      -4.03420710e-01     
H    -2.82146350e+00     1.62838215e+00      -4.38203141e-02     
H    -2.01856983e+00     2.54595477e+00      -9.98816988e-01     
O    1.91973060e-01      -2.51466837e+00     -1.09668629e+00     
H    -6.73933197e-01     -2.92856652e+00     -1.04697937e+00     
H    6.44730130e-01      -2.93572367e+00     -1.83206916e+00     
O    -4.34902816e+00     1.11614716e+00      6.97864063e-01      
H    -4.66579696e+00     1.31373793e+00      1.58080487e+00      
H    -4.74995325e+00     2.74126099e-01      4.49999382e-01      
O    -4.63388686e+00     -1.96316426e+00     2.52522970e+00      
H    -4.97521762e+00     -2.07311068e+00     1.62704591e+00      
H    -5.04983951e+00     -2.63156606e+00     3.07701346e+00      
O    -5.01934589e+00     -1.53775669e+00     -2.05470338e-01     
H    -5.64382823e+00     -1.80680852e+00     -8.84086921e-01     
H    -4.14422079e+00     -1.71665041e+00     -5.62675642e-01     
O    2.52053367e+00      1.25463832e+00      4.29417027e-01      
H    2.66484607e+00      2.20051855e+00      5.05914809e-01      
H    3.39389622e+00      8.73742586e-01      3.13266421e-01      
29
43.431769
N    3.51153576e-02      1.68222381e-03      5.33593054e-02      
H    7.07119933e-02      -8.55062120e-01     -5.38330915e-01     
H    9.57165185e-01      4.76016200e-01      5.89526784e-02      
H    -6.97226957e-01     6.56173351e-01      -3.09726747e-01     
C    -3.18557376e-01     -3.59278463e-01     1.43891505e+00      
H    4.18628327e-01      -1.04523617e+00     1.84566806e+00      
H    -3.45777254e-01     5.38727687e-01      2.04840787e+00      
C    -1.68247655e+00     -1.02701793e+00     1.41077797e+00      
O    -2.20117737e+00     -1.42919402e+00     3.84317254e-01      
O    -2.17795642e+00     -1.10586514e+00     2.62612240e+00      
H    -3.10892101e+00     -1.49327895e+00     2.58171999e+00      
O    -1.93412406e+00     1.79935871e+00      -4.05006860e-01     
H    -2.82229275e+00     1.62766177e+00      -4.35490164e-02     
H    -2.02134229e+00     2.54544547e+00      -1.00004938e+00     
O    1.92850313e-01      -2.51419983e+00     -1.09644410e+00     
H    -6.72895032e-01     -2.92839985e+00     -1.04636666e+00     
H    6.45547075e-01      -2.93529331e+00     -1.83184165e+00     
O    -4.34783314e+00     1.11410423e+00      7.01648368e-01      
H    -4.66318744e+00     1.30996560e+00      1.58550025e+00      
H    -4.74941777e+00     2.72742195e-01      4.52603868e-01      
O    -4.63430128e+00     -1.96213507e+00     2.52476265e+00      
H    -4.97532358e+00     -2.07327147e+00     1.62659728e+00      
H    -5.04996680e+00     -2.63021335e+00     3.07716279e+00      
O    -5.01923972e+00     -1.53816967e+00     -2.05888579e-01     
H    -5.64388834e+00     -1.80667316e+00     -8.84566613e-01     
H    -4.14420180e+00     -1.71680833e+00     -5.63432085e-01     
O    2.52133881e+00      1.25260552e+00      4.30827673e-01      
H    2.66714650e+00      2.19822470e+00      5.07892834e-01      
H    3.39410199e+00      8.70432067e-01      3.14292372e-01      
29
43.431769
N    3.45838574e-02      3.43683739e-03      5.16685761e-02      
H    7.05756687e-02      -8.53824070e-01     -5.39251527e-01     
H    9.56778716e-01      4.77446653e-01      5.75166528e-02      
H    -6.97734984e-01     6.57437849e-01      -3.12264114e-01     
C    -3.19619512e-01     -3.56332289e-01     1.43739178e+00      
H    4.18033324e-01      -1.04114971e+00     1.84525069e+00      
H    -3.47896628e-01     5.42335685e-01      2.04586517e+00      
C    -1.68291396e+00     -1.02534353e+00     1.40934730e+00      
O    -2.20052370e+00     -1.42976861e+00     3.83201736e-01      
O    -2.17913522e+00     -1.10260408e+00     2.62450619e+00      
H    -3.10980939e+00     -1.49068295e+00     2.58016182e+00      
O    -1.93731243e+00     1.79804376e+00      -4.08179161e-01     
H    -2.82395126e+00     1.62622100e+00      -4.30064210e-02     
H    -2.02688720e+00     2.54442688e+00      -1.00251415e+00     
O    1.94604820e-01      -2.51326274e+00     -1.09595973e+00     
H    -6.70818702e-01     -2.92806651e+00     -1.04514126e+00     
H    6.47180967e-01      -2.93443259e+00     -1.83138662e+00     
O    -4.34544311e+00     1.11001836e+00      7.09216976e-01      
H    -4.65796841e+00     1.30242092e+00      1.59489101e+00      
H    -4.74834680e+00     2.69974389e-01      4.57812840e-01      
O    -4.63513011e+00     -1.96007669e+00     2.52382854e+00      
H    -4.97553550e+00     -2.07359304e+00     1.62570002e+00      
H    -5.05022139e+00     -2.62750794e+00     3.07746145e+00      
O    -5.01902738e+00     -1.53899562e+00     -2.06725061e-01     
H    -5.64400856e+00     -1.80640244e+00     -8.85525996e-01     
H    -4.14416382e+00     -1.71712418e+00     -5.64944969e-01     
O    2.52294907e+00      1.24853990e+00      4.33648964e-01      
H    2.67174737e+00      2.19363700e+00      5.11848883e-01      
H    3.39451353e+00      8.63811030e-01      3.16344274e-01      
29
43.431769
N    3.40523573e-02      5.19145097e-03      4.99778469e-02      
H    7.04393442e-02      -8.52586020e-01     -5.40172139e-01     
H    9.56392248e-01      4.78877107e-01      5.60806271e-02      
H    -6.98243011e-01     6.58702347e-01      -3.14801480e-01     
C    -3.20681648e-01     -3.53386116e-01     1.43586852e+00      
H    4.17438321e-01      -1.03706324e+00     1.84483333e+00      
H    -3.50016002e-01     5.45943682e-01      2.04332247e+00      
C    -1.68335138e+00     -1.02366913e+00     1.40791664e+00      
O    -2.19987002e+00     -1.43034319e+00     3.82086217e-01      
O    -2.18031402e+00     -1.09934303e+00     2.62288997e+00      
H    -3.11069777e+00     -1.48808696e+00     2.57860365e+00      
O    -1.94050080e+00     1.79672881e+00      -4.11351461e-01     
H    -2.82560978e+00     1.62478024e+00      -4.24638257e-02     
H    -2.03243211e+00     2.54340829e+00      -1.00497892e+00     
O    1.96359327e-01      -2.51232565e+00     -1.09547536e+00     
H    -6.68742372e-01     -2.92773318e+00     -1.04391586e+00     
H    6.48814859e-01      -2.93357188e+00     -1.83093158e+00     
O    -4.34305307e+00     1.10593250e+00      7.16785585e-01      
H    -4.65274937e+00     1.29487624e+00      1.60428177e+00      
H    -4.74727583e+00     2.67206582e-01      4.63021812e-01      
O    -4.63595894e+00     -1.95801830e+00     2.52289444e+00      
H    -4.97574741e+00     -2.07391461e+00     1.62480276e+00      
H    -5.05047597e+00     -2.62480252e+00     3.07776012e+00      
O    -5.01881504e+00     -1.53982158e+00     -2.07561542e-01     
H    -5.64412877e+00     -1.80613173e+00     -8.86485380e-01     
H    -4.14412584e+00     -1.71744003e+00     -5.66457854e-01     
O    2.52455933e+00      1.24447429e+00      4.36470256e-01      
H    2.67634823e+00      2.18904929e+00      5.15804933e-01      
H    3.39492507e+00      8.57189994e-01      3.18396176e-01      
29
43.431769
N    3.35208572e-02      6.94606454e-03      4.82871177e-02      
H    7.03030196e-02      -8.51347971e-01     -5.41092751e-01     
H    9.56005779e-01      4.80307560e-01      5.46446015e-02      
H    -6.98751039e-01     6.59966844e-01      -3.17338847e-01     
C    -3.21743785e-01     -3.50439942e-01     1.43434525e+00      
H    4.16843318e-01      -1.03297677e+00     1.84441597e+00      
H    -3.52135376e-01     5.49551680e-01      2.04077978e+00      
C    -1.68378879e+00     -1.02199473e+00     1.40648597e+00      
O    -2.19921635e+00     -1.43091778e+00     3.80970699e-01      
O    -2.18149282e+00     -1.09608198e+00     2.62127375e+00      
H    -3.11158615e+00     -1.48549096e+00     2.57704548e+00      
O    -1.94368917e+00     1.79541385e+00      -4.14523762e-01     
H    -2.82726829e+00     1.62333947e+00      -4.19212303e-02     
H    -2.03797702e+00     2.54238970e+00      -1.00744370e+00     
O    1.98113834e-01      -2.51138856e+00     -1.09499099e+00     
H    -6.66666041e-01     -2.92739984e+00     -1.04269046e+00     
H    6.50448750e-01      -2.93271116e+00     -1.83047655e+00     
O    -4.34066304e+00     1.10184663e+00      7.24354194e-01      
H    -4.64753034e+00     1.28733157e+00      1.61367252e+00      
H    -4.74620486e+00     2.64438775e-01      4.68230784e-01      
O    -4.63678777e+00     -1.95595992e+00     2.52196033e+00      
H    -4.97595933e+00     -2.07423619e+00     1.62390550e+00      
H    -5.05073055e+00     -2.62209711e+00     3.07805878e+00      
O    -5.01860271e+00     -1.54064753e+00     -2.08398024e-01     
H    -5.64424899e+00     -1.80586101e+00     -8.87444764e-01     
H    -4.14408787e+00     -1.71775587e+00     -5.67970739e-01     
O    2.52616960e+00      1.24040868e+00      4.39291547e-01      
H    2.68094910e+00      2.18446159e+00      5.19760982e-01      
H    3.39533661e+00      8.50568957e-01      3.20448078e-01      
29
43.431769
N    3.29893571e-02      8.70067812e-03      4.65963885e-02      
H    7.01666951e-02      -8.50109921e-01     -5.42013362e-01     
H    9.55619311e-01      4.81738013e-01      5.32085758e-02      
H    -6.99259066e-01     6.61231342e-01      -3.19876214e-01     
C    -3.22805921e-01     -3.47493768e-01     1.43282199e+00      
H    4.16248315e-01      -1.02889030e+00     1.84399861e+00      
H    -3.54254751e-01     5.53159677e-01      2.03823708e+00      
C    -1.68422621e+00     -1.02032034e+00     1.40505531e+00      
O    -2.19856268e+00     -1.43149237e+00     3.79855181e-01      
O    -2.18267161e+00     -1.09282093e+00     2.61965753e+00      
H    -3.11247453e+00     -1.48289497e+00     2.57548730e+00      
O    -1.94687754e+00     1.79409890e+00      -4.17696063e-01     
H    -2.82892680e+00     1.62189870e+00      -4.13786349e-02     
H    -2.04352193e+00     2.54137110e+00      -1.00990847e+00     
O    1.99868341e-01      -2.51045147e+00     -1.09450662e+00     
H    -6.64589711e-01     -2.92706650e+00     -1.04146505e+00     
H    6.52082642e-01      -2.93185044e+00     -1.83002152e+00     
O    -4.33827300e+00     1.09776077e+00      7.31922803e-01      
H    -4.64231131e+00     1.27978689e+00      1.62306328e+00      
H    -4.74513390e+00     2.61670968e-01      4.73439756e-01      
O    -4.63761660e+00     -1.95390154e+00     2.52102622e+00      
H    -4.97617125e+00     -2.07455776e+00     1.62300823e+00      
H    -5.05098513e+00     -2.61939170e+00     3.07835745e+00      
O    -5.01839037e+00     -1.54147349e+00     -2.09234505e-01     
H    -5.64436920e+00     -1.80559029e+00     -8.88404148e-01     
H    -4.14404989e+00     -1.71807172e+00     -5.69483624e-01     
O    2.52777986e+00      1.23634307e+00      4.42112839e-01      
H    2.68554997e+00      2.17987388e+00      5.23717031e-01      
H    3.39574815e+00      8.43947920e-01      3.22499980e-01      
29
43.431769
N    3.19263568e-02      1.22099053e-02      4.32149300e-02      
H    6.98940460e-02      -8.47633821e-01     -5.43854586e-01     
H    9.54846374e-01      4.84598919e-01      5.03365246e-02      
H    -7.00275120e-01     6.63760337e-01      -3.24950947e-01     
C    -3.24930193e-01     -3.41601420e-01     1.42977546e+00      
H    4.15058309e-01      -1.02071736e+00     1.84316388e+00      
H    -3.58493499e-01     5.60375672e-01      2.03315169e+00      
C    -1.68510104e+00     -1.01697154e+00     1.40219398e+00      
O    -2.19725533e+00     -1.43264154e+00     3.77624145e-01      
O    -2.18502921e+00     -1.08629882e+00     2.61642510e+00      
H    -3.11425129e+00     -1.47770298e+00     2.57237096e+00      
O    -1.95325429e+00     1.79146899e+00      -4.24040664e-01     
H    -2.83224382e+00     1.61901717e+00      -4.02934441e-02     
H    -2.05461174e+00     2.53933392e+00      -1.01483802e+00     
O    2.03377355e-01      -2.50857729e+00     -1.09353788e+00     
H    -6.60437050e-01     -2.92639982e+00     -1.03901425e+00     
H    6.55350425e-01      -2.93012901e+00     -1.82911146e+00     
O    -4.33349293e+00     1.08958903e+00      7.47060020e-01      
H    -4.63187324e+00     1.26469754e+00      1.64184479e+00      
H    -4.74299196e+00     2.56135355e-01      4.83857700e-01      
O    -4.63927426e+00     -1.94978478e+00     2.51915801e+00      
H    -4.97659508e+00     -2.07520091e+00     1.62121371e+00      
H    -5.05149430e+00     -2.61398087e+00     3.07895478e+00      
O    -5.01796570e+00     -1.54312540e+00     -2.10907468e-01     
H    -5.64460963e+00     -1.80504885e+00     -8.90322915e-01     
H    -4.14397393e+00     -1.71870341e+00     -5.72509393e-01     
O    2.53100039e+00      1.22821184e+00      4.47755421e-01      
H    2.69475170e+00      2.17069847e+00      5.31629130e-01      
H    3.39657123e+00      8.30705846e-01      3.26603784e-01      
