26
83.145727
N    -1.77994836e-02     -4.10879000e-02     -6.83732864e-02     
H    -1.05740139e+00     -5.89703519e-02     -1.09044669e-01     
H    3.16543560e-01      8.49472126e-01      -4.91094412e-01     
H    3.15645090e-01      -1.33658905e-01     9.15188359e-01      
C    5.25076839e-01      -1.18248937e+00     -8.26472692e-01     
H    1.61110701e+00      -1.14548515e+00     -7.97322628e-01     
H    1.89627029e-01      -2.10913749e+00     -3.67955334e-01     
C    4.17432121e-02      -1.10211524e+00     -2.25848971e+00     
O    -6.56302328e-01     -2.02799464e-01     -2.68969951e+00     
O    4.93257825e-01      -2.13871969e+00     -2.94114442e+00     
H    1.47860824e-01      -2.08167748e+00     -3.88126518e+00     
O    1.02468778e+00      2.08576149e+00      -1.50481366e+00     
H    5.71757795e-01      2.13989312e+00      -2.35211452e+00     
H    1.35986828e+00      2.96869601e+00      -1.32573489e+00     
O    1.06214038e+00      -6.66613315e-01     2.34484245e+00      
H    1.16201430e+00      -1.61647117e+00     2.50943204e+00      
H    1.24000228e+00      -2.15417949e-01     3.17099812e+00      
O    -2.73095940e+00     -4.31582847e-01     -4.66059194e-01     
H    -2.93167362e+00     -2.42664660e-01     -1.38808310e+00     
H    -3.54706365e+00     -2.80803112e-01     1.87667047e-02      
O    -4.25207532e-01     -2.05526246e+00     -5.41635372e+00     
H    -7.75648462e-01     -1.22837951e+00     -5.76612707e+00     
H    -3.95837129e-02     -2.52084563e+00     -6.17063813e+00     
O    1.17605160e+00      -3.43483665e+00     2.25185908e+00      
H    5.55229012e-01      -4.00979227e+00     2.70445503e+00      
H    2.00217232e+00      -3.92263628e+00     2.23098835e+00      
26
83.145727
N    -1.62801914e-02     -4.44943123e-02     -6.40317351e-02     
H    -1.05590043e+00     -6.22718470e-02     -1.04825414e-01     
H    3.17296559e-01      8.46602133e-01      -4.86275058e-01     
H    3.17718233e-01      -1.37836460e-01     9.19400126e-01      
C    5.26301324e-01      -1.18393717e+00     -8.25225789e-01     
H    1.61233945e+00      -1.14683019e+00     -7.96826174e-01     
H    1.91387868e-01      -2.11187736e+00     -3.68991562e-01     
C    4.19227071e-02      -1.09987369e+00     -2.25677597e+00     
O    -6.56667953e-01     -1.99686248e-01     -2.68524283e+00     
O    4.93199053e-01      -2.13441716e+00     -2.94259909e+00     
H    1.46462840e-01      -2.07588267e+00     -3.88203088e+00     
O    1.02003243e+00      2.07761287e+00      -1.50945530e+00     
H    5.60367076e-01      2.12438601e+00      -2.35315697e+00     
H    1.35278146e+00      2.96282137e+00      -1.33855743e+00     
O    1.06412653e+00      -6.65545961e-01     2.35069152e+00      
H    1.16357523e+00      -1.61542161e+00     2.51528651e+00      
H    1.23848638e+00      -2.14360283e-01     3.17752903e+00      
O    -2.72789648e+00     -4.30756780e-01     -4.72548038e-01     
H    -2.92051585e+00     -2.38488715e-01     -1.39534634e+00     
H    -3.54751919e+00     -2.79977861e-01     5.96187685e-03      
O    -4.27134473e-01     -2.05366422e+00     -5.41761257e+00     
H    -7.59061108e-01     -1.22699418e+00     -5.78052494e+00     
H    -5.16408296e-02     -2.53732847e+00     -6.16323814e+00     
O    1.17556763e+00      -3.43299097e+00     2.25068168e+00      
H    5.54055283e-01      -4.00857706e+00     2.70150279e+00      
H    2.00154697e+00      -3.92103875e+00     2.22980744e+00      
26
83.145727
N    -1.55205453e-02     -4.61975184e-02     -6.18609595e-02     
H    -1.05514994e+00     -6.39225945e-02     -1.02715787e-01     
H    3.17673058e-01      8.45167137e-01      -4.83865381e-01     
H    3.18754805e-01      -1.39925237e-01     9.21506010e-01      
C    5.26913567e-01      -1.18466107e+00     -8.24602337e-01     
H    1.61295567e+00      -1.14750272e+00     -7.96577947e-01     
H    1.92268287e-01      -2.11324729e+00     -3.69509676e-01     
C    4.20124546e-02      -1.09875292e+00     -2.25591911e+00     
O    -6.56850766e-01     -1.98129640e-01     -2.68301449e+00     
O    4.93169667e-01      -2.13226590e+00     -2.94332643e+00     
H    1.45763848e-01      -2.07298527e+00     -3.88241374e+00     
O    1.01770475e+00      2.07353856e+00      -1.51177612e+00     
H    5.54671716e-01      2.11663246e+00      -2.35367820e+00     
H    1.34923805e+00      2.95988404e+00      -1.34496870e+00     
O    1.06511960e+00      -6.65012285e-01     2.35361605e+00      
H    1.16435570e+00      -1.61489683e+00     2.51821374e+00      
H    1.23772844e+00      -2.13831450e-01     3.18079449e+00      
O    -2.72636502e+00     -4.30343746e-01     -4.75792461e-01     
H    -2.91493696e+00     -2.36400743e-01     -1.39897796e+00     
H    -3.54774696e+00     -2.79565236e-01     -4.40537094e-04     
O    -4.28097943e-01     -2.05286510e+00     -5.41824199e+00     
H    -7.50767430e-01     -1.22630152e+00     -5.78772387e+00     
H    -5.76693880e-02     -2.54556989e+00     -6.15953815e+00     
O    1.17532565e+00      -3.43206814e+00     2.25009297e+00      
H    5.53468419e-01      -4.00796945e+00     2.70002667e+00      
H    2.00123429e+00      -3.92023998e+00     2.22921698e+00      
26
83.145727
N    -1.47608992e-02     -4.79007245e-02     -5.96901839e-02     
H    -1.05439946e+00     -6.55733420e-02     -1.00606159e-01     
H    3.18049558e-01      8.43732141e-01      -4.81455704e-01     
H    3.19791377e-01      -1.42014014e-01     9.23611893e-01      
C    5.27525809e-01      -1.18538496e+00     -8.23978886e-01     
H    1.61357189e+00      -1.14817524e+00     -7.96329720e-01     
H    1.93148706e-01      -2.11461723e+00     -3.70027790e-01     
C    4.21022021e-02      -1.09763214e+00     -2.25506224e+00     
O    -6.57033579e-01     -1.96573032e-01     -2.68078615e+00     
O    4.93140282e-01      -2.13011463e+00     -2.94405377e+00     
H    1.45064856e-01      -2.07008786e+00     -3.88279659e+00     
O    1.01537707e+00      2.06946425e+00      -1.51409694e+00     
H    5.48976356e-01      2.10887891e+00      -2.35419943e+00     
H    1.34569464e+00      2.95694672e+00      -1.35137997e+00     
O    1.06611268e+00      -6.64478608e-01     2.35654059e+00      
H    1.16513616e+00      -1.61437205e+00     2.52114097e+00      
H    1.23697049e+00      -2.13302617e-01     3.18405995e+00      
O    -2.72483356e+00     -4.29930713e-01     -4.79036883e-01     
H    -2.90935807e+00     -2.34312771e-01     -1.40260958e+00     
H    -3.54797474e+00     -2.79152611e-01     -6.84295104e-03     
O    -4.29061414e-01     -2.05206598e+00     -5.41887142e+00     
H    -7.42473753e-01     -1.22560885e+00     -5.79492281e+00     
H    -6.36979463e-02     -2.55381131e+00     -6.15583815e+00     
O    1.17508367e+00      -3.43114530e+00     2.24950427e+00      
H    5.52881554e-01      -4.00736185e+00     2.69855055e+00      
H    2.00092161e+00      -3.91944121e+00     2.22862653e+00      
26
83.145727
N    -1.40012531e-02     -4.96039306e-02     -5.75194083e-02     
H    -1.05364897e+00     -6.72240896e-02     -9.84965319e-02     
H    3.18426057e-01      8.42297144e-01      -4.79046027e-01     
H    3.20827948e-01      -1.44102792e-01     9.25717777e-01      
C    5.28138052e-01      -1.18610886e+00     -8.23355434e-01     
H    1.61418812e+00      -1.14884776e+00     -7.96081492e-01     
H    1.94029125e-01      -2.11598716e+00     -3.70545904e-01     
C    4.21919495e-02      -1.09651137e+00     -2.25420537e+00     
O    -6.57216392e-01     -1.95016424e-01     -2.67855781e+00     
O    4.93110896e-01      -2.12796337e+00     -2.94478111e+00     
H    1.44365864e-01      -2.06719046e+00     -3.88317944e+00     
O    1.01304939e+00      2.06538993e+00      -1.51641777e+00     
H    5.43280996e-01      2.10112536e+00      -2.35472066e+00     
H    1.34215122e+00      2.95400940e+00      -1.35779125e+00     
O    1.06710575e+00      -6.63944931e-01     2.35946512e+00      
H    1.16591663e+00      -1.61384727e+00     2.52406820e+00      
H    1.23621255e+00      -2.12773785e-01     3.18732541e+00      
O    -2.72330210e+00     -4.29517679e-01     -4.82281305e-01     
H    -2.90377919e+00     -2.32224799e-01     -1.40624119e+00     
H    -3.54820251e+00     -2.78739986e-01     -1.32453650e-02     
O    -4.30024884e-01     -2.05126685e+00     -5.41950084e+00     
H    -7.34180076e-01     -1.22491619e+00     -5.80212174e+00     
H    -6.97265047e-02     -2.56205274e+00     -6.15213816e+00     
O    1.17484169e+00      -3.43022246e+00     2.24891557e+00      
H    5.52294690e-01      -4.00675424e+00     2.69707443e+00      
H    2.00060893e+00      -3.91864244e+00     2.22803607e+00      
26
83.145727
N    -1.32416070e-02     -5.13071367e-02     -5.53486326e-02     
H    -1.05289849e+00     -6.88748371e-02     -9.63869044e-02     
H    3.18802557e-01      8.40862148e-01      -4.76636350e-01     
H    3.21864520e-01      -1.46191569e-01     9.27823661e-01      
C    5.28750295e-01      -1.18683276e+00     -8.22731983e-01     
H    1.61480434e+00      -1.14952028e+00     -7.95833265e-01     
H    1.94909545e-01      -2.11735709e+00     -3.71064018e-01     
C    4.22816970e-02      -1.09539060e+00     -2.25334850e+00     
O    -6.57399204e-01     -1.93459816e-01     -2.67632946e+00     
O    4.93081510e-01      -2.12581211e+00     -2.94550845e+00     
H    1.43666872e-01      -2.06429306e+00     -3.88356229e+00     
O    1.01072171e+00      2.06131562e+00      -1.51873859e+00     
H    5.37585637e-01      2.09337180e+00      -2.35524188e+00     
H    1.33860781e+00      2.95107208e+00      -1.36420252e+00     
O    1.06809883e+00      -6.63411254e-01     2.36238966e+00      
H    1.16669709e+00      -1.61332249e+00     2.52699544e+00      
H    1.23545460e+00      -2.12244952e-01     3.19059086e+00      
O    -2.72177064e+00     -4.29104645e-01     -4.85525727e-01     
H    -2.89820030e+00     -2.30136826e-01     -1.40987281e+00     
H    -3.54843028e+00     -2.78327360e-01     -1.96477789e-02     
O    -4.30988355e-01     -2.05046773e+00     -5.42013027e+00     
H    -7.25886399e-01     -1.22422352e+00     -5.80932067e+00     
H    -7.57550630e-02     -2.57029416e+00     -6.14843817e+00     
O    1.17459970e+00      -3.42929962e+00     2.24832687e+00      
H    5.51707825e-01      -4.00614663e+00     2.69559831e+00      
H    2.00029625e+00      -3.91784368e+00     2.22744561e+00      
26
83.145727
N    -1.28617840e-02     -5.21587397e-02     -5.42632448e-02     
H    -1.05252325e+00     -6.97002109e-02     -9.53320906e-02     
H    3.18990807e-01      8.40144650e-01      -4.75431512e-01     
H    3.22382806e-01      -1.47235958e-01     9.28876602e-01      
C    5.29056416e-01      -1.18719471e+00     -8.22420257e-01     
H    1.61511245e+00      -1.14985655e+00     -7.95709152e-01     
H    1.95349754e-01      -2.11804206e+00     -3.71323075e-01     
C    4.23265708e-02      -1.09483021e+00     -2.25292006e+00     
O    -6.57490611e-01     -1.92681512e-01     -2.67521529e+00     
O    4.93066817e-01      -2.12473647e+00     -2.94587212e+00     
H    1.43317376e-01      -2.06284436e+00     -3.88375372e+00     
O    1.00955787e+00      2.05927847e+00      -1.51989900e+00     
H    5.34737957e-01      2.08949503e+00      -2.35550250e+00     
H    1.33683611e+00      2.94960341e+00      -1.36740815e+00     
O    1.06859537e+00      -6.63144416e-01     2.36385193e+00      
H    1.16708732e+00      -1.61306010e+00     2.52845905e+00      
H    1.23507563e+00      -2.11980535e-01     3.19222359e+00      
O    -2.72100491e+00     -4.28898128e-01     -4.87147939e-01     
H    -2.89541086e+00     -2.29092840e-01     -1.41168862e+00     
H    -3.54854416e+00     -2.78121048e-01     -2.28489859e-02     
O    -4.31470090e-01     -2.05006817e+00     -5.42044498e+00     
H    -7.21739560e-01     -1.22387719e+00     -5.81292014e+00     
H    -7.87693422e-02     -2.57441487e+00     -6.14658817e+00     
O    1.17447871e+00      -3.42883821e+00     2.24803251e+00      
H    5.51414393e-01      -4.00584283e+00     2.69486025e+00      
H    2.00013991e+00      -3.91744429e+00     2.22715038e+00      
26
83.145727
N    -1.24819609e-02     -5.30103428e-02     -5.31778570e-02     
H    -1.05214800e+00     -7.05255847e-02     -9.42772769e-02     
H    3.19179056e-01      8.39427151e-01      -4.74226673e-01     
H    3.22901091e-01      -1.48280347e-01     9.29929544e-01      
C    5.29362537e-01      -1.18755666e+00     -8.22108531e-01     
H    1.61542056e+00      -1.15019281e+00     -7.95585038e-01     
H    1.95789964e-01      -2.11872703e+00     -3.71582132e-01     
C    4.23714445e-02      -1.09426982e+00     -2.25249163e+00     
O    -6.57582017e-01     -1.91903208e-01     -2.67410112e+00     
O    4.93052124e-01      -2.12366084e+00     -2.94623579e+00     
H    1.42967880e-01      -2.06139565e+00     -3.88394515e+00     
O    1.00839403e+00      2.05724131e+00      -1.52105941e+00     
H    5.31890277e-01      2.08561825e+00      -2.35576311e+00     
H    1.33506440e+00      2.94813475e+00      -1.37061379e+00     
O    1.06909190e+00      -6.62877578e-01     2.36531419e+00      
H    1.16747756e+00      -1.61279771e+00     2.52992267e+00      
H    1.23469666e+00      -2.11716119e-01     3.19385632e+00      
O    -2.72023918e+00     -4.28691612e-01     -4.88770150e-01     
H    -2.89262142e+00     -2.28048854e-01     -1.41350443e+00     
H    -3.54865805e+00     -2.77914735e-01     -2.60501929e-02     
O    -4.31951825e-01     -2.04966861e+00     -5.42075969e+00     
H    -7.17592721e-01     -1.22353086e+00     -5.81651961e+00     
H    -8.17836214e-02     -2.57853558e+00     -6.14473817e+00     
O    1.17435772e+00      -3.42837679e+00     2.24773816e+00      
H    5.51120961e-01      -4.00553903e+00     2.69412219e+00      
H    1.99998357e+00      -3.91704491e+00     2.22685516e+00      
26
83.145727
N    -1.09626687e-02     -5.64167550e-02     -4.88363058e-02     
H    -1.05064704e+00     -7.38270797e-02     -9.00580219e-02     
H    3.19932056e-01      8.36557159e-01      -4.69407319e-01     
H    3.24974235e-01      -1.52457901e-01     9.34141312e-01      
C    5.30587023e-01      -1.18900446e+00     -8.20861629e-01     
H    1.61665300e+00      -1.15153785e+00     -7.95088584e-01     
H    1.97550802e-01      -2.12146689e+00     -3.72618360e-01     
C    4.25509395e-02      -1.09202828e+00     -2.25077789e+00     
O    -6.57947643e-01     -1.88789992e-01     -2.66964444e+00     
O    4.92993352e-01      -2.11935832e+00     -2.94769047e+00     
H    1.41569896e-01      -2.05560085e+00     -3.88471085e+00     
O    1.00373867e+00      2.04909269e+00      -1.52570105e+00     
H    5.20499557e-01      2.07011115e+00      -2.35680557e+00     
H    1.32797758e+00      2.94226011e+00      -1.38343633e+00     
O    1.07107806e+00      -6.61810224e-01     2.37116327e+00      
H    1.16903848e+00      -1.61174815e+00     2.53577713e+00      
H    1.23318076e+00      -2.10658453e-01     3.20038724e+00      
O    -2.71717626e+00     -4.27865544e-01     -4.95258994e-01     
H    -2.88146364e+00     -2.23872910e-01     -1.42076767e+00     
H    -3.54911359e+00     -2.77089485e-01     -3.88550207e-02     
O    -4.33878767e-01     -2.04807037e+00     -5.42201855e+00     
H    -7.01005367e-01     -1.22214552e+00     -5.83091747e+00     
H    -9.38407380e-02     -2.59501842e+00     -6.13733819e+00     
O    1.17387376e+00      -3.42653111e+00     2.24656076e+00      
H    5.49947231e-01      -4.00432381e+00     2.69116995e+00      
H    1.99935821e+00      -3.91544737e+00     2.22567424e+00      
26
83.145727
N    -1.05828456e-02     -5.72683581e-02     -4.77509180e-02     
H    -1.05027179e+00     -7.46524535e-02     -8.90032082e-02     
H    3.20120305e-01      8.35839660e-01      -4.68202480e-01     
H    3.25492520e-01      -1.53502290e-01     9.35194254e-01      
C    5.30893144e-01      -1.18936641e+00     -8.20549903e-01     
H    1.61696111e+00      -1.15187411e+00     -7.94964470e-01     
H    1.97991012e-01      -2.12215186e+00     -3.72877417e-01     
C    4.25958132e-02      -1.09146789e+00     -2.25034946e+00     
O    -6.58039049e-01     -1.88011688e-01     -2.66853027e+00     
O    4.92978659e-01      -2.11828269e+00     -2.94805414e+00     
H    1.41220400e-01      -2.05415214e+00     -3.88490228e+00     
O    1.00257483e+00      2.04705553e+00      -1.52686146e+00     
H    5.17651877e-01      2.06623437e+00      -2.35706618e+00     
H    1.32620587e+00      2.94079145e+00      -1.38664197e+00     
O    1.07157459e+00      -6.61543386e-01     2.37262553e+00      
H    1.16942872e+00      -1.61148576e+00     2.53724075e+00      
H    1.23280179e+00      -2.10394037e-01     3.20201997e+00      
O    -2.71641053e+00     -4.27659028e-01     -4.96881205e-01     
H    -2.87867420e+00     -2.22828924e-01     -1.42258348e+00     
H    -3.54922748e+00     -2.76883172e-01     -4.20562277e-02     
O    -4.34360502e-01     -2.04767081e+00     -5.42233326e+00     
H    -6.96858528e-01     -1.22179919e+00     -5.83451694e+00     
H    -9.68550172e-02     -2.59913913e+00     -6.13548819e+00     
O    1.17375277e+00      -3.42606969e+00     2.24626641e+00      
H    5.49653799e-01      -4.00402001e+00     2.69043189e+00      
H    1.99920187e+00      -3.91504799e+00     2.22537902e+00      
26
83.145727
N    -1.02030226e-02     -5.81199611e-02     -4.66655302e-02     
H    -1.04989655e+00     -7.54778273e-02     -8.79483944e-02     
H    3.20308555e-01      8.35122162e-01      -4.66997642e-01     
H    3.26010806e-01      -1.54546679e-01     9.36247195e-01      
C    5.31199265e-01      -1.18972836e+00     -8.20238177e-01     
H    1.61726922e+00      -1.15221038e+00     -7.94840357e-01     
H    1.98431221e-01      -2.12283683e+00     -3.73136474e-01     
C    4.26406870e-02      -1.09090750e+00     -2.24992102e+00     
O    -6.58130456e-01     -1.87233384e-01     -2.66741610e+00     
O    4.92963966e-01      -2.11720705e+00     -2.94841781e+00     
H    1.40870904e-01      -2.05270344e+00     -3.88509371e+00     
O    1.00141099e+00      2.04501838e+00      -1.52802187e+00     
H    5.14804197e-01      2.06235760e+00      -2.35732680e+00     
H    1.32443417e+00      2.93932278e+00      -1.38984760e+00     
O    1.07207113e+00      -6.61276548e-01     2.37408780e+00      
H    1.16981895e+00      -1.61122337e+00     2.53870436e+00      
H    1.23242282e+00      -2.10129620e-01     3.20365270e+00      
O    -2.71564480e+00     -4.27452511e-01     -4.98503417e-01     
H    -2.87588476e+00     -2.21784938e-01     -1.42439929e+00     
H    -3.54934136e+00     -2.76676860e-01     -4.52574347e-02     
O    -4.34842237e-01     -2.04727125e+00     -5.42264797e+00     
H    -6.92711689e-01     -1.22145286e+00     -5.83811641e+00     
H    -9.98692964e-02     -2.60325984e+00     -6.13363819e+00     
O    1.17363178e+00      -3.42560828e+00     2.24597205e+00      
H    5.49360367e-01      -4.00371621e+00     2.68969383e+00      
H    1.99904553e+00      -3.91464860e+00     2.22508379e+00      
26
83.145727
N    -9.44337649e-03     -5.98231672e-02     -4.44947545e-02     
H    -1.04914607e+00     -7.71285748e-02     -8.58387669e-02     
H    3.20685055e-01      8.33687166e-01      -4.64587965e-01     
H    3.27047378e-01      -1.56635456e-01     9.38353079e-01      
C    5.31811508e-01      -1.19045226e+00     -8.19614726e-01     
H    1.61788544e+00      -1.15288290e+00     -7.94592130e-01     
H    1.99311641e-01      -2.12420676e+00     -3.73654588e-01     
C    4.27304345e-02      -1.08978673e+00     -2.24906415e+00     
O    -6.58313268e-01     -1.85676776e-01     -2.66518775e+00     
O    4.92934580e-01      -2.11505579e+00     -2.94914515e+00     
H    1.40171912e-01      -2.04980604e+00     -3.88547656e+00     
O    9.99083312e-01      2.04094407e+00      -1.53034269e+00     
H    5.09108838e-01      2.05460404e+00      -2.35784802e+00     
H    1.32089076e+00      2.93638546e+00      -1.39625887e+00     
O    1.07306421e+00      -6.60742871e-01     2.37701234e+00      
H    1.17059941e+00      -1.61069859e+00     2.54163160e+00      
H    1.23166487e+00      -2.09600787e-01     3.20691815e+00      
O    -2.71411334e+00     -4.27039477e-01     -5.01747839e-01     
H    -2.87030587e+00     -2.19696965e-01     -1.42803091e+00     
H    -3.54956913e+00     -2.76264234e-01     -5.16598486e-02     
O    -4.35805708e-01     -2.04647213e+00     -5.42327740e+00     
H    -6.84418012e-01     -1.22076019e+00     -5.84531534e+00     
H    -1.05897855e-01     -2.61150126e+00     -6.12993820e+00     
O    1.17338979e+00      -3.42468544e+00     2.24538335e+00      
H    5.48773502e-01      -4.00310860e+00     2.68821771e+00      
H    1.99873285e+00      -3.91384984e+00     2.22449333e+00      
26
83.145727
N    -8.68373039e-03     -6.15263733e-02     -4.23239789e-02     
H    -1.04839558e+00     -7.87793224e-02     -8.37291394e-02     
H    3.21061554e-01      8.32252169e-01      -4.62178288e-01     
H    3.28083949e-01      -1.58724234e-01     9.40458963e-01      
C    5.32423751e-01      -1.19117616e+00     -8.18991274e-01     
H    1.61850167e+00      -1.15355542e+00     -7.94343902e-01     
H    2.00192060e-01      -2.12557669e+00     -3.74172702e-01     
C    4.28201819e-02      -1.08866596e+00     -2.24820728e+00     
O    -6.58496081e-01     -1.84120168e-01     -2.66295941e+00     
O    4.92905194e-01      -2.11290453e+00     -2.94987249e+00     
H    1.39472920e-01      -2.04690864e+00     -3.88585941e+00     
O    9.96755633e-01      2.03686975e+00      -1.53266352e+00     
H    5.03413478e-01      2.04685049e+00      -2.35836925e+00     
H    1.31734734e+00      2.93344814e+00      -1.40267015e+00     
O    1.07405728e+00      -6.60209194e-01     2.37993687e+00      
H    1.17137988e+00      -1.61017381e+00     2.54455883e+00      
H    1.23090693e+00      -2.09071955e-01     3.21018361e+00      
O    -2.71258188e+00     -4.26626443e-01     -5.04992261e-01     
H    -2.86472699e+00     -2.17608993e-01     -1.43166252e+00     
H    -3.54979690e+00     -2.75851609e-01     -5.80622626e-02     
O    -4.36769178e-01     -2.04567300e+00     -5.42390682e+00     
H    -6.76124335e-01     -1.22006753e+00     -5.85251427e+00     
H    -1.11926413e-01     -2.61974269e+00     -6.12623821e+00     
O    1.17314781e+00      -3.42376260e+00     2.24479465e+00      
H    5.48186638e-01      -4.00250099e+00     2.68674159e+00      
H    1.99842017e+00      -3.91305107e+00     2.22390287e+00      
26
83.145727
N    -7.92408429e-03     -6.32295794e-02     -4.01532033e-02     
H    -1.04764510e+00     -8.04300699e-02     -8.16195119e-02     
H    3.21438054e-01      8.30817173e-01      -4.59768611e-01     
H    3.29120521e-01      -1.60813011e-01     9.42564846e-01      
C    5.33035993e-01      -1.19190005e+00     -8.18367823e-01     
H    1.61911789e+00      -1.15422794e+00     -7.94095675e-01     
H    2.01072479e-01      -2.12694663e+00     -3.74690816e-01     
C    4.29099294e-02      -1.08754518e+00     -2.24735041e+00     
O    -6.58678894e-01     -1.82563560e-01     -2.66073107e+00     
O    4.92875809e-01      -2.11075326e+00     -2.95059983e+00     
H    1.38773928e-01      -2.04401123e+00     -3.88624226e+00     
O    9.94427954e-01      2.03279544e+00      -1.53498434e+00     
H    4.97718118e-01      2.03909694e+00      -2.35889048e+00     
H    1.31380393e+00      2.93051082e+00      -1.40908142e+00     
O    1.07505036e+00      -6.59675517e-01     2.38286141e+00      
H    1.17216034e+00      -1.60964903e+00     2.54748606e+00      
H    1.23014898e+00      -2.08543122e-01     3.21344907e+00      
O    -2.71105042e+00     -4.26213410e-01     -5.08236683e-01     
H    -2.85914810e+00     -2.15521021e-01     -1.43529414e+00     
H    -3.55002468e+00     -2.75438984e-01     -6.44646765e-02     
O    -4.37732649e-01     -2.04487388e+00     -5.42453625e+00     
H    -6.67830658e-01     -1.21937486e+00     -5.85971321e+00     
H    -1.17954971e-01     -2.62798411e+00     -6.12253821e+00     
O    1.17290583e+00      -3.42283976e+00     2.24420595e+00      
H    5.47599773e-01      -4.00189339e+00     2.68526547e+00      
H    1.99810749e+00      -3.91225230e+00     2.22331242e+00      
26
83.145727
N    -7.16443818e-03     -6.49327855e-02     -3.79824277e-02     
H    -1.04689461e+00     -8.20808174e-02     -7.95098844e-02     
H    3.21814553e-01      8.29382177e-01      -4.57358934e-01     
H    3.30157093e-01      -1.62901788e-01     9.44670730e-01      
C    5.33648236e-01      -1.19262395e+00     -8.17744371e-01     
H    1.61973411e+00      -1.15490047e+00     -7.93847448e-01     
H    2.01952898e-01      -2.12831656e+00     -3.75208930e-01     
C    4.29996769e-02      -1.08642441e+00     -2.24649355e+00     
O    -6.58861707e-01     -1.81006952e-01     -2.65850273e+00     
O    4.92846423e-01      -2.10860200e+00     -2.95132717e+00     
H    1.38074936e-01      -2.04111383e+00     -3.88662512e+00     
O    9.92100275e-01      2.02872113e+00      -1.53730516e+00     
H    4.92022758e-01      2.03134339e+00      -2.35941171e+00     
H    1.31026052e+00      2.92757349e+00      -1.41549269e+00     
O    1.07604343e+00      -6.59141841e-01     2.38578594e+00      
H    1.17294081e+00      -1.60912425e+00     2.55041329e+00      
H    1.22939104e+00      -2.08014289e-01     3.21671453e+00      
O    -2.70951896e+00     -4.25800376e-01     -5.11481106e-01     
H    -2.85356921e+00     -2.13433049e-01     -1.43892576e+00     
H    -3.55025245e+00     -2.75026359e-01     -7.08670904e-02     
O    -4.38696119e-01     -2.04407476e+00     -5.42516567e+00     
H    -6.59536980e-01     -1.21868220e+00     -5.86691214e+00     
H    -1.23983530e-01     -2.63622553e+00     -6.11883822e+00     
O    1.17266385e+00      -3.42191693e+00     2.24361724e+00      
H    5.47012909e-01      -4.00128578e+00     2.68378935e+00      
H    1.99779481e+00      -3.91145353e+00     2.22272196e+00      
26
83.145727
N    -5.64514598e-03     -6.83391978e-02     -3.36408764e-02     
H    -1.04539365e+00     -8.53823125e-02     -7.52906295e-02     
H    3.22567552e-01      8.26512184e-01      -4.52539580e-01     
H    3.32230236e-01      -1.67079343e-01     9.48882497e-01      
C    5.34872721e-01      -1.19407175e+00     -8.16497468e-01     
H    1.62096655e+00      -1.15624551e+00     -7.93350994e-01     
H    2.03713737e-01      -2.13105643e+00     -3.76245158e-01     
C    4.31791719e-02      -1.08418286e+00     -2.24477981e+00     
O    -6.59227332e-01     -1.77893736e-01     -2.65404605e+00     
O    4.92787651e-01      -2.10429947e+00     -2.95278184e+00     
H    1.36676952e-01      -2.03531902e+00     -3.88739082e+00     
O    9.87444916e-01      2.02057251e+00      -1.54194680e+00     
H    4.80632039e-01      2.01583628e+00      -2.36045416e+00     
H    1.30317370e+00      2.92169885e+00      -1.42831523e+00     
O    1.07802958e+00      -6.58074487e-01     2.39163501e+00      
H    1.17450174e+00      -1.60807469e+00     2.55626776e+00      
H    1.22787514e+00      -2.06956623e-01     3.22324544e+00      
O    -2.70645604e+00     -4.24974309e-01     -5.17969950e-01     
H    -2.84241144e+00     -2.09257104e-01     -1.44618900e+00     
H    -3.55070799e+00     -2.74201108e-01     -8.36719183e-02     
O    -4.40623060e-01     -2.04247652e+00     -5.42642452e+00     
H    -6.42949626e-01     -1.21729687e+00     -5.88131001e+00     
H    -1.36040646e-01     -2.65270837e+00     -6.11143823e+00     
O    1.17217988e+00      -3.42007125e+00     2.24243984e+00      
H    5.45839180e-01      -4.00007057e+00     2.68083711e+00      
H    1.99716946e+00      -3.90985600e+00     2.22154105e+00      
