26
59.455785
N    -3.12918108e-02     -6.39252113e-02     -4.73901716e-02     
H    -1.07108761e+00     -8.84610962e-02     -9.94883578e-02     
H    2.97933033e-01      8.33422032e-01      -4.58313287e-01     
H    3.00881442e-01      -1.61274500e-01     9.36711865e-01      
C    5.33491042e-01      -1.18388149e+00     -8.21666453e-01     
H    1.61863003e+00      -1.12753566e+00     -7.89511863e-01     
H    2.14217512e-01      -2.12431523e+00     -3.79507974e-01     
C    4.85197805e-02      -1.09125801e+00     -2.25265228e+00     
O    -6.85349307e-01     -2.11102503e-01     -2.66563717e+00     
O    5.39512378e-01      -2.09554702e+00     -2.95738106e+00     
H    1.71493252e-01      -2.04572071e+00     -3.88922553e+00     
O    1.02282060e+00      2.04451209e+00      -1.49461530e+00     
H    5.55327102e-01      2.10927300e+00      -2.33328134e+00     
H    1.37841033e+00      2.92106741e+00      -1.32085950e+00     
O    1.09015666e+00      -6.58654027e-01     2.35609096e+00      
H    1.18061354e+00      -1.60867485e+00     2.52550883e+00      
H    1.23463097e+00      -2.06715192e-01     3.18851006e+00      
O    -2.73537164e+00     -4.16234612e-01     -5.25684299e-01     
H    -2.86516476e+00     -2.21520883e-01     -1.45958722e+00     
H    -3.57978788e+00     -2.46265624e-01     -9.82110323e-02     
O    -4.59261907e-01     -2.06344167e+00     -5.40459593e+00     
H    -7.93436710e-01     -1.24828333e+00     -5.78966651e+00     
H    -1.08773305e-01     -2.57587778e+00     -6.14078663e+00     
O    1.17407763e+00      -3.42453829e+00     2.24926873e+00      
H    5.49403565e-01      -3.99775553e+00     2.69876377e+00      
H    1.99747890e+00      -3.91691863e+00     2.22733708e+00      
26
59.455785
N    -2.63994368e-02     -6.16222957e-02     -4.82943990e-02     
H    -1.06616509e+00     -8.43899052e-02     -9.76581807e-02     
H    3.03338663e-01      8.34564563e-01      -4.61689214e-01     
H    3.06645497e-01      -1.58548156e-01     9.35542756e-01      
C    5.32611977e-01      -1.18498126e+00     -8.21621110e-01     
H    1.61798172e+00      -1.13336807e+00     -7.90968100e-01     
H    2.09830730e-01      -2.12326067e+00     -3.77656042e-01     
C    4.70051333e-02      -1.09173077e+00     -2.25239790e+00     
O    -6.78453188e-01     -2.05913527e-01     -2.66719608e+00     
O    5.27889968e-01      -2.10203766e+00     -2.95477657e+00     
H    1.64187161e-01      -2.04891509e+00     -3.88800114e+00     
O    1.01863203e+00      2.04667582e+00      -1.50180654e+00     
H    5.48044056e-01      2.10142092e+00      -2.33903209e+00     
H    1.36668799e+00      2.92709991e+00      -1.33490089e+00     
O    1.08513874e+00      -6.59576496e-01     2.35912790e+00      
H    1.17752466e+00      -1.60957437e+00     2.52734410e+00      
H    1.23445790e+00      -2.07833215e-01     3.19066299e+00      
O    -2.73120566e+00     -4.19245604e-01     -5.17266867e-01     
H    -2.87063420e+00     -2.22630883e-01     -1.44897443e+00     
H    -3.57206236e+00     -2.54074745e-01     -8.17714259e-02     
O    -4.52675254e-01     -2.05979863e+00     -5.40879423e+00     
H    -7.72402293e-01     -1.24192204e+00     -5.79817952e+00     
H    -1.03533024e-01     -2.57860258e+00     -6.14084952e+00     
O    1.17408716e+00      -3.42526720e+00     2.24873892e+00      
H    5.49686198e-01      -3.99954950e+00     2.69723434e+00      
H    1.99802690e+00      -3.91675051e+00     2.22706899e+00      
26
59.455785
N    -2.39532498e-02     -6.04708379e-02     -4.87465128e-02     
H    -1.06370383e+00     -8.23543097e-02     -9.67430921e-02     
H    3.06041479e-01      8.35135828e-01      -4.63377178e-01     
H    3.09527525e-01      -1.57184984e-01     9.34958201e-01      
C    5.32172444e-01      -1.18553114e+00     -8.21598438e-01     
H    1.61765756e+00      -1.13628428e+00     -7.91696219e-01     
H    2.07637339e-01      -2.12273338e+00     -3.76730076e-01     
C    4.62478098e-02      -1.09196715e+00     -2.25227071e+00     
O    -6.75005128e-01     -2.03319039e-01     -2.66797553e+00     
O    5.22078763e-01      -2.10528298e+00     -2.95347433e+00     
H    1.60534115e-01      -2.05051228e+00     -3.88738895e+00     
O    1.01653775e+00      2.04775768e+00      -1.50540215e+00     
H    5.44402532e-01      2.09749489e+00      -2.34190747e+00     
H    1.36082683e+00      2.93011617e+00      -1.34192159e+00     
O    1.08262978e+00      -6.60037730e-01     2.36064637e+00      
H    1.17598022e+00      -1.61002413e+00     2.52826173e+00      
H    1.23437137e+00      -2.08392227e-01     3.19173946e+00      
O    -2.72912267e+00     -4.20751099e-01     -5.13058152e-01     
H    -2.87336892e+00     -2.23185883e-01     -1.44366803e+00     
H    -3.56819961e+00     -2.57979306e-01     -7.35516227e-02     
O    -4.49381928e-01     -2.05797710e+00     -5.41089338e+00     
H    -7.61885085e-01     -1.23874140e+00     -5.80243602e+00     
H    -1.00912883e-01     -2.57996499e+00     -6.14088096e+00     
O    1.17409192e+00      -3.42563166e+00     2.24847401e+00      
H    5.49827514e-01      -4.00044649e+00     2.69646963e+00      
H    1.99830090e+00      -3.91666645e+00     2.22693494e+00      
26
59.455785
N    -2.15070628e-02     -5.93193801e-02     -4.91986265e-02     
H    -1.06124257e+00     -8.03187142e-02     -9.58280036e-02     
H    3.08744294e-01      8.35707093e-01      -4.65065142e-01     
H    3.12409553e-01      -1.55821812e-01     9.34373647e-01      
C    5.31732911e-01      -1.18608103e+00     -8.21575766e-01     
H    1.61733341e+00      -1.13920049e+00     -7.92424337e-01     
H    2.05443948e-01      -2.12220610e+00     -3.75804110e-01     
C    4.54904862e-02      -1.09220353e+00     -2.25214352e+00     
O    -6.71557068e-01     -2.00724552e-01     -2.66875498e+00     
O    5.16267558e-01      -2.10852830e+00     -2.95217209e+00     
H    1.56881070e-01      -2.05210948e+00     -3.88677676e+00     
O    1.01444347e+00      2.04883955e+00      -1.50899777e+00     
H    5.40761009e-01      2.09356885e+00      -2.34478284e+00     
H    1.35496566e+00      2.93313242e+00      -1.34894228e+00     
O    1.08012082e+00      -6.60498964e-01     2.36216484e+00      
H    1.17443578e+00      -1.61047389e+00     2.52917936e+00      
H    1.23428484e+00      -2.08951239e-01     3.19281592e+00      
O    -2.72703968e+00     -4.22256595e-01     -5.08849436e-01     
H    -2.87610365e+00     -2.23740883e-01     -1.43836163e+00     
H    -3.56433685e+00     -2.61883867e-01     -6.53318195e-02     
O    -4.46088602e-01     -2.05615558e+00     -5.41299253e+00     
H    -7.51367877e-01     -1.23556076e+00     -5.80669253e+00     
H    -9.82927424e-02     -2.58132739e+00     -6.14091240e+00     
O    1.17409669e+00      -3.42599612e+00     2.24820910e+00      
H    5.49968830e-01      -4.00134348e+00     2.69570492e+00      
H    1.99857490e+00      -3.91658238e+00     2.22680089e+00      
26
59.455785
N    -1.90608758e-02     -5.81679223e-02     -4.96507402e-02     
H    -1.05878130e+00     -7.82831187e-02     -9.49129150e-02     
H    3.11447110e-01      8.36278359e-01      -4.66753105e-01     
H    3.15291580e-01      -1.54458640e-01     9.33789092e-01      
C    5.31293378e-01      -1.18663091e+00     -8.21553095e-01     
H    1.61700925e+00      -1.14211670e+00     -7.93152456e-01     
H    2.03250557e-01      -2.12167881e+00     -3.74878144e-01     
C    4.47331627e-02      -1.09243991e+00     -2.25201633e+00     
O    -6.68109009e-01     -1.98130064e-01     -2.66953443e+00     
O    5.10456353e-01      -2.11177362e+00     -2.95086985e+00     
H    1.53228024e-01      -2.05370667e+00     -3.88616457e+00     
O    1.01234919e+00      2.04992141e+00      -1.51259338e+00     
H    5.37119486e-01      2.08964281e+00      -2.34765822e+00     
H    1.34910449e+00      2.93614867e+00      -1.35596298e+00     
O    1.07761186e+00      -6.60960198e-01     2.36368332e+00      
H    1.17289134e+00      -1.61092365e+00     2.53009700e+00      
H    1.23419831e+00      -2.09510251e-01     3.19389239e+00      
O    -2.72495669e+00     -4.23762091e-01     -5.04640720e-01     
H    -2.87883837e+00     -2.24295882e-01     -1.43305524e+00     
H    -3.56047409e+00     -2.65788428e-01     -5.71120164e-02     
O    -4.42795275e-01     -2.05433406e+00     -5.41509167e+00     
H    -7.40850669e-01     -1.23238012e+00     -5.81094903e+00     
H    -9.56726017e-02     -2.58268979e+00     -6.14094385e+00     
O    1.17410145e+00      -3.42636058e+00     2.24794419e+00      
H    5.50110147e-01      -4.00224046e+00     2.69494021e+00      
H    1.99884890e+00      -3.91649832e+00     2.22666684e+00      
26
59.455785
N    -1.66146888e-02     -5.70164645e-02     -5.01028539e-02     
H    -1.05632004e+00     -7.62475232e-02     -9.39978265e-02     
H    3.14149925e-01      8.36849624e-01      -4.68441069e-01     
H    3.18173608e-01      -1.53095468e-01     9.33204537e-01      
C    5.30853846e-01      -1.18718079e+00     -8.21530423e-01     
H    1.61668509e+00      -1.14503291e+00     -7.93880574e-01     
H    2.01057165e-01      -2.12115153e+00     -3.73952178e-01     
C    4.39758391e-02      -1.09267629e+00     -2.25188914e+00     
O    -6.64660949e-01     -1.95535576e-01     -2.67031388e+00     
O    5.04645148e-01      -2.11501894e+00     -2.94956761e+00     
H    1.49574979e-01      -2.05530386e+00     -3.88555238e+00     
O    1.01025491e+00      2.05100327e+00      -1.51618900e+00     
H    5.33477963e-01      2.08571677e+00      -2.35053359e+00     
H    1.34324332e+00      2.93916492e+00      -1.36298367e+00     
O    1.07510290e+00      -6.61421433e-01     2.36520179e+00      
H    1.17134690e+00      -1.61137341e+00     2.53101463e+00      
H    1.23411177e+00      -2.10069262e-01     3.19496885e+00      
O    -2.72287370e+00     -4.25267587e-01     -5.00432004e-01     
H    -2.88157309e+00     -2.24850882e-01     -1.42774884e+00     
H    -3.55661133e+00     -2.69692988e-01     -4.88922132e-02     
O    -4.39501949e-01     -2.05251254e+00     -5.41719082e+00     
H    -7.30333460e-01     -1.22919947e+00     -5.81520553e+00     
H    -9.30524610e-02     -2.58405219e+00     -6.14097529e+00     
O    1.17410621e+00      -3.42672503e+00     2.24767928e+00      
H    5.50251463e-01      -4.00313745e+00     2.69417549e+00      
H    1.99912289e+00      -3.91641426e+00     2.22653280e+00      
26
59.455785
N    -1.53915953e-02     -5.64407356e-02     -5.03289108e-02     
H    -1.05508941e+00     -7.52297254e-02     -9.35402822e-02     
H    3.15501333e-01      8.37135257e-01      -4.69285051e-01     
H    3.19614622e-01      -1.52413882e-01     9.32912260e-01      
C    5.30634079e-01      -1.18745573e+00     -8.21519087e-01     
H    1.61652302e+00      -1.14649102e+00     -7.94244633e-01     
H    1.99960470e-01      -2.12088789e+00     -3.73489195e-01     
C    4.35971773e-02      -1.09279448e+00     -2.25182554e+00     
O    -6.62936919e-01     -1.94238332e-01     -2.67070360e+00     
O    5.01739545e-01      -2.11664160e+00     -2.94891649e+00     
H    1.47748456e-01      -2.05610246e+00     -3.88524629e+00     
O    1.00920777e+00      2.05154421e+00      -1.51798681e+00     
H    5.31657202e-01      2.08375376e+00      -2.35197128e+00     
H    1.34031274e+00      2.94067305e+00      -1.36649402e+00     
O    1.07384842e+00      -6.61652050e-01     2.36596102e+00      
H    1.17057468e+00      -1.61159829e+00     2.53147345e+00      
H    1.23406851e+00      -2.10348768e-01     3.19550708e+00      
O    -2.72183221e+00     -4.26020334e-01     -4.98327646e-01     
H    -2.88294045e+00     -2.25128382e-01     -1.42509564e+00     
H    -3.55467996e+00     -2.71645269e-01     -4.47823116e-02     
O    -4.37855286e-01     -2.05160177e+00     -5.41824040e+00     
H    -7.25074856e-01     -1.22760915e+00     -5.81733378e+00     
H    -9.17423907e-02     -2.58473340e+00     -6.14099101e+00     
O    1.17410859e+00      -3.42690726e+00     2.24754682e+00      
H    5.50322121e-01      -4.00358594e+00     2.69379314e+00      
H    1.99925989e+00      -3.91637223e+00     2.22646577e+00      
26
59.455785
N    -1.41685018e-02     -5.58650067e-02     -5.05549677e-02     
H    -1.05385878e+00     -7.42119277e-02     -9.30827379e-02     
H    3.16852741e-01      8.37420890e-01      -4.70129032e-01     
H    3.21055635e-01      -1.51732296e-01     9.32619983e-01      
C    5.30414313e-01      -1.18773068e+00     -8.21507752e-01     
H    1.61636094e+00      -1.14794912e+00     -7.94608693e-01     
H    1.98863774e-01      -2.12062424e+00     -3.73026212e-01     
C    4.32185156e-02      -1.09291267e+00     -2.25176195e+00     
O    -6.61212890e-01     -1.92941088e-01     -2.67109333e+00     
O    4.98833943e-01      -2.11826426e+00     -2.94826537e+00     
H    1.45921933e-01      -2.05690106e+00     -3.88494019e+00     
O    1.00816063e+00      2.05208514e+00      -1.51978461e+00     
H    5.29836440e-01      2.08179074e+00      -2.35340897e+00     
H    1.33738216e+00      2.94218118e+00      -1.37000437e+00     
O    1.07259394e+00      -6.61882667e-01     2.36672026e+00      
H    1.16980246e+00      -1.61182317e+00     2.53193227e+00      
H    1.23402524e+00      -2.10628274e-01     3.19604532e+00      
O    -2.72079071e+00     -4.26773082e-01     -4.96223288e-01     
H    -2.88430781e+00     -2.25405882e-01     -1.42244245e+00     
H    -3.55274858e+00     -2.73597549e-01     -4.06724100e-02     
O    -4.36208622e-01     -2.05069101e+00     -5.41928997e+00     
H    -7.19816252e-01     -1.22601883e+00     -5.81946204e+00     
H    -9.04323204e-02     -2.58541460e+00     -6.14100674e+00     
O    1.17411098e+00      -3.42708949e+00     2.24741437e+00      
H    5.50392780e-01      -4.00403443e+00     2.69341078e+00      
H    1.99939689e+00      -3.91633020e+00     2.22639875e+00      
26
59.455785
N    -9.27612780e-03     -5.35620911e-02     -5.14591951e-02     
H    -1.04893626e+00     -7.01407367e-02     -9.12525609e-02     
H    3.22258371e-01      8.38563420e-01      -4.73504960e-01     
H    3.26819691e-01      -1.49005952e-01     9.31450873e-01      
C    5.29535247e-01      -1.18883044e+00     -8.21462408e-01     
H    1.61571262e+00      -1.15378154e+00     -7.96064929e-01     
H    1.94476992e-01      -2.11956968e+00     -3.71174280e-01     
C    4.17038684e-02      -1.09338543e+00     -2.25150757e+00     
O    -6.54316770e-01     -1.87752112e-01     -2.67265223e+00     
O    4.87211533e-01      -2.12475490e+00     -2.94566089e+00     
H    1.38615843e-01      -2.06009544e+00     -3.88371581e+00     
O    1.00397207e+00      2.05424886e+00      -1.52697585e+00     
H    5.22553394e-01      2.07393866e+00      -2.35915971e+00     
H    1.32565982e+00      2.94821368e+00      -1.38404575e+00     
O    1.06757602e+00      -6.62805135e-01     2.36975720e+00      
H    1.16671358e+00      -1.61272269e+00     2.53376753e+00      
H    1.23385218e+00      -2.11746298e-01     3.19819824e+00      
O    -2.71662473e+00     -4.29784074e-01     -4.87805856e-01     
H    -2.88977725e+00     -2.26515882e-01     -1.41182965e+00     
H    -3.54502306e+00     -2.81406671e-01     -2.42328036e-02     
O    -4.29621970e-01     -2.04704797e+00     -5.42348827e+00     
H    -6.98781836e-01     -1.21965755e+00     -5.82797504e+00     
H    -8.51920390e-02     -2.58813940e+00     -6.14106962e+00     
O    1.17412050e+00      -3.42781841e+00     2.24688455e+00      
H    5.50675412e-01      -4.00582841e+00     2.69188136e+00      
H    1.99994489e+00      -3.91616208e+00     2.22613065e+00      
26
59.455785
N    -8.05303431e-03     -5.29863622e-02     -5.16852520e-02     
H    -1.04770563e+00     -6.91229390e-02     -9.07950166e-02     
H    3.23609779e-01      8.38849053e-01      -4.74348941e-01     
H    3.28260704e-01      -1.48324366e-01     9.31158596e-01      
C    5.29315481e-01      -1.18910539e+00     -8.21451073e-01     
H    1.61555054e+00      -1.15523964e+00     -7.96428989e-01     
H    1.93380296e-01      -2.11930603e+00     -3.70711297e-01     
C    4.13252067e-02      -1.09350362e+00     -2.25144398e+00     
O    -6.52592741e-01     -1.86454868e-01     -2.67304196e+00     
O    4.84305931e-01      -2.12637756e+00     -2.94500977e+00     
H    1.36789320e-01      -2.06089404e+00     -3.88340971e+00     
O    1.00292493e+00      2.05478979e+00      -1.52877365e+00     
H    5.20732632e-01      2.07197564e+00      -2.36059740e+00     
H    1.32272924e+00      2.94972181e+00      -1.38755610e+00     
O    1.06632154e+00      -6.63035752e-01     2.37051644e+00      
H    1.16594136e+00      -1.61294757e+00     2.53422635e+00      
H    1.23380891e+00      -2.12025804e-01     3.19873648e+00      
O    -2.71558323e+00     -4.30536822e-01     -4.85701498e-01     
H    -2.89114461e+00     -2.26793382e-01     -1.40917646e+00     
H    -3.54309168e+00     -2.83358951e-01     -2.01229020e-02     
O    -4.27975306e-01     -2.04613721e+00     -5.42453784e+00     
H    -6.93523232e-01     -1.21806723e+00     -5.83010330e+00     
H    -8.38819687e-02     -2.58882060e+00     -6.14108535e+00     
O    1.17412289e+00      -3.42800064e+00     2.24675210e+00      
H    5.50746071e-01      -4.00627690e+00     2.69149900e+00      
H    2.00008189e+00      -3.91612005e+00     2.22606363e+00      
26
59.455785
N    -6.82994081e-03     -5.24106333e-02     -5.19113089e-02     
H    -1.04647500e+00     -6.81051412e-02     -9.03374723e-02     
H    3.24961187e-01      8.39134686e-01      -4.75192923e-01     
H    3.29701718e-01      -1.47642780e-01     9.30866319e-01      
C    5.29095714e-01      -1.18938033e+00     -8.21439737e-01     
H    1.61538847e+00      -1.15669775e+00     -7.96793048e-01     
H    1.92283601e-01      -2.11904239e+00     -3.70248314e-01     
C    4.09465449e-02      -1.09362181e+00     -2.25138038e+00     
O    -6.50868711e-01     -1.85157624e-01     -2.67343168e+00     
O    4.81400328e-01      -2.12800022e+00     -2.94435865e+00     
H    1.34962797e-01      -2.06169264e+00     -3.88310362e+00     
O    1.00187779e+00      2.05533073e+00      -1.53057146e+00     
H    5.18911871e-01      2.07001263e+00      -2.36203509e+00     
H    1.31979866e+00      2.95122994e+00      -1.39106645e+00     
O    1.06506706e+00      -6.63266369e-01     2.37127567e+00      
H    1.16516914e+00      -1.61317245e+00     2.53468517e+00      
H    1.23376565e+00      -2.12305310e-01     3.19927471e+00      
O    -2.71454174e+00     -4.31289569e-01     -4.83597140e-01     
H    -2.89251197e+00     -2.27070882e-01     -1.40652326e+00     
H    -3.54116031e+00     -2.85311232e-01     -1.60130004e-02     
O    -4.26328643e-01     -2.04522644e+00     -5.42558742e+00     
H    -6.88264628e-01     -1.21647691e+00     -5.83223155e+00     
H    -8.25718984e-02     -2.58950181e+00     -6.14110107e+00     
O    1.17412527e+00      -3.42818287e+00     2.24661964e+00      
H    5.50816729e-01      -4.00672539e+00     2.69111665e+00      
H    2.00021889e+00      -3.91607802e+00     2.22599660e+00      
26
59.455785
N    -4.38375381e-03     -5.12591755e-02     -5.23634226e-02     
H    -1.04401374e+00     -6.60695457e-02     -8.94223838e-02     
H    3.27664002e-01      8.39705951e-01      -4.76880887e-01     
H    3.32583746e-01      -1.46279608e-01     9.30281764e-01      
C    5.28656182e-01      -1.18993021e+00     -8.21417065e-01     
H    1.61506431e+00      -1.15961396e+00     -7.97521166e-01     
H    1.90090209e-01      -2.11851511e+00     -3.69322348e-01     
C    4.01892213e-02      -1.09385819e+00     -2.25125319e+00     
O    -6.47420651e-01     -1.82563136e-01     -2.67421113e+00     
O    4.75589123e-01      -2.13124554e+00     -2.94305641e+00     
H    1.31309752e-01      -2.06328983e+00     -3.88249143e+00     
O    9.99783508e-01      2.05641259e+00      -1.53416708e+00     
H    5.15270348e-01      2.06608659e+00      -2.36491046e+00     
H    1.31393749e+00      2.95424619e+00      -1.39808714e+00     
O    1.06255810e+00      -6.63727604e-01     2.37279414e+00      
H    1.16362470e+00      -1.61362221e+00     2.53560280e+00      
H    1.23367911e+00      -2.12864321e-01     3.20035117e+00      
O    -2.71245875e+00     -4.32795065e-01     -4.79388424e-01     
H    -2.89524669e+00     -2.27625882e-01     -1.40121686e+00     
H    -3.53729755e+00     -2.89215792e-01     -7.79319724e-03     
O    -4.23035317e-01     -2.04340492e+00     -5.42768657e+00     
H    -6.77747419e-01     -1.21329626e+00     -5.83648805e+00     
H    -7.99517577e-02     -2.59086421e+00     -6.14113251e+00     
O    1.17413003e+00      -3.42854732e+00     2.24635473e+00      
H    5.50958045e-01      -4.00762238e+00     2.69035193e+00      
H    2.00049288e+00      -3.91599396e+00     2.22586256e+00      
26
59.455785
N    -1.93756682e-03     -5.01077177e-02     -5.28155363e-02     
H    -1.04155247e+00     -6.40339502e-02     -8.85072952e-02     
H    3.30366818e-01      8.40277217e-01      -4.78568850e-01     
H    3.35465773e-01      -1.44916436e-01     9.29697209e-01      
C    5.28216649e-01      -1.19048009e+00     -8.21394394e-01     
H    1.61474015e+00      -1.16253017e+00     -7.98249285e-01     
H    1.87896818e-01      -2.11798782e+00     -3.68396382e-01     
C    3.94318978e-02      -1.09409457e+00     -2.25112600e+00     
O    -6.43972592e-01     -1.79968648e-01     -2.67499058e+00     
O    4.69777918e-01      -2.13449086e+00     -2.94175417e+00     
H    1.27656706e-01      -2.06488702e+00     -3.88187924e+00     
O    9.97689227e-01      2.05749445e+00      -1.53776269e+00     
H    5.11628825e-01      2.06216055e+00      -2.36778584e+00     
H    1.30807632e+00      2.95726244e+00      -1.40510784e+00     
O    1.06004914e+00      -6.64188838e-01     2.37431262e+00      
H    1.16208026e+00      -1.61407197e+00     2.53652044e+00      
H    1.23359258e+00      -2.13423333e-01     3.20142764e+00      
O    -2.71037576e+00     -4.34300561e-01     -4.75179708e-01     
H    -2.89798141e+00     -2.28180881e-01     -1.39591047e+00     
H    -3.53343479e+00     -2.93120353e-01     4.26605940e-04      
O    -4.19741990e-01     -2.04158340e+00     -5.42978571e+00     
H    -6.67230211e-01     -1.21011562e+00     -5.84074455e+00     
H    -7.73316170e-02     -2.59222661e+00     -6.14116396e+00     
O    1.17413479e+00      -3.42891178e+00     2.24608982e+00      
H    5.51099362e-01      -4.00851936e+00     2.68958722e+00      
H    2.00076688e+00      -3.91590990e+00     2.22572851e+00      
26
59.455785
N    5.08620177e-04      -4.89562599e-02     -5.32676500e-02     
H    -1.03909121e+00     -6.19983547e-02     -8.75922067e-02     
H    3.33069633e-01      8.40848482e-01      -4.80256814e-01     
H    3.38347801e-01      -1.43553264e-01     9.29112655e-01      
C    5.27777116e-01      -1.19102998e+00     -8.21371722e-01     
H    1.61441600e+00      -1.16544638e+00     -7.98977403e-01     
H    1.85703427e-01      -2.11746054e+00     -3.67470416e-01     
C    3.86745742e-02      -1.09433095e+00     -2.25099881e+00     
O    -6.40524532e-01     -1.77374161e-01     -2.67577003e+00     
O    4.63966713e-01      -2.13773618e+00     -2.94045193e+00     
H    1.24003661e-01      -2.06648422e+00     -3.88126705e+00     
O    9.95594946e-01      2.05857632e+00      -1.54135831e+00     
H    5.07987302e-01      2.05823451e+00      -2.37066121e+00     
H    1.30221515e+00      2.96027869e+00      -1.41212853e+00     
O    1.05754018e+00      -6.64650072e-01     2.37583109e+00      
H    1.16053582e+00      -1.61452173e+00     2.53743807e+00      
H    1.23350605e+00      -2.13982345e-01     3.20250410e+00      
O    -2.70829277e+00     -4.35806057e-01     -4.70970992e-01     
H    -2.90071614e+00     -2.28735881e-01     -1.39060407e+00     
H    -3.52957203e+00     -2.97024914e-01     8.64640913e-03      
O    -4.16448664e-01     -2.03976188e+00     -5.43188486e+00     
H    -6.56713003e-01     -1.20693498e+00     -5.84500106e+00     
H    -7.47114764e-02     -2.59358901e+00     -6.14119540e+00     
O    1.17413956e+00      -3.42927624e+00     2.24582491e+00      
H    5.51240678e-01      -4.00941635e+00     2.68882251e+00      
H    2.00104088e+00      -3.91582583e+00     2.22559446e+00      
26
59.455785
N    2.95480717e-03      -4.78048021e-02     -5.37197638e-02     
H    -1.03662995e+00     -5.99627592e-02     -8.66771181e-02     
H    3.35772449e-01      8.41419747e-01      -4.81944778e-01     
H    3.41229829e-01      -1.42190092e-01     9.28528100e-01      
C    5.27337583e-01      -1.19157986e+00     -8.21349050e-01     
H    1.61409184e+00      -1.16836259e+00     -7.99705522e-01     
H    1.83510036e-01      -2.11693325e+00     -3.66544450e-01     
C    3.79172507e-02      -1.09456733e+00     -2.25087162e+00     
O    -6.37076472e-01     -1.74779673e-01     -2.67654948e+00     
O    4.58155508e-01      -2.14098150e+00     -2.93914969e+00     
H    1.20350615e-01      -2.06808141e+00     -3.88065486e+00     
O    9.93500665e-01      2.05965818e+00      -1.54495392e+00     
H    5.04345778e-01      2.05430848e+00      -2.37353659e+00     
H    1.29635399e+00      2.96329495e+00      -1.41914923e+00     
O    1.05503122e+00      -6.65111306e-01     2.37734956e+00      
H    1.15899138e+00      -1.61497149e+00     2.53835570e+00      
H    1.23341952e+00      -2.14541357e-01     3.20358057e+00      
O    -2.70620978e+00     -4.37311552e-01     -4.66762277e-01     
H    -2.90345086e+00     -2.29290881e-01     -1.38529767e+00     
H    -3.52570928e+00     -3.00929475e-01     1.68662123e-02      
O    -4.13155338e-01     -2.03794035e+00     -5.43398401e+00     
H    -6.46195795e-01     -1.20375434e+00     -5.84925756e+00     
H    -7.20913357e-02     -2.59495142e+00     -6.14122684e+00     
O    1.17414432e+00      -3.42964070e+00     2.24556000e+00      
H    5.51381994e-01      -4.01031334e+00     2.68805780e+00      
H    2.00131488e+00      -3.91574177e+00     2.22546041e+00      
26
59.455785
N    7.84718116e-03      -4.55018865e-02     -5.46239912e-02     
H    -1.03170743e+00     -5.58915682e-02     -8.48469410e-02     
H    3.41178079e-01      8.42562278e-01      -4.85320705e-01     
H    3.46993884e-01      -1.39463748e-01     9.27358991e-01      
C    5.26458518e-01      -1.19267963e+00     -8.21303707e-01     
H    1.61344353e+00      -1.17419500e+00     -8.01161759e-01     
H    1.79123254e-01      -2.11587869e+00     -3.64692518e-01     
C    3.64026035e-02      -1.09504009e+00     -2.25061724e+00     
O    -6.30180353e-01     -1.69590697e-01     -2.67810839e+00     
O    4.46533098e-01      -2.14747214e+00     -2.93654520e+00     
H    1.13044524e-01      -2.07127579e+00     -3.87943047e+00     
O    9.89312104e-01      2.06182191e+00      -1.55214516e+00     
H    4.97062732e-01      2.04645640e+00      -2.37928734e+00     
H    1.28463165e+00      2.96932745e+00      -1.43319062e+00     
O    1.05001330e+00      -6.66033775e-01     2.38038650e+00      
H    1.15590250e+00      -1.61587101e+00     2.54019097e+00      
H    1.23324645e+00      -2.15659380e-01     3.20573350e+00      
O    -2.70204380e+00     -4.40322544e-01     -4.58344845e-01     
H    -2.90892030e+00     -2.30400881e-01     -1.37468488e+00     
H    -3.51798376e+00     -3.08738596e-01     3.33058187e-02      
O    -4.06568685e-01     -2.03429731e+00     -5.43818231e+00     
H    -6.25161378e-01     -1.19739305e+00     -5.85777057e+00     
H    -6.68510544e-02     -2.59767622e+00     -6.14128973e+00     
O    1.17415385e+00      -3.43036961e+00     2.24503019e+00      
H    5.51664627e-01      -4.01210731e+00     2.68652837e+00      
H    2.00186288e+00      -3.91557365e+00     2.22519232e+00      
