26
51.594527
N    -1.92752245e-02     -4.67586944e-02     -4.66940645e-02     
H    -1.05883216e+00     -6.57685053e-02     -8.42333899e-02     
H    3.14806792e-01      8.46481981e-01      -4.63368811e-01     
H    3.19649896e-01      -1.47726363e-01     9.34671097e-01      
C    5.19343354e-01      -1.17636845e+00     -8.25334972e-01     
H    1.60553659e+00      -1.13983427e+00     -8.01495820e-01     
H    1.85696100e-01      -2.11038964e+00     -3.80582115e-01     
C    2.83288811e-02      -1.07273467e+00     -2.25404262e+00     
O    -6.74534799e-01     -1.68896283e-01     -2.66690606e+00     
O    4.80619139e-01      -2.09689785e+00     -2.95478327e+00     
H    1.30851758e-01      -2.03734725e+00     -3.89231476e+00     
O    1.04372898e+00      2.04327792e+00      -1.51256019e+00     
H    5.64988073e-01      2.08776061e+00      -2.34561620e+00     
H    1.39042243e+00      2.92623888e+00      -1.35780439e+00     
O    1.07274115e+00      -6.59374877e-01     2.36721983e+00      
H    1.16981489e+00      -1.60955765e+00     2.53110006e+00      
H    1.23721467e+00      -2.09069425e-01     3.19643865e+00      
O    -2.72180112e+00     -4.61147001e-01     -4.77029043e-01     
H    -2.89884980e+00     -2.53111084e-01     -1.39943439e+00     
H    -3.55136326e+00     -3.25558710e-01     -1.12593282e-02     
O    -4.20079258e-01     -2.07965666e+00     -5.44103793e+00     
H    -6.58459930e-01     -1.27202682e+00     -5.90724039e+00     
H    -8.25070609e-02     -2.68071036e+00     -6.11692897e+00     
O    1.17262531e+00      -3.42424114e+00     2.24584414e+00      
H    5.49543726e-01      -4.00150754e+00     2.69229778e+00      
H    1.99758604e+00      -3.91391588e+00     2.22232833e+00      
26
51.594527
N    -1.73869971e-02     -4.87474080e-02     -4.77723188e-02     
H    -1.05697350e+00     -6.73704620e-02     -8.62169547e-02     
H    3.15993983e-01      8.44359525e-01      -4.65480857e-01     
H    3.20721838e-01      -1.48387053e-01     9.34012180e-01      
C    5.22001211e-01      -1.17934648e+00     -8.24372499e-01     
H    1.60816164e+00      -1.14259204e+00     -7.99956068e-01     
H    1.88439670e-01      -2.11281647e+00     -3.78461647e-01     
C    3.18619588e-02      -1.07783827e+00     -2.25344065e+00     
O    -6.70342307e-01     -1.74258862e-01     -2.66814774e+00     
O    4.83720039e-01      -2.10305079e+00     -2.95282823e+00     
H    1.33706040e-01      -2.04263500e+00     -3.89031807e+00     
O    1.03431332e+00      2.04575019e+00      -1.51526520e+00     
H    5.55289784e-01      2.08528663e+00      -2.34828324e+00     
H    1.37569707e+00      2.93097852e+00      -1.36260956e+00     
O    1.07207711e+00      -6.60117133e-01     2.36747456e+00      
H    1.16942567e+00      -1.61023647e+00     2.53153752e+00      
H    1.23639568e+00      -2.09598890e-01     3.19660944e+00      
O    -2.72102777e+00     -4.52929895e-01     -4.80775425e-01     
H    -2.89589798e+00     -2.46323533e-01     -1.40385980e+00     
H    -3.55074390e+00     -3.13544560e-01     -1.65576479e-02     
O    -4.23288267e-01     -2.07195987e+00     -5.43612573e+00     
H    -6.71169709e-01     -1.25972966e+00     -5.88635993e+00     
H    -8.38333406e-02     -2.65722702e+00     -6.12295627e+00     
O    1.17299791e+00      -3.42504434e+00     2.24617047e+00      
H    5.49791318e-01      -4.00236351e+00     2.69238485e+00      
H    1.99810725e+00      -3.91449844e+00     2.22331243e+00      
26
51.594527
N    -1.64428834e-02     -4.97417648e-02     -4.83114459e-02     
H    -1.05604417e+00     -6.81714404e-02     -8.72087372e-02     
H    3.16587579e-01      8.43298296e-01      -4.66536880e-01     
H    3.21257809e-01      -1.48717398e-01     9.33682721e-01      
C    5.23330139e-01      -1.18083549e+00     -8.23891263e-01     
H    1.60947416e+00      -1.14397092e+00     -7.99186192e-01     
H    1.89811456e-01      -2.11402989e+00     -3.77401414e-01     
C    3.36284977e-02      -1.08039006e+00     -2.25313967e+00     
O    -6.68246061e-01     -1.76940152e-01     -2.66876858e+00     
O    4.85270489e-01      -2.10612725e+00     -2.95185071e+00     
H    1.35133181e-01      -2.04527888e+00     -3.88931972e+00     
O    1.02960549e+00      2.04698632e+00      -1.51661770e+00     
H    5.50440639e-01      2.08404964e+00      -2.34961675e+00     
H    1.36833439e+00      2.93334834e+00      -1.36501214e+00     
O    1.07174509e+00      -6.60488261e-01     2.36760192e+00      
H    1.16923106e+00      -1.61057588e+00     2.53175625e+00      
H    1.23598618e+00      -2.09863623e-01     3.19669483e+00      
O    -2.72064110e+00     -4.48821342e-01     -4.82648616e-01     
H    -2.89442207e+00     -2.42929758e-01     -1.40607251e+00     
H    -3.55043422e+00     -3.07537485e-01     -1.92068077e-02     
O    -4.24892772e-01     -2.06811147e+00     -5.43366963e+00     
H    -6.77524598e-01     -1.25358108e+00     -5.87591969e+00     
H    -8.44964805e-02     -2.64548535e+00     -6.12596992e+00     
O    1.17318422e+00      -3.42544594e+00     2.24633364e+00      
H    5.49915114e-01      -4.00279150e+00     2.69242839e+00      
H    1.99836786e+00      -3.91478973e+00     2.22380447e+00      
26
51.594527
N    -1.54987697e-02     -5.07361216e-02     -4.88505730e-02     
H    -1.05511484e+00     -6.89724187e-02     -8.82005196e-02     
H    3.17181174e-01      8.42237068e-01      -4.67592903e-01     
H    3.21793780e-01      -1.49047743e-01     9.33353263e-01      
C    5.24659067e-01      -1.18232450e+00     -8.23410026e-01     
H    1.61078669e+00      -1.14534980e+00     -7.98416316e-01     
H    1.91183241e-01      -2.11524330e+00     -3.76341180e-01     
C    3.53950365e-02      -1.08294186e+00     -2.25283869e+00     
O    -6.66149814e-01     -1.79621442e-01     -2.66938942e+00     
O    4.86820938e-01      -2.10920372e+00     -2.95087320e+00     
H    1.36560323e-01      -2.04792275e+00     -3.88832138e+00     
O    1.02489767e+00      2.04822246e+00      -1.51797021e+00     
H    5.45591495e-01      2.08281265e+00      -2.35095027e+00     
H    1.36097171e+00      2.93571816e+00      -1.36741473e+00     
O    1.07141307e+00      -6.60859389e-01     2.36772928e+00      
H    1.16903645e+00      -1.61091529e+00     2.53197498e+00      
H    1.23557669e+00      -2.10128356e-01     3.19678022e+00      
O    -2.72025442e+00     -4.44712789e-01     -4.84521808e-01     
H    -2.89294617e+00     -2.39535983e-01     -1.40828522e+00     
H    -3.55012454e+00     -3.01530410e-01     -2.18559675e-02     
O    -4.26497277e-01     -2.06426308e+00     -5.43121353e+00     
H    -6.83879487e-01     -1.24743250e+00     -5.86547946e+00     
H    -8.51596203e-02     -2.63374368e+00     -6.12898358e+00     
O    1.17337052e+00      -3.42584754e+00     2.24649680e+00      
H    5.50038911e-01      -4.00321948e+00     2.69247192e+00      
H    1.99862847e+00      -3.91508101e+00     2.22429652e+00      
26
51.594527
N    -1.45546559e-02     -5.17304784e-02     -4.93897001e-02     
H    -1.05418551e+00     -6.97733971e-02     -8.91923021e-02     
H    3.17774770e-01      8.41175840e-01      -4.68648927e-01     
H    3.22329750e-01      -1.49378088e-01     9.33023804e-01      
C    5.25987995e-01      -1.18381352e+00     -8.22928790e-01     
H    1.61209921e+00      -1.14672868e+00     -7.97646440e-01     
H    1.92555027e-01      -2.11645672e+00     -3.75280947e-01     
C    3.71615754e-02      -1.08549366e+00     -2.25253771e+00     
O    -6.64053568e-01     -1.82302731e-01     -2.67001026e+00     
O    4.88371388e-01      -2.11228018e+00     -2.94989568e+00     
H    1.37987464e-01      -2.05056663e+00     -3.88732303e+00     
O    1.02018984e+00      2.04945859e+00      -1.51932271e+00     
H    5.40742350e-01      2.08157567e+00      -2.35228379e+00     
H    1.35360903e+00      2.93808797e+00      -1.36981731e+00     
O    1.07108104e+00      -6.61230517e-01     2.36785664e+00      
H    1.16884185e+00      -1.61125470e+00     2.53219371e+00      
H    1.23516719e+00      -2.10393088e-01     3.19686561e+00      
O    -2.71986775e+00     -4.40604236e-01     -4.86394999e-01     
H    -2.89147026e+00     -2.36142208e-01     -1.41049793e+00     
H    -3.54981486e+00     -2.95523335e-01     -2.45051273e-02     
O    -4.28101782e-01     -2.06041468e+00     -5.42875742e+00     
H    -6.90234376e-01     -1.24128393e+00     -5.85503923e+00     
H    -8.58227602e-02     -2.62200201e+00     -6.13199723e+00     
O    1.17355683e+00      -3.42624915e+00     2.24665997e+00      
H    5.50162707e-01      -4.00364747e+00     2.69251546e+00      
H    1.99888907e+00      -3.91537229e+00     2.22478856e+00      
26
51.594527
N    -1.36105422e-02     -5.27248353e-02     -4.99288272e-02     
H    -1.05325618e+00     -7.05743755e-02     -9.01840845e-02     
H    3.18368365e-01      8.40114612e-01      -4.69704950e-01     
H    3.22865721e-01      -1.49708434e-01     9.32694345e-01      
C    5.27316924e-01      -1.18530253e+00     -8.22447553e-01     
H    1.61341173e+00      -1.14810757e+00     -7.96876563e-01     
H    1.93926812e-01      -2.11767013e+00     -3.74220713e-01     
C    3.89281143e-02      -1.08804546e+00     -2.25223672e+00     
O    -6.61957322e-01     -1.84984021e-01     -2.67063110e+00     
O    4.89921838e-01      -2.11535665e+00     -2.94891816e+00     
H    1.39414605e-01      -2.05321050e+00     -3.88632469e+00     
O    1.01548201e+00      2.05069473e+00      -1.52067522e+00     
H    5.35893206e-01      2.08033868e+00      -2.35361731e+00     
H    1.34624635e+00      2.94045779e+00      -1.37221989e+00     
O    1.07074902e+00      -6.61601645e-01     2.36798401e+00      
H    1.16864724e+00      -1.61159411e+00     2.53241244e+00      
H    1.23475770e+00      -2.10657821e-01     3.19695100e+00      
O    -2.71948107e+00     -4.36495684e-01     -4.88268190e-01     
H    -2.88999435e+00     -2.32748432e-01     -1.41271063e+00     
H    -3.54950518e+00     -2.89516260e-01     -2.71542872e-02     
O    -4.29706286e-01     -2.05656628e+00     -5.42630132e+00     
H    -6.96589266e-01     -1.23513535e+00     -5.84459900e+00     
H    -8.64859000e-02     -2.61026034e+00     -6.13501088e+00     
O    1.17374313e+00      -3.42665075e+00     2.24682313e+00      
H    5.50286503e-01      -4.00407545e+00     2.69255900e+00      
H    1.99914968e+00      -3.91566357e+00     2.22528061e+00      
26
51.594527
N    -1.31384854e-02     -5.32220137e-02     -5.01983907e-02     
H    -1.05279152e+00     -7.09748647e-02     -9.06799757e-02     
H    3.18665163e-01      8.39583997e-01      -4.70232961e-01     
H    3.23133707e-01      -1.49873606e-01     9.32529616e-01      
C    5.27981388e-01      -1.18604704e+00     -8.22206935e-01     
H    1.61406800e+00      -1.14879701e+00     -7.96491625e-01     
H    1.94612705e-01      -2.11827684e+00     -3.73690596e-01     
C    3.98113837e-02      -1.08932135e+00     -2.25208623e+00     
O    -6.60909199e-01     -1.86324666e-01     -2.67094152e+00     
O    4.90697063e-01      -2.11689488e+00     -2.94842941e+00     
H    1.40128176e-01      -2.05453244e+00     -3.88582552e+00     
O    1.01312809e+00      2.05131280e+00      -1.52135147e+00     
H    5.33468634e-01      2.07972018e+00      -2.35428406e+00     
H    1.34256501e+00      2.94164270e+00      -1.37342119e+00     
O    1.07058301e+00      -6.61787209e-01     2.36804769e+00      
H    1.16854993e+00      -1.61176382e+00     2.53252181e+00      
H    1.23455295e+00      -2.10790187e-01     3.19699369e+00      
O    -2.71928773e+00     -4.34441407e-01     -4.89204785e-01     
H    -2.88925639e+00     -2.31051545e-01     -1.41381699e+00     
H    -3.54935034e+00     -2.86512723e-01     -2.84788671e-02     
O    -4.30508539e-01     -2.05464209e+00     -5.42507327e+00     
H    -6.99766710e-01     -1.23206106e+00     -5.83937889e+00     
H    -8.68174699e-02     -2.60438950e+00     -6.13651770e+00     
O    1.17383628e+00      -3.42685155e+00     2.24690471e+00      
H    5.50348402e-01      -4.00428944e+00     2.69258076e+00      
H    1.99927998e+00      -3.91580922e+00     2.22552663e+00      
26
51.594527
N    -1.26664285e-02     -5.37191921e-02     -5.04679543e-02     
H    -1.05232685e+00     -7.13753538e-02     -9.11758670e-02     
H    3.18961961e-01      8.39053383e-01      -4.70760973e-01     
H    3.23401692e-01      -1.50038779e-01     9.32364887e-01      
C    5.28645852e-01      -1.18679155e+00     -8.21966317e-01     
H    1.61472426e+00      -1.14948645e+00     -7.96106687e-01     
H    1.95298598e-01      -2.11888355e+00     -3.73160480e-01     
C    4.06946531e-02      -1.09059725e+00     -2.25193574e+00     
O    -6.59861076e-01     -1.87665310e-01     -2.67125194e+00     
O    4.91472288e-01      -2.11843311e+00     -2.94794065e+00     
H    1.40841747e-01      -2.05585438e+00     -3.88532634e+00     
O    1.01077418e+00      2.05193086e+00      -1.52202772e+00     
H    5.31044061e-01      2.07910169e+00      -2.35495082e+00     
H    1.33888367e+00      2.94282761e+00      -1.37462248e+00     
O    1.07041700e+00      -6.61972773e-01     2.36811137e+00      
H    1.16845263e+00      -1.61193352e+00     2.53263117e+00      
H    1.23434820e+00      -2.10922553e-01     3.19703639e+00      
O    -2.71909440e+00     -4.32387131e-01     -4.90141381e-01     
H    -2.88851844e+00     -2.29354657e-01     -1.41492334e+00     
H    -3.54919550e+00     -2.83509185e-01     -2.98034470e-02     
O    -4.31310791e-01     -2.05271789e+00     -5.42384522e+00     
H    -7.02944155e-01     -1.22898677e+00     -5.83415877e+00     
H    -8.71490399e-02     -2.59851867e+00     -6.13802453e+00     
O    1.17392944e+00      -3.42705235e+00     2.24698630e+00      
H    5.50410300e-01      -4.00450344e+00     2.69260253e+00      
H    1.99941028e+00      -3.91595486e+00     2.22577265e+00      
26
51.594527
N    -1.07782011e-02     -5.57079057e-02     -5.15462085e-02     
H    -1.05046819e+00     -7.29773106e-02     -9.31594318e-02     
H    3.20149151e-01      8.36930927e-01      -4.72873019e-01     
H    3.24473634e-01      -1.50699469e-01     9.31705969e-01      
C    5.31303708e-01      -1.18976957e+00     -8.21003843e-01     
H    1.61734930e+00      -1.15224421e+00     -7.94566935e-01     
H    1.98042168e-01      -2.12131037e+00     -3.71040012e-01     
C    4.42277309e-02      -1.09570085e+00     -2.25133378e+00     
O    -6.55668584e-01     -1.93027890e-01     -2.67249362e+00     
O    4.94573188e-01      -2.12458605e+00     -2.94598561e+00     
H    1.43696029e-01      -2.06114212e+00     -3.88332966e+00     
O    1.00135852e+00      2.05440314e+00      -1.52473274e+00     
H    5.21345773e-01      2.07662771e+00      -2.35761786e+00     
H    1.32415831e+00      2.94756725e+00      -1.37942764e+00     
O    1.06975296e+00      -6.62715029e-01     2.36836609e+00      
H    1.16806341e+00      -1.61261234e+00     2.53306863e+00      
H    1.23352922e+00      -2.11452019e-01     3.19720717e+00      
O    -2.71832104e+00     -4.24170025e-01     -4.93887763e-01     
H    -2.88556662e+00     -2.22567107e-01     -1.41934876e+00     
H    -3.54857614e+00     -2.71495035e-01     -3.51017666e-02     
O    -4.34519801e-01     -2.04502109e+00     -5.41893302e+00     
H    -7.15653933e-01     -1.21668961e+00     -5.81327831e+00     
H    -8.84753195e-02     -2.57503533e+00     -6.14405183e+00     
O    1.17430204e+00      -3.42785555e+00     2.24731262e+00      
H    5.50657892e-01      -4.00535940e+00     2.69268961e+00      
H    1.99993150e+00      -3.91653742e+00     2.22675675e+00      
26
51.594527
N    -1.03061442e-02     -5.62050841e-02     -5.18157721e-02     
H    -1.05000352e+00     -7.33777997e-02     -9.36553231e-02     
H    3.20445949e-01      8.36400313e-01      -4.73401031e-01     
H    3.24741619e-01      -1.50864642e-01     9.31541240e-01      
C    5.31968172e-01      -1.19051408e+00     -8.20763225e-01     
H    1.61800556e+00      -1.15293365e+00     -7.94181997e-01     
H    1.98728061e-01      -2.12191708e+00     -3.70509896e-01     
C    4.51110003e-02      -1.09697675e+00     -2.25118329e+00     
O    -6.54620461e-01     -1.94368534e-01     -2.67280404e+00     
O    4.95348413e-01      -2.12612428e+00     -2.94549685e+00     
H    1.44409600e-01      -2.06246406e+00     -3.88283048e+00     
O    9.99004607e-01      2.05502120e+00      -1.52540899e+00     
H    5.18921200e-01      2.07600922e+00      -2.35828462e+00     
H    1.32047697e+00      2.94875216e+00      -1.38062893e+00     
O    1.06958695e+00      -6.62900593e-01     2.36842977e+00      
H    1.16796611e+00      -1.61278204e+00     2.53317799e+00      
H    1.23332447e+00      -2.11584385e-01     3.19724987e+00      
O    -2.71812771e+00     -4.22115749e-01     -4.94824359e-01     
H    -2.88482867e+00     -2.20870219e-01     -1.42045511e+00     
H    -3.54842130e+00     -2.68491497e-01     -3.64263465e-02     
O    -4.35322053e-01     -2.04309689e+00     -5.41770497e+00     
H    -7.18831378e-01     -1.21361532e+00     -5.80805819e+00     
H    -8.88068895e-02     -2.56916450e+00     -6.14555866e+00     
O    1.17439520e+00      -3.42805635e+00     2.24739421e+00      
H    5.50719790e-01      -4.00557340e+00     2.69271138e+00      
H    2.00006180e+00      -3.91668306e+00     2.22700277e+00      
26
51.594527
N    -9.83408737e-03     -5.67022625e-02     -5.20853356e-02     
H    -1.04953886e+00     -7.37782889e-02     -9.41512143e-02     
H    3.20742747e-01      8.35869698e-01      -4.73929042e-01     
H    3.25009605e-01      -1.51029814e-01     9.31376511e-01      
C    5.32632636e-01      -1.19125859e+00     -8.20522607e-01     
H    1.61866183e+00      -1.15362309e+00     -7.93797059e-01     
H    1.99413954e-01      -2.12252379e+00     -3.69979779e-01     
C    4.59942697e-02      -1.09825264e+00     -2.25103280e+00     
O    -6.53572338e-01     -1.95709179e-01     -2.67311446e+00     
O    4.96123638e-01      -2.12766251e+00     -2.94500810e+00     
H    1.45123171e-01      -2.06378600e+00     -3.88233131e+00     
O    9.96650692e-01      2.05563927e+00      -1.52608524e+00     
H    5.16496628e-01      2.07539072e+00      -2.35895137e+00     
H    1.31679563e+00      2.94993707e+00      -1.38183023e+00     
O    1.06942094e+00      -6.63086157e-01     2.36849345e+00      
H    1.16786880e+00      -1.61295175e+00     2.53328736e+00      
H    1.23311972e+00      -2.11716751e-01     3.19729256e+00      
O    -2.71793437e+00     -4.20061472e-01     -4.95760954e-01     
H    -2.88409071e+00     -2.19173332e-01     -1.42156147e+00     
H    -3.54826646e+00     -2.65487960e-01     -3.77509264e-02     
O    -4.36124306e-01     -2.04117270e+00     -5.41647692e+00     
H    -7.22008822e-01     -1.21054103e+00     -5.80283808e+00     
H    -8.91384594e-02     -2.56329366e+00     -6.14706548e+00     
O    1.17448835e+00      -3.42825715e+00     2.24747579e+00      
H    5.50781689e-01      -4.00578739e+00     2.69273314e+00      
H    2.00019210e+00      -3.91682871e+00     2.22724879e+00      
26
51.594527
N    -8.88997366e-03     -5.76966194e-02     -5.26244627e-02     
H    -1.04860953e+00     -7.45792673e-02     -9.51429967e-02     
H    3.21336342e-01      8.34808470e-01      -4.74985065e-01     
H    3.25545576e-01      -1.51360160e-01     9.31047052e-01      
C    5.33961565e-01      -1.19274760e+00     -8.20041370e-01     
H    1.61997435e+00      -1.15500198e+00     -7.93027182e-01     
H    2.00785739e-01      -2.12373720e+00     -3.68919545e-01     
C    4.77608086e-02      -1.10080444e+00     -2.25073181e+00     
O    -6.51476092e-01     -1.98390469e-01     -2.67373530e+00     
O    4.97674088e-01      -2.13073898e+00     -2.94403058e+00     
H    1.46550312e-01      -2.06642987e+00     -3.88133297e+00     
O    9.91942864e-01      2.05687541e+00      -1.52743775e+00     
H    5.11647484e-01      2.07415373e+00      -2.36028489e+00     
H    1.30943295e+00      2.95230689e+00      -1.38423281e+00     
O    1.06908892e+00      -6.63457285e-01     2.36862082e+00      
H    1.16767419e+00      -1.61329116e+00     2.53350609e+00      
H    1.23271023e+00      -2.11981484e-01     3.19737795e+00      
O    -2.71754769e+00     -4.15952920e-01     -4.97634145e-01     
H    -2.88261480e+00     -2.15779556e-01     -1.42377417e+00     
H    -3.54795678e+00     -2.59480885e-01     -4.04000863e-02     
O    -4.37728810e-01     -2.03732430e+00     -5.41402082e+00     
H    -7.28363712e-01     -1.20439245e+00     -5.79239785e+00     
H    -8.98015992e-02     -2.55155199e+00     -6.15007913e+00     
O    1.17467465e+00      -3.42865875e+00     2.24763895e+00      
H    5.50905485e-01      -4.00621537e+00     2.69277668e+00      
H    2.00045271e+00      -3.91711999e+00     2.22774084e+00      
26
51.594527
N    -7.94585994e-03     -5.86909762e-02     -5.31635898e-02     
H    -1.04768020e+00     -7.53802457e-02     -9.61347792e-02     
H    3.21929938e-01      8.33747242e-01      -4.76041089e-01     
H    3.26081546e-01      -1.51690505e-01     9.30717593e-01      
C    5.35290493e-01      -1.19423662e+00     -8.19560134e-01     
H    1.62128687e+00      -1.15638086e+00     -7.92257306e-01     
H    2.02157525e-01      -2.12495062e+00     -3.67859312e-01     
C    4.95273475e-02      -1.10335624e+00     -2.25043083e+00     
O    -6.49379846e-01     -2.01071758e-01     -2.67435614e+00     
O    4.99224538e-01      -2.13381544e+00     -2.94305306e+00     
H    1.47977453e-01      -2.06907375e+00     -3.88033462e+00     
O    9.87235035e-01      2.05811154e+00      -1.52879025e+00     
H    5.06798339e-01      2.07291675e+00      -2.36161841e+00     
H    1.30207027e+00      2.95467670e+00      -1.38663539e+00     
O    1.06875689e+00      -6.63828413e-01     2.36874818e+00      
H    1.16747959e+00      -1.61363057e+00     2.53372482e+00      
H    1.23230073e+00      -2.12246216e-01     3.19746334e+00      
O    -2.71716102e+00     -4.11844367e-01     -4.99507336e-01     
H    -2.88113889e+00     -2.12385781e-01     -1.42598688e+00     
H    -3.54764710e+00     -2.53473810e-01     -4.30492461e-02     
O    -4.39333315e-01     -2.03347590e+00     -5.41156471e+00     
H    -7.34718601e-01     -1.19824388e+00     -5.78195762e+00     
H    -9.04647391e-02     -2.53981032e+00     -6.15309278e+00     
O    1.17486096e+00      -3.42906036e+00     2.24780212e+00      
H    5.51029281e-01      -4.00664336e+00     2.69282022e+00      
H    2.00071331e+00      -3.91741127e+00     2.22823288e+00      
26
51.594527
N    -7.00174623e-03     -5.96853330e-02     -5.37027169e-02     
H    -1.04675087e+00     -7.61812240e-02     -9.71265616e-02     
H    3.22523533e-01      8.32686014e-01      -4.77097112e-01     
H    3.26617517e-01      -1.52020850e-01     9.30388135e-01      
C    5.36619421e-01      -1.19572563e+00     -8.19078897e-01     
H    1.62259940e+00      -1.15775974e+00     -7.91487430e-01     
H    2.03529310e-01      -2.12616403e+00     -3.66799078e-01     
C    5.12938863e-02      -1.10590804e+00     -2.25012985e+00     
O    -6.47283599e-01     -2.03753048e-01     -2.67497698e+00     
O    5.00774987e-01      -2.13689191e+00     -2.94207555e+00     
H    1.49404595e-01      -2.07171762e+00     -3.87933628e+00     
O    9.82527206e-01      2.05934768e+00      -1.53014276e+00     
H    5.01949195e-01      2.07167976e+00      -2.36295193e+00     
H    1.29470759e+00      2.95704652e+00      -1.38903798e+00     
O    1.06842487e+00      -6.64199541e-01     2.36887554e+00      
H    1.16728498e+00      -1.61396998e+00     2.53394355e+00      
H    1.23189124e+00      -2.12510949e-01     3.19754873e+00      
O    -2.71677434e+00     -4.07735814e-01     -5.01380528e-01     
H    -2.87966299e+00     -2.08992006e-01     -1.42819959e+00     
H    -3.54733742e+00     -2.47466735e-01     -4.56984059e-02     
O    -4.40937820e-01     -2.02962751e+00     -5.40910861e+00     
H    -7.41073490e-01     -1.19209530e+00     -5.77151739e+00     
H    -9.11278789e-02     -2.52806865e+00     -6.15610644e+00     
O    1.17504726e+00      -3.42946196e+00     2.24796528e+00      
H    5.51153078e-01      -4.00707134e+00     2.69286375e+00      
H    2.00097392e+00      -3.91770255e+00     2.22872493e+00      
26
51.594527
N    -6.05763252e-03     -6.06796898e-02     -5.42418440e-02     
H    -1.04582154e+00     -7.69822024e-02     -9.81183441e-02     
H    3.23117129e-01      8.31624785e-01      -4.78153135e-01     
H    3.27153488e-01      -1.52351195e-01     9.30058676e-01      
C    5.37948349e-01      -1.19721464e+00     -8.18597661e-01     
H    1.62391192e+00      -1.15913862e+00     -7.90717554e-01     
H    2.04901096e-01      -2.12737745e+00     -3.65738845e-01     
C    5.30604252e-02      -1.10845983e+00     -2.24982887e+00     
O    -6.45187353e-01     -2.06434338e-01     -2.67559782e+00     
O    5.02325437e-01      -2.13996837e+00     -2.94109803e+00     
H    1.50831736e-01      -2.07436150e+00     -3.87833793e+00     
O    9.77819377e-01      2.06058381e+00      -1.53149526e+00     
H    4.97100050e-01      2.07044277e+00      -2.36428544e+00     
H    1.28734491e+00      2.95941634e+00      -1.39144056e+00     
O    1.06809285e+00      -6.64570669e-01     2.36900290e+00      
H    1.16709037e+00      -1.61430939e+00     2.53416228e+00      
H    1.23148174e+00      -2.12775682e-01     3.19763412e+00      
O    -2.71638767e+00     -4.03627261e-01     -5.03253719e-01     
H    -2.87818708e+00     -2.05598231e-01     -1.43041230e+00     
H    -3.54702774e+00     -2.41459660e-01     -4.83475657e-02     
O    -4.42542325e-01     -2.02577911e+00     -5.40665251e+00     
H    -7.47428379e-01     -1.18594672e+00     -5.76107715e+00     
H    -9.17910188e-02     -2.51632698e+00     -6.15912009e+00     
O    1.17523357e+00      -3.42986356e+00     2.24812845e+00      
H    5.51276874e-01      -4.00749933e+00     2.69290729e+00      
H    2.00123453e+00      -3.91799384e+00     2.22921697e+00      
26
51.594527
N    -4.16940509e-03     -6.26684034e-02     -5.53200983e-02     
H    -1.04396288e+00     -7.85841591e-02     -1.00101909e-01     
H    3.24304320e-01      8.29502329e-01      -4.80265181e-01     
H    3.28225430e-01      -1.53011885e-01     9.29399759e-01      
C    5.40606206e-01      -1.20019267e+00     -8.17635188e-01     
H    1.62653697e+00      -1.16189639e+00     -7.89177802e-01     
H    2.07644666e-01      -2.12980428e+00     -3.63618377e-01     
C    5.65935029e-02      -1.11356343e+00     -2.24922690e+00     
O    -6.40994861e-01     -2.11796917e-01     -2.67683950e+00     
O    5.05426337e-01      -2.14612131e+00     -2.93914299e+00     
H    1.53686018e-01      -2.07964925e+00     -3.87634124e+00     
O    9.68403720e-01      2.06305608e+00      -1.53420027e+00     
H    4.87401761e-01      2.06796879e+00      -2.36695248e+00     
H    1.27261955e+00      2.96415598e+00      -1.39624573e+00     
O    1.06742881e+00      -6.65312925e-01     2.36925763e+00      
H    1.16670115e+00      -1.61498821e+00     2.53459974e+00      
H    1.23066275e+00      -2.13305147e-01     3.19780491e+00      
O    -2.71561432e+00     -3.95410155e-01     -5.07000101e-01     
H    -2.87523526e+00     -1.98810680e-01     -1.43483771e+00     
H    -3.54640838e+00     -2.29445510e-01     -5.36458854e-02     
O    -4.45751334e-01     -2.01808232e+00     -5.40174031e+00     
H    -7.60138158e-01     -1.17364956e+00     -5.74019669e+00     
H    -9.31172985e-02     -2.49284364e+00     -6.16514739e+00     
O    1.17560617e+00      -3.43066676e+00     2.24845478e+00      
H    5.51524466e-01      -4.00835530e+00     2.69299436e+00      
H    2.00175574e+00      -3.91857640e+00     2.23020107e+00      
