26
132.762500
N    -6.61649680e-03     -5.20458133e-02     -5.20545203e-02     
H    -1.04662016e+00     -4.24451265e-02     -8.58975469e-02     
H    3.45665438e-01      8.27097991e-01      -4.85953097e-01     
H    3.31943792e-01      -1.45752471e-01     9.30076542e-01      
C    4.86644404e-01      -1.21785465e+00     -8.08996592e-01     
H    1.57424122e+00      -1.25179763e+00     -7.51529183e-01     
H    7.88716812e-02      -2.12852366e+00     -3.70676160e-01     
C    4.12918383e-02      -1.09388052e+00     -2.25160001e+00     
O    -6.51222576e-01     -1.85953484e-01     -2.67356811e+00     
O    5.14083222e-01      -2.10778408e+00     -2.95404613e+00     
H    1.66215790e-01      -2.04307855e+00     -3.89232571e+00     
O    1.00357035e+00      2.06771389e+00      -1.53165977e+00     
H    5.24488765e-01      2.10142862e+00      -2.36451280e+00     
H    1.34133694e+00      2.95456968e+00      -1.38235379e+00     
O    1.06690469e+00      -6.62092520e-01     2.37092961e+00      
H    1.16998212e+00      -1.61169117e+00     2.53406957e+00      
H    1.25790631e+00      -2.08988350e-01     3.19330223e+00      
O    -2.70236509e+00     -4.33796303e-01     -4.88141893e-01     
H    -2.86274061e+00     -2.32453160e-01     -1.41511754e+00     
H    -3.53462771e+00     -2.74694040e-01     -3.46980994e-02     
O    -4.38412393e-01     -2.05315122e+00     -5.41821490e+00     
H    -7.35114361e-01     -1.23471972e+00     -5.82221919e+00     
H    -1.01160920e-01     -2.59281812e+00     -6.14031581e+00     
O    1.17346074e+00      -3.42671225e+00     2.24573481e+00      
H    5.65222145e-01      -4.00329571e+00     2.71391697e+00      
H    1.99772818e+00      -3.91639140e+00     2.19581516e+00      
26
132.762500
N    -7.89295130e-03     -5.27127472e-02     -5.17926606e-02     
H    -1.04781450e+00     -4.98779279e-02     -8.74650726e-02     
H    3.39137968e-01      8.29821532e-01      -4.82419072e-01     
H    3.29942260e-01      -1.46906634e-01     9.30566264e-01      
C    4.97476998e-01      -1.21046113e+00     -8.12118714e-01     
H    1.58469011e+00      -1.22656456e+00     -7.62481090e-01     
H    1.08321357e-01      -2.12641698e+00     -3.71032182e-01     
C    4.15841767e-02      -1.09369765e+00     -2.25160870e+00     
O    -6.52858139e-01     -1.87051763e-01     -2.67314428e+00     
O    5.08818101e-01      -2.11121545e+00     -2.95227538e+00     
H    1.60229065e-01      -2.04693348e+00     -3.89032628e+00     
O    1.00419435e+00      2.06407717e+00      -1.52958988e+00     
H    5.24915303e-01      2.09553764e+00      -2.36245568e+00     
H    1.33888295e+00      2.95222662e+00      -1.38102161e+00     
O    1.06769976e+00      -6.62155365e-01     2.37025689e+00      
H    1.16955110e+00      -1.61183661e+00     2.53376465e+00      
H    1.25191441e+00      -2.09538084e-01     3.19425712e+00      
O    -2.70645075e+00     -4.32416872e-01     -4.89110063e-01     
H    -2.86881609e+00     -2.30830090e-01     -1.41562217e+00     
H    -3.53819224e+00     -2.75396058e-01     -3.41367263e-02     
O    -4.37038119e-01     -2.05208079e+00     -5.41900846e+00     
H    -7.28660532e-01     -1.23174934e+00     -5.82259403e+00     
H    -9.78237350e-02     -2.59130784e+00     -6.14049641e+00     
O    1.17362449e+00      -3.42689768e+00     2.24608847e+00      
H    5.61550133e-01      -4.00370464e+00     2.70859925e+00      
H    1.99821386e+00      -3.91635508e+00     2.20342755e+00      
26
132.762500
N    -8.53117855e-03     -5.30462142e-02     -5.16617307e-02     
H    -1.04841167e+00     -5.35943286e-02     -8.82488354e-02     
H    3.35874232e-01      8.31183303e-01      -4.80652059e-01     
H    3.28941494e-01      -1.47483716e-01     9.30811124e-01      
C    5.02893295e-01      -1.20676437e+00     -8.13679775e-01     
H    1.58991456e+00      -1.21394802e+00     -7.67957044e-01     
H    1.23046194e-01      -2.12536365e+00     -3.71210192e-01     
C    4.17303459e-02      -1.09360622e+00     -2.25161304e+00     
O    -6.53675921e-01     -1.87600902e-01     -2.67293236e+00     
O    5.06185540e-01      -2.11293114e+00     -2.95139001e+00     
H    1.57235702e-01      -2.04886094e+00     -3.88932657e+00     
O    1.00450635e+00      2.06225881e+00      -1.52855494e+00     
H    5.25128572e-01      2.09259215e+00      -2.36142713e+00     
H    1.33765596e+00      2.95105509e+00      -1.38035552e+00     
O    1.06809730e+00      -6.62186788e-01     2.36992053e+00      
H    1.16933558e+00      -1.61190933e+00     2.53361219e+00      
H    1.24891846e+00      -2.09812951e-01     3.19473456e+00      
O    -2.70849357e+00     -4.31727156e-01     -4.89594148e-01     
H    -2.87185383e+00     -2.30018555e-01     -1.41587448e+00     
H    -3.53997450e+00     -2.75747066e-01     -3.38560397e-02     
O    -4.36350982e-01     -2.05154557e+00     -5.41940523e+00     
H    -7.25433617e-01     -1.23026415e+00     -5.82278144e+00     
H    -9.61551425e-02     -2.59055270e+00     -6.14058670e+00     
O    1.17370637e+00      -3.42699039e+00     2.24626530e+00      
H    5.59714127e-01      -4.00390910e+00     2.70594038e+00      
H    1.99845670e+00      -3.91633692e+00     2.20723374e+00      
26
132.762500
N    -9.16940580e-03     -5.33796811e-02     -5.15308009e-02     
H    -1.04900884e+00     -5.73107293e-02     -8.90325982e-02     
H    3.32610497e-01      8.32545073e-01      -4.78885047e-01     
H    3.27940728e-01      -1.48060798e-01     9.31055985e-01      
C    5.08309592e-01      -1.20306761e+00     -8.15240836e-01     
H    1.59513900e+00      -1.20133148e+00     -7.73432997e-01     
H    1.37771032e-01      -2.12431031e+00     -3.71388203e-01     
C    4.18765151e-02      -1.09351478e+00     -2.25161738e+00     
O    -6.54493703e-01     -1.88150042e-01     -2.67272044e+00     
O    5.03552980e-01      -2.11464683e+00     -2.95050463e+00     
H    1.54242339e-01      -2.05078840e+00     -3.88832685e+00     
O    1.00481835e+00      2.06044045e+00      -1.52752000e+00     
H    5.25341841e-01      2.08964666e+00      -2.36039857e+00     
H    1.33642897e+00      2.94988356e+00      -1.37968943e+00     
O    1.06849483e+00      -6.62218211e-01     2.36958417e+00      
H    1.16912007e+00      -1.61198205e+00     2.53345974e+00      
H    1.24592251e+00      -2.10087818e-01     3.19521201e+00      
O    -2.71053640e+00     -4.31037440e-01     -4.90078233e-01     
H    -2.87489157e+00     -2.29207021e-01     -1.41612680e+00     
H    -3.54175677e+00     -2.76098075e-01     -3.35753531e-02     
O    -4.35663845e-01     -2.05101036e+00     -5.41980201e+00     
H    -7.22206702e-01     -1.22877896e+00     -5.82296886e+00     
H    -9.44865499e-02     -2.58979756e+00     -6.14067700e+00     
O    1.17378824e+00      -3.42708310e+00     2.24644213e+00      
H    5.57878121e-01      -4.00411356e+00     2.70328152e+00      
H    1.99869954e+00      -3.91631877e+00     2.21103993e+00      
26
132.762500
N    -9.80763305e-03     -5.37131481e-02     -5.13998710e-02     
H    -1.04960601e+00     -6.10271301e-02     -8.98163610e-02     
H    3.29346762e-01      8.33906844e-01      -4.77118034e-01     
H    3.26939961e-01      -1.48637879e-01     9.31300846e-01      
C    5.13725889e-01      -1.19937084e+00     -8.16801897e-01     
H    1.60036345e+00      -1.18871494e+00     -7.78908951e-01     
H    1.52495870e-01      -2.12325697e+00     -3.71566214e-01     
C    4.20226844e-02      -1.09342335e+00     -2.25162173e+00     
O    -6.55311485e-01     -1.88699181e-01     -2.67250853e+00     
O    5.00920419e-01      -2.11636252e+00     -2.94961926e+00     
H    1.51248976e-01      -2.05271586e+00     -3.88732714e+00     
O    1.00513035e+00      2.05862208e+00      -1.52648506e+00     
H    5.25555110e-01      2.08670117e+00      -2.35937001e+00     
H    1.33520197e+00      2.94871202e+00      -1.37902334e+00     
O    1.06889237e+00      -6.62249633e-01     2.36924781e+00      
H    1.16890456e+00      -1.61205477e+00     2.53330728e+00      
H    1.24292656e+00      -2.10362685e-01     3.19568945e+00      
O    -2.71257923e+00     -4.30347725e-01     -4.90562317e-01     
H    -2.87792931e+00     -2.28395486e-01     -1.41637911e+00     
H    -3.54353903e+00     -2.76449084e-01     -3.32946665e-02     
O    -4.34976708e-01     -2.05047514e+00     -5.42019879e+00     
H    -7.18979788e-01     -1.22729376e+00     -5.82315628e+00     
H    -9.28179574e-02     -2.58904242e+00     -6.14076729e+00     
O    1.17387012e+00      -3.42717581e+00     2.24661896e+00      
H    5.56042114e-01      -4.00431803e+00     2.70062266e+00      
H    1.99894238e+00      -3.91630061e+00     2.21484612e+00      
26
132.762500
N    -1.04458603e-02     -5.40466150e-02     -5.12689411e-02     
H    -1.05020318e+00     -6.47435308e-02     -9.06001238e-02     
H    3.26083027e-01      8.35268614e-01      -4.75351021e-01     
H    3.25939195e-01      -1.49214961e-01     9.31545707e-01      
C    5.19142186e-01      -1.19567408e+00     -8.18362958e-01     
H    1.60558789e+00      -1.17609841e+00     -7.84384904e-01     
H    1.67220708e-01      -2.12220363e+00     -3.71744225e-01     
C    4.21688536e-02      -1.09333192e+00     -2.25162607e+00     
O    -6.56129266e-01     -1.89248321e-01     -2.67229661e+00     
O    4.98287859e-01      -2.11807820e+00     -2.94873388e+00     
H    1.48255614e-01      -2.05464333e+00     -3.88632743e+00     
O    1.00544235e+00      2.05680372e+00      -1.52545011e+00     
H    5.25768379e-01      2.08375568e+00      -2.35834145e+00     
H    1.33397498e+00      2.94754049e+00      -1.37835724e+00     
O    1.06928991e+00      -6.62281056e-01     2.36891145e+00      
H    1.16868905e+00      -1.61212749e+00     2.53315482e+00      
H    1.23993061e+00      -2.10637552e-01     3.19616689e+00      
O    -2.71462206e+00     -4.29658009e-01     -4.91046402e-01     
H    -2.88096705e+00     -2.27583951e-01     -1.41663142e+00     
H    -3.54532129e+00     -2.76800093e-01     -3.30139800e-02     
O    -4.34289570e-01     -2.04993992e+00     -5.42059557e+00     
H    -7.15752873e-01     -1.22580857e+00     -5.82334370e+00     
H    -9.11493648e-02     -2.58828728e+00     -6.14085759e+00     
O    1.17395199e+00      -3.42726853e+00     2.24679580e+00      
H    5.54206108e-01      -4.00452249e+00     2.69796380e+00      
H    1.99918521e+00      -3.91628245e+00     2.21865232e+00      
26
132.762500
N    -1.07649739e-02     -5.42133485e-02     -5.12034762e-02     
H    -1.05050176e+00     -6.66017311e-02     -9.09920052e-02     
H    3.24451159e-01      8.35949499e-01      -4.74467515e-01     
H    3.25438812e-01      -1.49503502e-01     9.31668137e-01      
C    5.21850335e-01      -1.19382570e+00     -8.19143488e-01     
H    1.60820011e+00      -1.16979014e+00     -7.87122881e-01     
H    1.74583126e-01      -2.12167697e+00     -3.71833230e-01     
C    4.22419382e-02      -1.09328620e+00     -2.25162824e+00     
O    -6.56538157e-01     -1.89522891e-01     -2.67219065e+00     
O    4.96971579e-01      -2.11893605e+00     -2.94829119e+00     
H    1.46758932e-01      -2.05560706e+00     -3.88582757e+00     
O    1.00559835e+00      2.05589454e+00      -1.52493264e+00     
H    5.25875014e-01      2.08228294e+00      -2.35782718e+00     
H    1.33336148e+00      2.94695473e+00      -1.37802420e+00     
O    1.06948868e+00      -6.62296767e-01     2.36874327e+00      
H    1.16858129e+00      -1.61216385e+00     2.53307859e+00      
H    1.23843263e+00      -2.10774986e-01     3.19640561e+00      
O    -2.71564348e+00     -4.29313151e-01     -4.91288445e-01     
H    -2.88248592e+00     -2.27178184e-01     -1.41675758e+00     
H    -3.54621243e+00     -2.76975597e-01     -3.28736367e-02     
O    -4.33946002e-01     -2.04967232e+00     -5.42079395e+00     
H    -7.14139416e-01     -1.22506598e+00     -5.82343741e+00     
H    -9.03150685e-02     -2.58790971e+00     -6.14090274e+00     
O    1.17399293e+00      -3.42731488e+00     2.24688421e+00      
H    5.53288105e-01      -4.00462472e+00     2.69663436e+00      
H    1.99930663e+00      -3.91627338e+00     2.22055541e+00      
26
132.762500
N    -1.10840876e-02     -5.43800820e-02     -5.11380113e-02     
H    -1.05080035e+00     -6.84599315e-02     -9.13838866e-02     
H    3.22819291e-01      8.36630385e-01      -4.73584009e-01     
H    3.24938429e-01      -1.49792042e-01     9.31790567e-01      
C    5.24558483e-01      -1.19197732e+00     -8.19924019e-01     
H    1.61081234e+00      -1.16348187e+00     -7.89860858e-01     
H    1.81945545e-01      -2.12115030e+00     -3.71922235e-01     
C    4.23150228e-02      -1.09324048e+00     -2.25163042e+00     
O    -6.56947048e-01     -1.89797460e-01     -2.67208470e+00     
O    4.95655298e-01      -2.11979389e+00     -2.94784851e+00     
H    1.45262251e-01      -2.05657079e+00     -3.88532771e+00     
O    1.00575435e+00      2.05498536e+00      -1.52441517e+00     
H    5.25981648e-01      2.08081019e+00      -2.35731290e+00     
H    1.33274798e+00      2.94636896e+00      -1.37769115e+00     
O    1.06968744e+00      -6.62312478e-01     2.36857509e+00      
H    1.16847353e+00      -1.61220021e+00     2.53300236e+00      
H    1.23693466e+00      -2.10912419e-01     3.19664434e+00      
O    -2.71666489e+00     -4.28968294e-01     -4.91530487e-01     
H    -2.88400479e+00     -2.26772417e-01     -1.41688374e+00     
H    -3.54710356e+00     -2.77151101e-01     -3.27332934e-02     
O    -4.33602433e-01     -2.04940471e+00     -5.42099234e+00     
H    -7.12525959e-01     -1.22432338e+00     -5.82353112e+00     
H    -8.94807723e-02     -2.58753214e+00     -6.14094788e+00     
O    1.17403387e+00      -3.42736124e+00     2.24697263e+00      
H    5.52370102e-01      -4.00472696e+00     2.69530493e+00      
H    1.99942805e+00      -3.91626430e+00     2.22245851e+00      
26
132.762500
N    -1.23605420e-02     -5.50470158e-02     -5.08761515e-02     
H    -1.05199469e+00     -7.58927329e-02     -9.29514122e-02     
H    3.16291821e-01      8.39353925e-01      -4.70049983e-01     
H    3.22936897e-01      -1.50946206e-01     9.32280289e-01      
C    5.35391077e-01      -1.18458380e+00     -8.23046141e-01     
H    1.62126122e+00      -1.13824879e+00     -8.00812764e-01     
H    2.11395221e-01      -2.11904362e+00     -3.72278257e-01     
C    4.26073612e-02      -1.09305762e+00     -2.25163910e+00     
O    -6.58582612e-01     -1.90895740e-01     -2.67166086e+00     
O    4.90390178e-01      -2.12322527e+00     -2.94607775e+00     
H    1.39275525e-01      -2.06042571e+00     -3.88332829e+00     
O    1.00637835e+00      2.05134864e+00      -1.52234529e+00     
H    5.26408186e-01      2.07491921e+00      -2.35525578e+00     
H    1.33029400e+00      2.94402590e+00      -1.37635897e+00     
O    1.07048252e+00      -6.62375324e-01     2.36790237e+00      
H    1.16804251e+00      -1.61234565e+00     2.53269744e+00      
H    1.23094276e+00      -2.11462153e-01     3.19759922e+00      
O    -2.72075055e+00     -4.27588862e-01     -4.92498657e-01     
H    -2.89008027e+00     -2.25149347e-01     -1.41738836e+00     
H    -3.55066808e+00     -2.77853119e-01     -3.21719202e-02     
O    -4.32228159e-01     -2.04833427e+00     -5.42178590e+00     
H    -7.06072129e-01     -1.22135300e+00     -5.82390596e+00     
H    -8.61435871e-02     -2.58602186e+00     -6.14112848e+00     
O    1.17419761e+00      -3.42754666e+00     2.24732629e+00      
H    5.48698090e-01      -4.00513588e+00     2.68998721e+00      
H    1.99991373e+00      -3.91622798e+00     2.23007089e+00      
26
132.762500
N    -1.26796557e-02     -5.52137493e-02     -5.08106866e-02     
H    -1.05229328e+00     -7.77509333e-02     -9.33432936e-02     
H    3.14659953e-01      8.40034811e-01      -4.69166477e-01     
H    3.22436514e-01      -1.51234746e-01     9.32402719e-01      
C    5.38099225e-01      -1.18273542e+00     -8.23826672e-01     
H    1.62387345e+00      -1.13194052e+00     -8.03550741e-01     
H    2.18757640e-01      -2.11851695e+00     -3.72367262e-01     
C    4.26804458e-02      -1.09301190e+00     -2.25164128e+00     
O    -6.58991503e-01     -1.91170309e-01     -2.67155491e+00     
O    4.89073897e-01      -2.12408311e+00     -2.94563507e+00     
H    1.37778844e-01      -2.06138944e+00     -3.88282843e+00     
O    1.00653435e+00      2.05043946e+00      -1.52182782e+00     
H    5.26514820e-01      2.07344646e+00      -2.35474150e+00     
H    1.32968050e+00      2.94344013e+00      -1.37602592e+00     
O    1.07068128e+00      -6.62391035e-01     2.36773419e+00      
H    1.16793475e+00      -1.61238201e+00     2.53262121e+00      
H    1.22944479e+00      -2.11599586e-01     3.19783795e+00      
O    -2.72177196e+00     -4.27244005e-01     -4.92740699e-01     
H    -2.89159914e+00     -2.24743580e-01     -1.41751452e+00     
H    -3.55155921e+00     -2.78028623e-01     -3.20315769e-02     
O    -4.31884590e-01     -2.04806666e+00     -5.42198429e+00     
H    -7.04458672e-01     -1.22061040e+00     -5.82399967e+00     
H    -8.53092909e-02     -2.58564429e+00     -6.14117362e+00     
O    1.17423855e+00      -3.42759302e+00     2.24741471e+00      
H    5.47780087e-01      -4.00523812e+00     2.68865778e+00      
H    2.00003515e+00      -3.91621890e+00     2.23197399e+00      
26
132.762500
N    -1.29987693e-02     -5.53804828e-02     -5.07452217e-02     
H    -1.05259186e+00     -7.96091336e-02     -9.37351750e-02     
H    3.13028085e-01      8.40715696e-01      -4.68282971e-01     
H    3.21936131e-01      -1.51523287e-01     9.32525149e-01      
C    5.40807374e-01      -1.18088704e+00     -8.24607202e-01     
H    1.62648567e+00      -1.12563225e+00     -8.06288718e-01     
H    2.26120058e-01      -2.11799029e+00     -3.72456267e-01     
C    4.27535304e-02      -1.09296618e+00     -2.25164345e+00     
O    -6.59400394e-01     -1.91444879e-01     -2.67144895e+00     
O    4.87757617e-01      -2.12494096e+00     -2.94519238e+00     
H    1.36282162e-01      -2.06235317e+00     -3.88232857e+00     
O    1.00669035e+00      2.04953028e+00      -1.52131035e+00     
H    5.26621455e-01      2.07197372e+00      -2.35422723e+00     
H    1.32906700e+00      2.94285437e+00      -1.37569288e+00     
O    1.07088005e+00      -6.62406746e-01     2.36756601e+00      
H    1.16782699e+00      -1.61241837e+00     2.53254498e+00      
H    1.22794681e+00      -2.11737020e-01     3.19807667e+00      
O    -2.72279338e+00     -4.26899147e-01     -4.92982742e-01     
H    -2.89311801e+00     -2.24337813e-01     -1.41764068e+00     
H    -3.55245035e+00     -2.78204127e-01     -3.18912336e-02     
O    -4.31541022e-01     -2.04779906e+00     -5.42218267e+00     
H    -7.02845215e-01     -1.21986781e+00     -5.82409338e+00     
H    -8.44749946e-02     -2.58526672e+00     -6.14121877e+00     
O    1.17427949e+00      -3.42763937e+00     2.24750312e+00      
H    5.46862084e-01      -4.00534035e+00     2.68732834e+00      
H    2.00015657e+00      -3.91620983e+00     2.23387708e+00      
26
132.762500
N    -1.36369965e-02     -5.57139497e-02     -5.06142918e-02     
H    -1.05318903e+00     -8.33255343e-02     -9.45189378e-02     
H    3.09764350e-01      8.42077466e-01      -4.66515958e-01     
H    3.20935365e-01      -1.52100369e-01     9.32770010e-01      
C    5.46223671e-01      -1.17719028e+00     -8.26168263e-01     
H    1.63171011e+00      -1.11301572e+00     -8.11764671e-01     
H    2.40844896e-01      -2.11693695e+00     -3.72634278e-01     
C    4.28996996e-02      -1.09287475e+00     -2.25164779e+00     
O    -6.60218175e-01     -1.91994019e-01     -2.67123703e+00     
O    4.85125057e-01      -2.12665664e+00     -2.94430700e+00     
H    1.33288800e-01      -2.06428064e+00     -3.88132886e+00     
O    1.00700235e+00      2.04771192e+00      -1.52027540e+00     
H    5.26834724e-01      2.06902823e+00      -2.35319867e+00     
H    1.32784001e+00      2.94168284e+00      -1.37502678e+00     
O    1.07127759e+00      -6.62438169e-01     2.36722965e+00      
H    1.16761148e+00      -1.61249109e+00     2.53239252e+00      
H    1.22495086e+00      -2.12011887e-01     3.19855411e+00      
O    -2.72483621e+00     -4.26209431e-01     -4.93466827e-01     
H    -2.89615575e+00     -2.23526278e-01     -1.41789299e+00     
H    -3.55423261e+00     -2.78555136e-01     -3.16105471e-02     
O    -4.30853884e-01     -2.04726384e+00     -5.42257945e+00     
H    -6.99618300e-01     -1.21838262e+00     -5.82428080e+00     
H    -8.28064020e-02     -2.58451158e+00     -6.14130907e+00     
O    1.17436136e+00      -3.42773209e+00     2.24767996e+00      
H    5.45026078e-01      -4.00554481e+00     2.68466948e+00      
H    2.00039940e+00      -3.91619167e+00     2.23768328e+00      
26
132.762500
N    -1.42752238e-02     -5.60474167e-02     -5.04833619e-02     
H    -1.05378620e+00     -8.70419351e-02     -9.53027006e-02     
H    3.06500615e-01      8.43439237e-01      -4.64748945e-01     
H    3.19934598e-01      -1.52677450e-01     9.33014871e-01      
C    5.51639968e-01      -1.17349351e+00     -8.27729324e-01     
H    1.63693456e+00      -1.10039918e+00     -8.17240625e-01     
H    2.55569734e-01      -2.11588361e+00     -3.72812289e-01     
C    4.30458689e-02      -1.09278332e+00     -2.25165214e+00     
O    -6.61035957e-01     -1.92543158e-01     -2.67102512e+00     
O    4.82492496e-01      -2.12837233e+00     -2.94342163e+00     
H    1.30295437e-01      -2.06620810e+00     -3.88032915e+00     
O    1.00731435e+00      2.04589355e+00      -1.51924046e+00     
H    5.27047993e-01      2.06608274e+00      -2.35217011e+00     
H    1.32661301e+00      2.94051130e+00      -1.37436069e+00     
O    1.07167513e+00      -6.62469591e-01     2.36689329e+00      
H    1.16739597e+00      -1.61256381e+00     2.53224006e+00      
H    1.22195491e+00      -2.12286754e-01     3.19903155e+00      
O    -2.72687904e+00     -4.25519716e-01     -4.93950911e-01     
H    -2.89919349e+00     -2.22714743e-01     -1.41814530e+00     
H    -3.55601487e+00     -2.78906145e-01     -3.13298605e-02     
O    -4.30166747e-01     -2.04672862e+00     -5.42297623e+00     
H    -6.96391386e-01     -1.21689742e+00     -5.82446822e+00     
H    -8.11378095e-02     -2.58375644e+00     -6.14139936e+00     
O    1.17444324e+00      -3.42782480e+00     2.24785679e+00      
H    5.43190071e-01      -4.00574928e+00     2.68201062e+00      
H    2.00064224e+00      -3.91617351e+00     2.24148947e+00      
26
132.762500
N    -1.49134510e-02     -5.63808836e-02     -5.03524321e-02     
H    -1.05438337e+00     -9.07583358e-02     -9.60864634e-02     
H    3.03236880e-01      8.44801007e-01      -4.62981933e-01     
H    3.18933832e-01      -1.53254532e-01     9.33259732e-01      
C    5.57056265e-01      -1.16979675e+00     -8.29290385e-01     
H    1.64215900e+00      -1.08778264e+00     -8.22716578e-01     
H    2.70294572e-01      -2.11483027e+00     -3.72990300e-01     
C    4.31920381e-02      -1.09269188e+00     -2.25165648e+00     
O    -6.61853739e-01     -1.93092298e-01     -2.67081320e+00     
O    4.79859936e-01      -2.13008802e+00     -2.94253625e+00     
H    1.27302074e-01      -2.06813556e+00     -3.87932943e+00     
O    1.00762635e+00      2.04407519e+00      -1.51820552e+00     
H    5.27261262e-01      2.06313725e+00      -2.35114155e+00     
H    1.32538602e+00      2.93933977e+00      -1.37369460e+00     
O    1.07207266e+00      -6.62501014e-01     2.36655693e+00      
H    1.16718046e+00      -1.61263653e+00     2.53208761e+00      
H    1.21895896e+00      -2.12561621e-01     3.19950900e+00      
O    -2.72892187e+00     -4.24830000e-01     -4.94434996e-01     
H    -2.90223123e+00     -2.21903209e-01     -1.41839762e+00     
H    -3.55779714e+00     -2.79257154e-01     -3.10491739e-02     
O    -4.29479610e-01     -2.04619341e+00     -5.42337301e+00     
H    -6.93164471e-01     -1.21541223e+00     -5.82465564e+00     
H    -7.94692169e-02     -2.58300130e+00     -6.14148966e+00     
O    1.17452511e+00      -3.42791751e+00     2.24803362e+00      
H    5.41354065e-01      -4.00595374e+00     2.67935176e+00      
H    2.00088508e+00      -3.91615536e+00     2.24529566e+00      
26
132.762500
N    -1.55516783e-02     -5.67143506e-02     -5.02215022e-02     
H    -1.05498054e+00     -9.44747365e-02     -9.68702262e-02     
H    2.99973144e-01      8.46162778e-01      -4.61214920e-01     
H    3.17933066e-01      -1.53831614e-01     9.33504592e-01      
C    5.62472562e-01      -1.16609999e+00     -8.30851446e-01     
H    1.64738345e+00      -1.07516610e+00     -8.28192532e-01     
H    2.85019409e-01      -2.11377694e+00     -3.73168310e-01     
C    4.33382073e-02      -1.09260045e+00     -2.25166082e+00     
O    -6.62671521e-01     -1.93641437e-01     -2.67060128e+00     
O    4.77227375e-01      -2.13180371e+00     -2.94165088e+00     
H    1.24308711e-01      -2.07006302e+00     -3.87832972e+00     
O    1.00793835e+00      2.04225683e+00      -1.51717058e+00     
H    5.27474531e-01      2.06019176e+00      -2.35011300e+00     
H    1.32415903e+00      2.93816824e+00      -1.37302851e+00     
O    1.07247020e+00      -6.62532437e-01     2.36622057e+00      
H    1.16696494e+00      -1.61270925e+00     2.53193515e+00      
H    1.21596301e+00      -2.12836488e-01     3.19998644e+00      
O    -2.73096469e+00     -4.24140284e-01     -4.94919081e-01     
H    -2.90526897e+00     -2.21091674e-01     -1.41864993e+00     
H    -3.55957940e+00     -2.79608162e-01     -3.07684873e-02     
O    -4.28792473e-01     -2.04565819e+00     -5.42376978e+00     
H    -6.89937556e-01     -1.21392704e+00     -5.82484305e+00     
H    -7.78006244e-02     -2.58224616e+00     -6.14157995e+00     
O    1.17460699e+00      -3.42801022e+00     2.24821045e+00      
H    5.39518059e-01      -4.00615820e+00     2.67669289e+00      
H    2.00112792e+00      -3.91613720e+00     2.24910185e+00      
26
132.762500
N    -1.68281328e-02     -5.73812845e-02     -4.99596425e-02     
H    -1.05617488e+00     -1.01907538e-01     -9.84377519e-02     
H    2.93445674e-01      8.48886319e-01      -4.57680895e-01     
H    3.15931534e-01      -1.54985777e-01     9.33994314e-01      
C    5.73305156e-01      -1.15870647e+00     -8.33973568e-01     
H    1.65783234e+00      -1.04993303e+00     -8.39144439e-01     
H    3.14469085e-01      -2.11167026e+00     -3.73524332e-01     
C    4.36305457e-02      -1.09241758e+00     -2.25166951e+00     
O    -6.64307084e-01     -1.94739716e-01     -2.67017745e+00     
O    4.71962254e-01      -2.13523508e+00     -2.93988013e+00     
H    1.18321986e-01      -2.07391795e+00     -3.87633029e+00     
O    1.00856235e+00      2.03862011e+00      -1.51510069e+00     
H    5.27901069e-01      2.05430078e+00      -2.34805588e+00     
H    1.32170504e+00      2.93582518e+00      -1.37169633e+00     
O    1.07326527e+00      -6.62595282e-01     2.36554785e+00      
H    1.16653392e+00      -1.61285469e+00     2.53163023e+00      
H    1.20997111e+00      -2.13386222e-01     3.20094133e+00      
O    -2.73505035e+00     -4.22760853e-01     -4.95887251e-01     
H    -2.91134445e+00     -2.19468604e-01     -1.41915456e+00     
H    -3.56314393e+00     -2.80310180e-01     -3.02071142e-02     
O    -4.27418199e-01     -2.04458776e+00     -5.42456334e+00     
H    -6.83483727e-01     -1.21095666e+00     -5.82521789e+00     
H    -7.44634393e-02     -2.58073588e+00     -6.14176055e+00     
O    1.17477074e+00      -3.42819565e+00     2.24856411e+00      
H    5.35846047e-01      -4.00656713e+00     2.67137517e+00      
H    2.00161360e+00      -3.91610088e+00     2.25671424e+00      
