26
270.341335
N    -3.98647207e-02     -7.15659360e-02     -4.27843481e-02     
H    -1.08126440e+00     -1.08264072e-01     -8.71513690e-02     
H    2.75430233e-01      8.28372285e-01      -4.55483665e-01     
H    2.98436518e-01      -1.65230284e-01     9.39616981e-01      
C    5.28587879e-01      -1.18819821e+00     -8.19887927e-01     
H    1.61396935e+00      -1.12375401e+00     -7.92639660e-01     
H    2.18520424e-01      -2.13081805e+00     -3.76290601e-01     
C    4.08565290e-02      -1.09538718e+00     -2.25038785e+00     
O    -6.58017251e-01     -1.92098347e-01     -2.67170831e+00     
O    4.94879409e-01      -2.12136940e+00     -2.94745595e+00     
H    1.41349509e-01      -2.05884949e+00     -3.88384530e+00     
O    1.00902204e+00      2.07117699e+00      -1.52836243e+00     
H    6.16301238e-01      2.03531117e+00      -2.41267022e+00     
H    1.34719999e+00      2.96619844e+00      -1.43101406e+00     
O    1.07105513e+00      -6.62711832e-01     2.36897552e+00      
H    1.17270186e+00      -1.61169069e+00     2.53686021e+00      
H    1.22890431e+00      -2.08055598e-01     3.19717055e+00      
O    -2.70044571e+00     -4.31379925e-01     -4.91817406e-01     
H    -2.87148707e+00     -1.28549627e-01     -1.39499670e+00     
H    -3.50957556e+00     -2.60187122e-01     -1.92260693e-04     
O    -4.37786279e-01     -2.05009854e+00     -5.42480743e+00     
H    -6.84814582e-01     -1.21285140e+00     -5.82483122e+00     
H    -6.37821926e-02     -2.57763457e+00     -6.13867556e+00     
O    1.17429113e+00      -3.42717411e+00     2.24725537e+00      
H    5.47985684e-01      -4.00364827e+00     2.69024130e+00      
H    1.99783966e+00      -3.91932525e+00     2.22533154e+00      
26
270.341335
N    -3.28291192e-02     -6.73528392e-02     -4.48400314e-02     
H    -1.07379768e+00     -9.92421372e-02     -8.84054391e-02     
H    2.86461564e-01      8.30777253e-01      -4.59566998e-01     
H    3.04811804e-01      -1.61514994e-01     9.37721593e-01      
C    5.28934604e-01      -1.18821879e+00     -8.20287215e-01     
H    1.61448621e+00      -1.13053184e+00     -7.93313948e-01     
H    2.13057914e-01      -2.12813778e+00     -3.75243012e-01     
C    4.12576948e-02      -1.09482765e+00     -2.25069958e+00     
O    -6.57954146e-01     -1.91660411e-01     -2.67174943e+00     
O    4.94415241e-01      -2.12140444e+00     -2.94733275e+00     
H    1.41579354e-01      -2.05876168e+00     -3.88396597e+00     
O    1.00828312e+00      2.06667449e+00      -1.52711688e+00     
H    5.93774658e-01      2.04594956e+00      -2.39857375e+00     
H    1.34328024e+00      2.96094819e+00      -1.41751681e+00     
O    1.07081259e+00      -6.62619849e-01     2.36879132e+00      
H    1.17159090e+00      -1.61183625e+00     2.53585764e+00      
H    1.23016291e+00      -2.08838520e-01     3.19715836e+00      
O    -2.70501121e+00     -4.30604588e-01     -4.91866697e-01     
H    -2.87537593e+00     -1.52902441e-01     -1.40053154e+00     
H    -3.51940313e+00     -2.64515869e-01     -8.25734722e-03     
O    -4.36568533e-01     -2.04979128e+00     -5.42395285e+00     
H    -6.90935698e-01     -1.21534809e+00     -5.82455305e+00     
H    -6.97896894e-02     -2.57992018e+00     -6.13926621e+00     
O    1.17424728e+00      -3.42724407e+00     2.24722889e+00      
H    5.48622787e-01      -4.00396906e+00     2.69084249e+00      
H    1.99829747e+00      -3.91855547e+00     2.22556483e+00      
26
270.341335
N    -2.93113185e-02     -6.52462909e-02     -4.58678731e-02     
H    -1.07006432e+00     -9.47311697e-02     -8.90324742e-02     
H    2.91977229e-01      8.31979737e-01      -4.61608664e-01     
H    3.07999447e-01      -1.59657349e-01     9.36773899e-01      
C    5.29107967e-01      -1.18822909e+00     -8.20486859e-01     
H    1.61474463e+00      -1.13392075e+00     -7.93651092e-01     
H    2.10326659e-01      -2.12679764e+00     -3.74719218e-01     
C    4.14582777e-02      -1.09454788e+00     -2.25085544e+00     
O    -6.57922593e-01     -1.91441442e-01     -2.67176998e+00     
O    4.94183157e-01      -2.12142197e+00     -2.94727114e+00     
H    1.41694276e-01      -2.05871777e+00     -3.88402631e+00     
O    1.00791365e+00      2.06442324e+00      -1.52649411e+00     
H    5.82511368e-01      2.05126875e+00      -2.39152551e+00     
H    1.34132036e+00      2.95832306e+00      -1.41076818e+00     
O    1.07069132e+00      -6.62573858e-01     2.36869922e+00      
H    1.17103542e+00      -1.61190903e+00     2.53535635e+00      
H    1.23079221e+00      -2.09229981e-01     3.19715226e+00      
O    -2.70729396e+00     -4.30216920e-01     -4.91891343e-01     
H    -2.87732037e+00     -1.65078848e-01     -1.40329896e+00     
H    -3.52431691e+00     -2.66680243e-01     -1.22898905e-02     
O    -4.35959660e-01     -2.04963765e+00     -5.42352556e+00     
H    -6.93996256e-01     -1.21659644e+00     -5.82441397e+00     
H    -7.27934378e-02     -2.58106298e+00     -6.13956154e+00     
O    1.17422536e+00      -3.42727905e+00     2.24721565e+00      
H    5.48941339e-01      -4.00412945e+00     2.69114309e+00      
H    1.99852637e+00      -3.91817058e+00     2.22568148e+00      
26
270.341335
N    -2.57935177e-02     -6.31397425e-02     -4.68957148e-02     
H    -1.06633096e+00     -9.02202022e-02     -8.96595092e-02     
H    2.97492895e-01      8.33182220e-01      -4.63650330e-01     
H    3.11187091e-01      -1.57799704e-01     9.35826205e-01      
C    5.29281330e-01      -1.18823938e+00     -8.20686503e-01     
H    1.61500306e+00      -1.13730967e+00     -7.93988236e-01     
H    2.07595404e-01      -2.12545751e+00     -3.74195423e-01     
C    4.16588605e-02      -1.09426812e+00     -2.25101130e+00     
O    -6.57891041e-01     -1.91222474e-01     -2.67179054e+00     
O    4.93951073e-01      -2.12143949e+00     -2.94720954e+00     
H    1.41809198e-01      -2.05867387e+00     -3.88408665e+00     
O    1.00754419e+00      2.06217200e+00      -1.52587133e+00     
H    5.71248078e-01      2.05658794e+00      -2.38447728e+00     
H    1.33936049e+00      2.95569794e+00      -1.40401956e+00     
O    1.07057006e+00      -6.62527867e-01     2.36860712e+00      
H    1.17047994e+00      -1.61198181e+00     2.53485506e+00      
H    1.23142151e+00      -2.09621442e-01     3.19714617e+00      
O    -2.70957672e+00     -4.29829252e-01     -4.91915989e-01     
H    -2.87926480e+00     -1.77255255e-01     -1.40606638e+00     
H    -3.52923069e+00     -2.68844616e-01     -1.63224337e-02     
O    -4.35350788e-01     -2.04948401e+00     -5.42309827e+00     
H    -6.97056813e-01     -1.21784479e+00     -5.82427488e+00     
H    -7.57971861e-02     -2.58220579e+00     -6.13985687e+00     
O    1.17420343e+00      -3.42731403e+00     2.24720242e+00      
H    5.49259890e-01      -4.00428984e+00     2.69144369e+00      
H    1.99875528e+00      -3.91778569e+00     2.22579812e+00      
26
270.341335
N    -2.22757170e-02     -6.10331941e-02     -4.79235564e-02     
H    -1.06259760e+00     -8.57092347e-02     -9.02865443e-02     
H    3.03008560e-01      8.34384704e-01      -4.65691997e-01     
H    3.14374734e-01      -1.55942059e-01     9.34878510e-01      
C    5.29454692e-01      -1.18824968e+00     -8.20886147e-01     
H    1.61526149e+00      -1.14069858e+00     -7.94325379e-01     
H    2.04864149e-01      -2.12411737e+00     -3.73671629e-01     
C    4.18594434e-02      -1.09398835e+00     -2.25116717e+00     
O    -6.57859488e-01     -1.91003505e-01     -2.67181110e+00     
O    4.93718990e-01      -2.12145701e+00     -2.94714794e+00     
H    1.41924121e-01      -2.05862996e+00     -3.88414699e+00     
O    1.00717473e+00      2.05992075e+00      -1.52524856e+00     
H    5.59984787e-01      2.06190713e+00      -2.37742904e+00     
H    1.33740061e+00      2.95307281e+00      -1.39727093e+00     
O    1.07044879e+00      -6.62481875e-01     2.36851503e+00      
H    1.16992446e+00      -1.61205459e+00     2.53435377e+00      
H    1.23205081e+00      -2.10012903e-01     3.19714007e+00      
O    -2.71185947e+00     -4.29441583e-01     -4.91940635e-01     
H    -2.88120923e+00     -1.89431662e-01     -1.40883380e+00     
H    -3.53414447e+00     -2.71008990e-01     -2.03549770e-02     
O    -4.34741915e-01     -2.04933038e+00     -5.42267099e+00     
H    -7.00117371e-01     -1.21909314e+00     -5.82413580e+00     
H    -7.88009345e-02     -2.58334859e+00     -6.14015220e+00     
O    1.17418151e+00      -3.42734901e+00     2.24718918e+00      
H    5.49578442e-01      -4.00445024e+00     2.69174428e+00      
H    1.99898418e+00      -3.91740081e+00     2.22591477e+00      
26
270.341335
N    -1.87579163e-02     -5.89266457e-02     -4.89513981e-02     
H    -1.05886424e+00     -8.11982672e-02     -9.09135793e-02     
H    3.08524225e-01      8.35587188e-01      -4.67733663e-01     
H    3.17562377e-01      -1.54084414e-01     9.33930816e-01      
C    5.29628055e-01      -1.18825997e+00     -8.21085792e-01     
H    1.61551992e+00      -1.14408750e+00     -7.94662523e-01     
H    2.02132893e-01      -2.12277723e+00     -3.73147835e-01     
C    4.20600263e-02      -1.09370858e+00     -2.25132303e+00     
O    -6.57827935e-01     -1.90784537e-01     -2.67183166e+00     
O    4.93486906e-01      -2.12147453e+00     -2.94708634e+00     
H    1.42039043e-01      -2.05858606e+00     -3.88420732e+00     
O    1.00680527e+00      2.05766950e+00      -1.52462578e+00     
H    5.48721497e-01      2.06722632e+00      -2.37038081e+00     
H    1.33544074e+00      2.95044768e+00      -1.39052231e+00     
O    1.07032752e+00      -6.62435884e-01     2.36842293e+00      
H    1.16936898e+00      -1.61212737e+00     2.53385248e+00      
H    1.23268011e+00      -2.10404364e-01     3.19713397e+00      
O    -2.71414222e+00     -4.29053915e-01     -4.91965280e-01     
H    -2.88315366e+00     -2.01608068e-01     -1.41160121e+00     
H    -3.53905826e+00     -2.73173363e-01     -2.43875203e-02     
O    -4.34133042e-01     -2.04917675e+00     -5.42224370e+00     
H    -7.03177929e-01     -1.22034149e+00     -5.82399671e+00     
H    -8.18046829e-02     -2.58449139e+00     -6.14044752e+00     
O    1.17415959e+00      -3.42738399e+00     2.24717594e+00      
H    5.49896993e-01      -4.00461063e+00     2.69204488e+00      
H    1.99921308e+00      -3.91701592e+00     2.22603141e+00      
26
270.341335
N    -1.69990159e-02     -5.78733715e-02     -4.94653189e-02     
H    -1.05699756e+00     -7.89427835e-02     -9.12270968e-02     
H    3.11282058e-01      8.36188429e-01      -4.68754496e-01     
H    3.19156198e-01      -1.53155592e-01     9.33456969e-01      
C    5.29714736e-01      -1.18826512e+00     -8.21185614e-01     
H    1.61564914e+00      -1.14578196e+00     -7.94831095e-01     
H    2.00767266e-01      -2.12210716e+00     -3.72885938e-01     
C    4.21603177e-02      -1.09356870e+00     -2.25140096e+00     
O    -6.57812159e-01     -1.90675053e-01     -2.67184194e+00     
O    4.93370864e-01      -2.12148330e+00     -2.94705553e+00     
H    1.42096504e-01      -2.05856411e+00     -3.88423749e+00     
O    1.00662054e+00      2.05654387e+00      -1.52431439e+00     
H    5.43089852e-01      2.06988591e+00      -2.36685669e+00     
H    1.33446080e+00      2.94913512e+00      -1.38714800e+00     
O    1.07026688e+00      -6.62412888e-01     2.36837688e+00      
H    1.16909124e+00      -1.61216376e+00     2.53360183e+00      
H    1.23299476e+00      -2.10600094e-01     3.19713092e+00      
O    -2.71528359e+00     -4.28860081e-01     -4.91977603e-01     
H    -2.88412588e+00     -2.07696272e-01     -1.41298492e+00     
H    -3.54151515e+00     -2.74255550e-01     -2.64037919e-02     
O    -4.33828605e-01     -2.04909994e+00     -5.42203005e+00     
H    -7.04708207e-01     -1.22096567e+00     -5.82392717e+00     
H    -8.33065571e-02     -2.58506280e+00     -6.14059519e+00     
O    1.17414862e+00      -3.42740148e+00     2.24716932e+00      
H    5.50056269e-01      -4.00469083e+00     2.69219518e+00      
H    1.99932753e+00      -3.91682347e+00     2.22608973e+00      
26
270.341335
N    -1.52401155e-02     -5.68200973e-02     -4.99792397e-02     
H    -1.05513088e+00     -7.66872997e-02     -9.15406144e-02     
H    3.14039891e-01      8.36789671e-01      -4.69775330e-01     
H    3.20750020e-01      -1.52226769e-01     9.32983122e-01      
C    5.29801417e-01      -1.18827027e+00     -8.21285436e-01     
H    1.61577835e+00      -1.14747641e+00     -7.94999667e-01     
H    1.99401638e-01      -2.12143710e+00     -3.72624040e-01     
C    4.22606091e-02      -1.09342882e+00     -2.25147890e+00     
O    -6.57796383e-01     -1.90565568e-01     -2.67185222e+00     
O    4.93254822e-01      -2.12149206e+00     -2.94702473e+00     
H    1.42153966e-01      -2.05854215e+00     -3.88426766e+00     
O    1.00643581e+00      2.05541825e+00      -1.52400301e+00     
H    5.37458207e-01      2.07254551e+00      -2.36333257e+00     
H    1.33348086e+00      2.94782256e+00      -1.38377368e+00     
O    1.07020625e+00      -6.62389892e-01     2.36833083e+00      
H    1.16881350e+00      -1.61220015e+00     2.53335119e+00      
H    1.23330941e+00      -2.10795825e-01     3.19712788e+00      
O    -2.71642497e+00     -4.28666246e-01     -4.91989926e-01     
H    -2.88509810e+00     -2.13784475e-01     -1.41436863e+00     
H    -3.54397204e+00     -2.75337737e-01     -2.84200635e-02     
O    -4.33524169e-01     -2.04902312e+00     -5.42181641e+00     
H    -7.06238486e-01     -1.22158984e+00     -5.82385763e+00     
H    -8.48084313e-02     -2.58563420e+00     -6.14074285e+00     
O    1.17413766e+00      -3.42741897e+00     2.24716270e+00      
H    5.50215545e-01      -4.00477103e+00     2.69234547e+00      
H    1.99944199e+00      -3.91663103e+00     2.22614806e+00      
26
270.341335
N    -8.20451407e-03     -5.26070005e-02     -5.20349231e-02     
H    -1.04766416e+00     -6.76653647e-02     -9.27946844e-02     
H    3.25071221e-01      8.39194639e-01      -4.73858662e-01     
H    3.27125306e-01      -1.48511479e-01     9.31087734e-01      
C    5.30148143e-01      -1.18829085e+00     -8.21684724e-01     
H    1.61629521e+00      -1.15425425e+00     -7.95673955e-01     
H    1.93939128e-01      -2.11875682e+00     -3.71576452e-01     
C    4.26617749e-02      -1.09286928e+00     -2.25179062e+00     
O    -6.57733277e-01     -1.90127632e-01     -2.67189334e+00     
O    4.92790654e-01      -2.12152710e+00     -2.94690153e+00     
H    1.42383810e-01      -2.05845435e+00     -3.88438834e+00     
O    1.00569689e+00      2.05091575e+00      -1.52275745e+00     
H    5.14931627e-01      2.08318389e+00      -2.34923611e+00     
H    1.32956112e+00      2.94257230e+00      -1.37027644e+00     
O    1.06996371e+00      -6.62297910e-01     2.36814663e+00      
H    1.16770254e+00      -1.61234571e+00     2.53234861e+00      
H    1.23456801e+00      -2.11578747e-01     3.19711568e+00      
O    -2.72099047e+00     -4.27890910e-01     -4.92039218e-01     
H    -2.88898696e+00     -2.38137289e-01     -1.41990347e+00     
H    -3.55379960e+00     -2.79666483e-01     -3.64851501e-02     
O    -4.32306423e-01     -2.04871586e+00     -5.42096183e+00     
H    -7.12359602e-01     -1.22408654e+00     -5.82357945e+00     
H    -9.08159281e-02     -2.58791980e+00     -6.14133351e+00     
O    1.17409382e+00      -3.42748893e+00     2.24713622e+00      
H    5.50852647e-01      -4.00509181e+00     2.69294667e+00      
H    1.99989979e+00      -3.91586125e+00     2.22638134e+00      
26
270.341335
N    -6.44561370e-03     -5.15537263e-02     -5.25488439e-02     
H    -1.04579748e+00     -6.54098809e-02     -9.31082020e-02     
H    3.27829054e-01      8.39795881e-01      -4.74879496e-01     
H    3.28719128e-01      -1.47582656e-01     9.30613887e-01      
C    5.30234824e-01      -1.18829600e+00     -8.21784546e-01     
H    1.61642442e+00      -1.15594870e+00     -7.95842527e-01     
H    1.92573500e-01      -2.11808676e+00     -3.71314554e-01     
C    4.27620663e-02      -1.09272940e+00     -2.25186856e+00     
O    -6.57717501e-01     -1.90018147e-01     -2.67190362e+00     
O    4.92674612e-01      -2.12153586e+00     -2.94687073e+00     
H    1.42441272e-01      -2.05843239e+00     -3.88441851e+00     
O    1.00551216e+00      2.04979013e+00      -1.52244607e+00     
H    5.09299982e-01      2.08584349e+00      -2.34571199e+00     
H    1.32858118e+00      2.94125974e+00      -1.36690212e+00     
O    1.06990308e+00      -6.62274914e-01     2.36810058e+00      
H    1.16742480e+00      -1.61238210e+00     2.53209797e+00      
H    1.23488266e+00      -2.11774478e-01     3.19711264e+00      
O    -2.72213185e+00     -4.27697075e-01     -4.92051541e-01     
H    -2.88995918e+00     -2.44225492e-01     -1.42128718e+00     
H    -3.55625649e+00     -2.80748670e-01     -3.85014217e-02     
O    -4.32001987e-01     -2.04863904e+00     -5.42074819e+00     
H    -7.13889881e-01     -1.22471071e+00     -5.82350991e+00     
H    -9.23178023e-02     -2.58849120e+00     -6.14148117e+00     
O    1.17408286e+00      -3.42750642e+00     2.24712960e+00      
H    5.51011923e-01      -4.00517201e+00     2.69309696e+00      
H    2.00001425e+00      -3.91566881e+00     2.22643967e+00      
26
270.341335
N    -4.68671333e-03     -5.05004521e-02     -5.30627647e-02     
H    -1.04393080e+00     -6.31543972e-02     -9.34217195e-02     
H    3.30586887e-01      8.40397122e-01      -4.75900329e-01     
H    3.30312949e-01      -1.46653834e-01     9.30140040e-01      
C    5.30321505e-01      -1.18830115e+00     -8.21884368e-01     
H    1.61655364e+00      -1.15764316e+00     -7.96011099e-01     
H    1.91207873e-01      -2.11741669e+00     -3.71052657e-01     
C    4.28623577e-02      -1.09258952e+00     -2.25194649e+00     
O    -6.57701725e-01     -1.89908663e-01     -2.67191390e+00     
O    4.92558570e-01      -2.12154463e+00     -2.94683992e+00     
H    1.42498733e-01      -2.05841044e+00     -3.88444868e+00     
O    1.00532743e+00      2.04866450e+00      -1.52213468e+00     
H    5.03668337e-01      2.08850308e+00      -2.34218787e+00     
H    1.32760124e+00      2.93994718e+00      -1.36352781e+00     
O    1.06984244e+00      -6.62251918e-01     2.36805453e+00      
H    1.16714706e+00      -1.61241849e+00     2.53184732e+00      
H    1.23519731e+00      -2.11970208e-01     3.19710959e+00      
O    -2.72327322e+00     -4.27503241e-01     -4.92063864e-01     
H    -2.89093140e+00     -2.50313696e-01     -1.42267089e+00     
H    -3.55871338e+00     -2.81830857e-01     -4.05176933e-02     
O    -4.31697550e-01     -2.04856223e+00     -5.42053454e+00     
H    -7.15420159e-01     -1.22533489e+00     -5.82344037e+00     
H    -9.38196765e-02     -2.58906261e+00     -6.14162884e+00     
O    1.17407189e+00      -3.42752391e+00     2.24712298e+00      
H    5.51171199e-01      -4.00525221e+00     2.69324726e+00      
H    2.00012870e+00      -3.91547636e+00     2.22649799e+00      
26
270.341335
N    -1.16891260e-03     -4.83939037e-02     -5.40906064e-02     
H    -1.04019744e+00     -5.86434297e-02     -9.40487545e-02     
H    3.36102552e-01      8.41599606e-01      -4.77941995e-01     
H    3.33500592e-01      -1.44796189e-01     9.29192346e-01      
C    5.30494868e-01      -1.18831144e+00     -8.22084013e-01     
H    1.61681207e+00      -1.16103208e+00     -7.96348243e-01     
H    1.88476617e-01      -2.11607655e+00     -3.70528863e-01     
C    4.30629406e-02      -1.09230975e+00     -2.25210235e+00     
O    -6.57670172e-01     -1.89689695e-01     -2.67193446e+00     
O    4.92326486e-01      -2.12156215e+00     -2.94677832e+00     
H    1.42613655e-01      -2.05836654e+00     -3.88450901e+00     
O    1.00495797e+00      2.04641325e+00      -1.52151190e+00     
H    4.92405047e-01      2.09382227e+00      -2.33513964e+00     
H    1.32564137e+00      2.93732205e+00      -1.35677919e+00     
O    1.06972117e+00      -6.62205927e-01     2.36796243e+00      
H    1.16659158e+00      -1.61249127e+00     2.53134603e+00      
H    1.23582661e+00      -2.12361669e-01     3.19710349e+00      
O    -2.72555597e+00     -4.27115573e-01     -4.92088509e-01     
H    -2.89287583e+00     -2.62490102e-01     -1.42543830e+00     
H    -3.56362717e+00     -2.83995230e-01     -4.45502366e-02     
O    -4.31088677e-01     -2.04840860e+00     -5.42010725e+00     
H    -7.18480717e-01     -1.22658324e+00     -5.82330128e+00     
H    -9.68234249e-02     -2.59020541e+00     -6.14192416e+00     
O    1.17404997e+00      -3.42755889e+00     2.24710974e+00      
H    5.51489750e-01      -4.00541260e+00     2.69354786e+00      
H    2.00035760e+00      -3.91509147e+00     2.22661463e+00      
26
270.341335
N    2.34888813e-03      -4.62873553e-02     -5.51184480e-02     
H    -1.03646408e+00     -5.41324622e-02     -9.46757896e-02     
H    3.41618217e-01      8.42802090e-01      -4.79983662e-01     
H    3.36688235e-01      -1.42938544e-01     9.28244651e-01      
C    5.30668230e-01      -1.18832174e+00     -8.22283657e-01     
H    1.61707050e+00      -1.16442099e+00     -7.96685386e-01     
H    1.85745362e-01      -2.11473641e+00     -3.70005069e-01     
C    4.32635235e-02      -1.09202998e+00     -2.25225822e+00     
O    -6.57638619e-01     -1.89470726e-01     -2.67195502e+00     
O    4.92094403e-01      -2.12157967e+00     -2.94671672e+00     
H    1.42728578e-01      -2.05832263e+00     -3.88456935e+00     
O    1.00458851e+00      2.04416200e+00      -1.52088913e+00     
H    4.81141756e-01      2.09914146e+00      -2.32809140e+00     
H    1.32368149e+00      2.93469692e+00      -1.35003056e+00     
O    1.06959990e+00      -6.62159935e-01     2.36787034e+00      
H    1.16603610e+00      -1.61256405e+00     2.53084474e+00      
H    1.23645591e+00      -2.12753130e-01     3.19709739e+00      
O    -2.72783872e+00     -4.26727904e-01     -4.92113155e-01     
H    -2.89482026e+00     -2.74666509e-01     -1.42820572e+00     
H    -3.56854095e+00     -2.86159604e-01     -4.85827799e-02     
O    -4.30479804e-01     -2.04825497e+00     -5.41967997e+00     
H    -7.21541275e-01     -1.22783159e+00     -5.82316220e+00     
H    -9.98271733e-02     -2.59134821e+00     -6.14221949e+00     
O    1.17402805e+00      -3.42759387e+00     2.24709650e+00      
H    5.51808302e-01      -4.00557300e+00     2.69384845e+00      
H    2.00058650e+00      -3.91470659e+00     2.22673128e+00      
26
270.341335
N    5.86668886e-03      -4.41808069e-02     -5.61462897e-02     
H    -1.03273072e+00     -4.96214947e-02     -9.53028246e-02     
H    3.47133883e-01      8.44004573e-01      -4.82025328e-01     
H    3.39875879e-01      -1.41080899e-01     9.27296957e-01      
C    5.30841593e-01      -1.18833203e+00     -8.22483301e-01     
H    1.61732893e+00      -1.16780991e+00     -7.97022530e-01     
H    1.83014107e-01      -2.11339628e+00     -3.69481274e-01     
C    4.34641063e-02      -1.09175022e+00     -2.25241408e+00     
O    -6.57607067e-01     -1.89251758e-01     -2.67197558e+00     
O    4.91862319e-01      -2.12159719e+00     -2.94665512e+00     
H    1.42843500e-01      -2.05827873e+00     -3.88462969e+00     
O    1.00421905e+00      2.04191076e+00      -1.52026635e+00     
H    4.69878466e-01      2.10446065e+00      -2.32104317e+00     
H    1.32172162e+00      2.93207180e+00      -1.34328194e+00     
O    1.06947864e+00      -6.62113944e-01     2.36777824e+00      
H    1.16548062e+00      -1.61263683e+00     2.53034345e+00      
H    1.23708521e+00      -2.13144591e-01     3.19709130e+00      
O    -2.73012148e+00     -4.26340236e-01     -4.92137801e-01     
H    -2.89676469e+00     -2.86842916e-01     -1.43097314e+00     
H    -3.57345473e+00     -2.88323977e-01     -5.26153231e-02     
O    -4.29870932e-01     -2.04810133e+00     -5.41925268e+00     
H    -7.24601832e-01     -1.22907994e+00     -5.82302311e+00     
H    -1.02830922e-01     -2.59249102e+00     -6.14251482e+00     
O    1.17400612e+00      -3.42762885e+00     2.24708327e+00      
H    5.52126853e-01      -4.00573339e+00     2.69414905e+00      
H    2.00081541e+00      -3.91432170e+00     2.22684792e+00      
26
270.341335
N    9.38448960e-03      -4.20742586e-02     -5.71741314e-02     
H    -1.02899736e+00     -4.51105272e-02     -9.59298597e-02     
H    3.52649548e-01      8.45207057e-01      -4.84066994e-01     
H    3.43063522e-01      -1.39223254e-01     9.26349263e-01      
C    5.31014956e-01      -1.18834233e+00     -8.22682945e-01     
H    1.61758735e+00      -1.17119882e+00     -7.97359674e-01     
H    1.80282852e-01      -2.11205614e+00     -3.68957480e-01     
C    4.36646892e-02      -1.09147045e+00     -2.25256994e+00     
O    -6.57575514e-01     -1.89032789e-01     -2.67199613e+00     
O    4.91630235e-01      -2.12161472e+00     -2.94659351e+00     
H    1.42958422e-01      -2.05823482e+00     -3.88469003e+00     
O    1.00384958e+00      2.03965951e+00      -1.51964358e+00     
H    4.58615176e-01      2.10977984e+00      -2.31399493e+00     
H    1.31976174e+00      2.92944667e+00      -1.33653331e+00     
O    1.06935737e+00      -6.62067953e-01     2.36768614e+00      
H    1.16492514e+00      -1.61270961e+00     2.52984216e+00      
H    1.23771451e+00      -2.13536052e-01     3.19708520e+00      
O    -2.73240423e+00     -4.25952568e-01     -4.92162447e-01     
H    -2.89870913e+00     -2.99019323e-01     -1.43374056e+00     
H    -3.57836851e+00     -2.90488351e-01     -5.66478664e-02     
O    -4.29262059e-01     -2.04794770e+00     -5.41882539e+00     
H    -7.27662390e-01     -1.23032829e+00     -5.82288403e+00     
H    -1.05834670e-01     -2.59363382e+00     -6.14281015e+00     
O    1.17398420e+00      -3.42766383e+00     2.24707003e+00      
H    5.52445405e-01      -4.00589378e+00     2.69444965e+00      
H    2.00104431e+00      -3.91393681e+00     2.22696457e+00      
26
270.341335
N    1.64200911e-02      -3.78611618e-02     -5.92298147e-02     
H    -1.02153064e+00     -3.60885922e-02     -9.71839298e-02     
H    3.63680879e-01      8.47612025e-01      -4.88150327e-01     
H    3.49438808e-01      -1.35507964e-01     9.24453875e-01      
C    5.31361681e-01      -1.18836291e+00     -8.23082233e-01     
H    1.61810421e+00      -1.17797665e+00     -7.98033962e-01     
H    1.74820342e-01      -2.10937587e+00     -3.67909891e-01     
C    4.40658550e-02      -1.09091092e+00     -2.25288167e+00     
O    -6.57512409e-01     -1.88594853e-01     -2.67203725e+00     
O    4.91166067e-01      -2.12164976e+00     -2.94647031e+00     
H    1.43188267e-01      -2.05814701e+00     -3.88481070e+00     
O    1.00311066e+00      2.03515701e+00      -1.51839803e+00     
H    4.36088596e-01      2.12041823e+00      -2.29989846e+00     
H    1.31584199e+00      2.92419642e+00      -1.32303606e+00     
O    1.06911483e+00      -6.61975970e-01     2.36750194e+00      
H    1.16381418e+00      -1.61285517e+00     2.52883959e+00      
H    1.23897311e+00      -2.14318974e-01     3.19707301e+00      
O    -2.73696973e+00     -4.25177231e-01     -4.92211738e-01     
H    -2.90259799e+00     -3.23372137e-01     -1.43927540e+00     
H    -3.58819608e+00     -2.94817098e-01     -6.47129529e-02     
O    -4.28044313e-01     -2.04764044e+00     -5.41797081e+00     
H    -7.33783506e-01     -1.23282498e+00     -5.82260586e+00     
H    -1.11842167e-01     -2.59591943e+00     -6.14340080e+00     
O    1.17394035e+00      -3.42773379e+00     2.24704355e+00      
H    5.53082508e-01      -4.00621457e+00     2.69505084e+00      
H    2.00150212e+00      -3.91316703e+00     2.22719786e+00      
