26
221.054789
N    -1.07507146e-02     -5.86220213e-02     -5.29546409e-02     
H    -1.05102283e+00     -7.55968727e-02     -9.70763561e-02     
H    3.19880220e-01      8.34474743e-01      -4.74221482e-01     
H    3.22611538e-01      -1.52158616e-01     9.31176188e-01      
C    5.32707839e-01      -1.19188238e+00     -8.22527174e-01     
H    1.61866610e+00      -1.15329531e+00     -7.96301096e-01     
H    1.99780256e-01      -2.12406362e+00     -3.73790277e-01     
C    4.32581707e-02      -1.09290452e+00     -2.25140580e+00     
O    -6.56424882e-01     -1.86371574e-01     -2.66550479e+00     
O    4.88833812e-01      -2.11888310e+00     -2.95117249e+00     
H    1.35816617e-01      -2.05367740e+00     -3.88827886e+00     
O    1.01581002e+00      2.05849424e+00      -1.52851347e+00     
H    5.39936273e-01      2.05098614e+00      -2.36505618e+00     
H    1.25064402e+00      2.98109863e+00      -1.36524244e+00     
O    1.07062978e+00      -6.57615994e-01     2.36905014e+00      
H    1.16997461e+00      -1.60740483e+00     2.53396599e+00      
H    1.22215359e+00      -2.07275833e-01     3.20085744e+00      
O    -2.72924647e+00     -4.39886215e-01     -4.90183700e-01     
H    -2.85583088e+00     -2.77667873e-01     -1.43227026e+00     
H    -3.54238388e+00     -1.22610659e-01     -5.35173040e-02     
O    -4.33375628e-01     -2.04983151e+00     -5.41682263e+00     
H    -7.03857060e-01     -1.22298782e+00     -5.82208040e+00     
H    -5.86483357e-02     -2.57863761e+00     -6.12951079e+00     
O    1.17423619e+00      -3.43241202e+00     2.24732256e+00      
H    5.58043358e-01      -4.00737434e+00     2.70648338e+00      
H    1.99743639e+00      -3.92437134e+00     2.20917117e+00      
26
221.054789
N    -1.09936146e-02     -5.76449032e-02     -5.24677511e-02     
H    -1.05111650e+00     -7.47417375e-02     -9.58491794e-02     
H    3.19799054e-01      8.35354096e-01      -4.73620360e-01     
H    3.22943070e-01      -1.51711243e-01     9.31390998e-01      
C    5.32024574e-01      -1.19098193e+00     -8.22266651e-01     
H    1.61800877e+00      -1.15268782e+00     -7.96060025e-01     
H    1.99002787e-01      -2.12307196e+00     -3.73367770e-01     
C    4.30589260e-02      -1.09296565e+00     -2.25146304e+00     
O    -6.56759869e-01     -1.87365331e-01     -2.66709679e+00     
O    4.89881044e-01      -2.11953972e+00     -2.95012015e+00     
H    1.37429685e-01      -2.05488261e+00     -3.88729114e+00     
O    1.01337410e+00      2.05716243e+00      -1.52723016e+00     
H    5.36500934e-01      2.05770578e+00      -2.36286322e+00     
H    1.27086326e+00      2.97212333e+00      -1.36818809e+00     
O    1.07049358e+00      -6.58797971e-01     2.36884729e+00      
H    1.16954546e+00      -1.60862186e+00     2.53368696e+00      
H    1.22509987e+00      -2.08253696e-01     3.19992353e+00      
O    -2.72661178e+00     -4.36984306e-01     -4.90641418e-01     
H    -2.86363379e+00     -2.64741125e-01     -1.42848671e+00     
H    -3.54400937e+00     -1.61333522e-01     -4.82511297e-02     
O    -4.33260545e-01     -2.04959101e+00     -5.41796425e+00     
H    -7.05217556e-01     -1.22295041e+00     -5.82248993e+00     
H    -6.59392967e-02     -2.58067245e+00     -6.13239264e+00     
O    1.17420608e+00      -3.43117250e+00     2.24727929e+00      
H    5.56166042e-01      -4.00676361e+00     2.70302405e+00      
H    1.99799501e+00      -3.92234004e+00     2.21344455e+00      
26
221.054789
N    -1.11150647e-02     -5.71563442e-02     -5.22243061e-02     
H    -1.05116334e+00     -7.43141700e-02     -9.52355911e-02     
H    3.19758471e-01      8.35793772e-01      -4.73319799e-01     
H    3.23108835e-01      -1.51487556e-01     9.31498403e-01      
C    5.31682942e-01      -1.19053170e+00     -8.22136389e-01     
H    1.61768010e+00      -1.15238407e+00     -7.95939489e-01     
H    1.98614053e-01      -2.12257613e+00     -3.73156516e-01     
C    4.29593037e-02      -1.09299622e+00     -2.25149166e+00     
O    -6.56927362e-01     -1.87862209e-01     -2.66789279e+00     
O    4.90404659e-01      -2.11986803e+00     -2.94959398e+00     
H    1.38236218e-01      -2.05548522e+00     -3.88679729e+00     
O    1.01215614e+00      2.05649652e+00      -1.52658850e+00     
H    5.34783264e-01      2.06106560e+00      -2.36176674e+00     
H    1.28097288e+00      2.96763568e+00      -1.36966092e+00     
O    1.07042548e+00      -6.59388959e-01     2.36874586e+00      
H    1.16933089e+00      -1.60923037e+00     2.53354745e+00      
H    1.22657301e+00      -2.08742628e-01     3.19945657e+00      
O    -2.72529444e+00     -4.35533351e-01     -4.90870277e-01     
H    -2.86753525e+00     -2.58277751e-01     -1.42659493e+00     
H    -3.54482211e+00     -1.80694953e-01     -4.56180425e-02     
O    -4.33203004e-01     -2.04947075e+00     -5.41853506e+00     
H    -7.05897804e-01     -1.22293171e+00     -5.82269470e+00     
H    -6.95847772e-02     -2.58168988e+00     -6.13383356e+00     
O    1.17419102e+00      -3.43055274e+00     2.24725765e+00      
H    5.55227385e-01      -4.00645824e+00     2.70129439e+00      
H    1.99827433e+00      -3.92132439e+00     2.21558125e+00      
26
221.054789
N    -1.12365147e-02     -5.66677851e-02     -5.19808612e-02     
H    -1.05121018e+00     -7.38866024e-02     -9.46220027e-02     
H    3.19717888e-01      8.36233449e-01      -4.73019239e-01     
H    3.23274601e-01      -1.51263870e-01     9.31605808e-01      
C    5.31341309e-01      -1.19008147e+00     -8.22006127e-01     
H    1.61735144e+00      -1.15208032e+00     -7.95818954e-01     
H    1.98225319e-01      -2.12208029e+00     -3.72945262e-01     
C    4.28596813e-02      -1.09302678e+00     -2.25152028e+00     
O    -6.57094856e-01     -1.88359087e-01     -2.66868878e+00     
O    4.90928275e-01      -2.12019634e+00     -2.94906781e+00     
H    1.39042752e-01      -2.05608783e+00     -3.88630343e+00     
O    1.01093819e+00      2.05583062e+00      -1.52594685e+00     
H    5.33065595e-01      2.06442542e+00      -2.36067026e+00     
H    1.29108250e+00      2.96314803e+00      -1.37113375e+00     
O    1.07035738e+00      -6.59979948e-01     2.36864443e+00      
H    1.16911631e+00      -1.60983888e+00     2.53340794e+00      
H    1.22804615e+00      -2.09231560e-01     3.19898961e+00      
O    -2.72397709e+00     -4.34082396e-01     -4.91099136e-01     
H    -2.87143670e+00     -2.51814377e-01     -1.42470315e+00     
H    -3.54563485e+00     -2.00056384e-01     -4.29849554e-02     
O    -4.33145462e-01     -2.04935050e+00     -5.41910588e+00     
H    -7.06578052e-01     -1.22291301e+00     -5.82289947e+00     
H    -7.32302577e-02     -2.58270730e+00     -6.13527449e+00     
O    1.17417597e+00      -3.42993299e+00     2.24723601e+00      
H    5.54288727e-01      -4.00615288e+00     2.69956472e+00      
H    1.99855364e+00      -3.92030874e+00     2.21771794e+00      
26
221.054789
N    -1.13579647e-02     -5.61792261e-02     -5.17374162e-02     
H    -1.05125701e+00     -7.34590349e-02     -9.40084144e-02     
H    3.19677305e-01      8.36673125e-01      -4.72718678e-01     
H    3.23440366e-01      -1.51040183e-01     9.31713213e-01      
C    5.30999677e-01      -1.18963124e+00     -8.21875865e-01     
H    1.61702277e+00      -1.15177657e+00     -7.95698418e-01     
H    1.97836585e-01      -2.12158446e+00     -3.72734008e-01     
C    4.27600590e-02      -1.09305735e+00     -2.25154890e+00     
O    -6.57262349e-01     -1.88855965e-01     -2.66948478e+00     
O    4.91451891e-01      -2.12052465e+00     -2.94854164e+00     
H    1.39849286e-01      -2.05669043e+00     -3.88580957e+00     
O    1.00972023e+00      2.05516471e+00      -1.52530519e+00     
H    5.31347925e-01      2.06778524e+00      -2.35957378e+00     
H    1.30119213e+00      2.95866038e+00      -1.37260658e+00     
O    1.07028928e+00      -6.60570936e-01     2.36854301e+00      
H    1.16890174e+00      -1.61044739e+00     2.53326843e+00      
H    1.22951929e+00      -2.09720491e-01     3.19852265e+00      
O    -2.72265975e+00     -4.32631442e-01     -4.91327995e-01     
H    -2.87533816e+00     -2.45351003e-01     -1.42281138e+00     
H    -3.54644759e+00     -2.19417816e-01     -4.03518682e-02     
O    -4.33087921e-01     -2.04923025e+00     -5.41967669e+00     
H    -7.07258300e-01     -1.22289430e+00     -5.82310424e+00     
H    -7.68757382e-02     -2.58372473e+00     -6.13671541e+00     
O    1.17416091e+00      -3.42931323e+00     2.24721437e+00      
H    5.53350069e-01      -4.00584751e+00     2.69783506e+00      
H    1.99883295e+00      -3.91929309e+00     2.21985463e+00      
26
221.054789
N    -1.14794147e-02     -5.56906670e-02     -5.14939713e-02     
H    -1.05130385e+00     -7.30314673e-02     -9.33948261e-02     
H    3.19636722e-01      8.37112802e-01      -4.72418117e-01     
H    3.23606132e-01      -1.50816497e-01     9.31820618e-01      
C    5.30658045e-01      -1.18918102e+00     -8.21745604e-01     
H    1.61669411e+00      -1.15147283e+00     -7.95577882e-01     
H    1.97447851e-01      -2.12108863e+00     -3.72522754e-01     
C    4.26604367e-02      -1.09308792e+00     -2.25157752e+00     
O    -6.57429843e-01     -1.89352844e-01     -2.67028078e+00     
O    4.91975507e-01      -2.12085296e+00     -2.94801547e+00     
H    1.40655820e-01      -2.05729304e+00     -3.88531571e+00     
O    1.00850227e+00      2.05449881e+00      -1.52466354e+00     
H    5.29630256e-01      2.07114506e+00      -2.35847730e+00     
H    1.31130175e+00      2.95417273e+00      -1.37407940e+00     
O    1.07022118e+00      -6.61161924e-01     2.36844158e+00      
H    1.16868717e+00      -1.61105591e+00     2.53312892e+00      
H    1.23099243e+00      -2.10209423e-01     3.19805570e+00      
O    -2.72134241e+00     -4.31180487e-01     -4.91556854e-01     
H    -2.87923962e+00     -2.38887630e-01     -1.42091960e+00     
H    -3.54726034e+00     -2.38779247e-01     -3.77187811e-02     
O    -4.33030379e-01     -2.04911000e+00     -5.42024750e+00     
H    -7.07938548e-01     -1.22287560e+00     -5.82330900e+00     
H    -8.05212187e-02     -2.58474215e+00     -6.13815633e+00     
O    1.17414585e+00      -3.42869347e+00     2.24719274e+00      
H    5.52411411e-01      -4.00554215e+00     2.69610540e+00      
H    1.99911226e+00      -3.91827744e+00     2.22199132e+00      
26
221.054789
N    -1.15401398e-02     -5.54463875e-02     -5.13722488e-02     
H    -1.05132727e+00     -7.28176835e-02     -9.30880319e-02     
H    3.19616430e-01      8.37332640e-01      -4.72267837e-01     
H    3.23689015e-01      -1.50704654e-01     9.31874321e-01      
C    5.30487229e-01      -1.18895590e+00     -8.21680473e-01     
H    1.61652978e+00      -1.15132095e+00     -7.95517614e-01     
H    1.97253484e-01      -2.12084071e+00     -3.72417127e-01     
C    4.26106255e-02      -1.09310320e+00     -2.25159183e+00     
O    -6.57513590e-01     -1.89601283e-01     -2.67067878e+00     
O    4.92237314e-01      -2.12101712e+00     -2.94775238e+00     
H    1.41059087e-01      -2.05759434e+00     -3.88506879e+00     
O    1.00789329e+00      2.05416586e+00      -1.52434271e+00     
H    5.28771421e-01      2.07282497e+00      -2.35792906e+00     
H    1.31635656e+00      2.95192890e+00      -1.37481582e+00     
O    1.07018713e+00      -6.61457418e-01     2.36839087e+00      
H    1.16857988e+00      -1.61136016e+00     2.53305917e+00      
H    1.23172900e+00      -2.10453889e-01     3.19782222e+00      
O    -2.72068374e+00     -4.30455010e-01     -4.91671283e-01     
H    -2.88119034e+00     -2.35655943e-01     -1.41997371e+00     
H    -3.54766671e+00     -2.48459963e-01     -3.64022375e-02     
O    -4.33001608e-01     -2.04904987e+00     -5.42053290e+00     
H    -7.08278672e-01     -1.22286625e+00     -5.82341139e+00     
H    -8.23439589e-02     -2.58525086e+00     -6.13887679e+00     
O    1.17413833e+00      -3.42838359e+00     2.24718192e+00      
H    5.51942083e-01      -4.00538947e+00     2.69524057e+00      
H    1.99925192e+00      -3.91776961e+00     2.22305966e+00      
26
221.054789
N    -1.16008648e-02     -5.52021080e-02     -5.12505263e-02     
H    -1.05135068e+00     -7.26038998e-02     -9.27812377e-02     
H    3.19596139e-01      8.37552478e-01      -4.72117557e-01     
H    3.23771897e-01      -1.50592810e-01     9.31928023e-01      
C    5.30316412e-01      -1.18873079e+00     -8.21615342e-01     
H    1.61636544e+00      -1.15116908e+00     -7.95457347e-01     
H    1.97059117e-01      -2.12059279e+00     -3.72311500e-01     
C    4.25608143e-02      -1.09311848e+00     -2.25160614e+00     
O    -6.57597336e-01     -1.89849722e-01     -2.67107678e+00     
O    4.92499122e-01      -2.12118127e+00     -2.94748930e+00     
H    1.41462354e-01      -2.05789564e+00     -3.88482186e+00     
O    1.00728431e+00      2.05383290e+00      -1.52402188e+00     
H    5.27912586e-01      2.07450488e+00      -2.35738082e+00     
H    1.32141137e+00      2.94968508e+00      -1.37555223e+00     
O    1.07015308e+00      -6.61752913e-01     2.36834016e+00      
H    1.16847259e+00      -1.61166442e+00     2.53298941e+00      
H    1.23246557e+00      -2.10698354e-01     3.19758874e+00      
O    -2.72002506e+00     -4.29729533e-01     -4.91785713e-01     
H    -2.88314107e+00     -2.32424256e-01     -1.41902783e+00     
H    -3.54807308e+00     -2.58140679e-01     -3.50856939e-02     
O    -4.32972838e-01     -2.04898974e+00     -5.42081831e+00     
H    -7.08618796e-01     -1.22285689e+00     -5.82351377e+00     
H    -8.41666992e-02     -2.58575958e+00     -6.13959726e+00     
O    1.17413080e+00      -3.42807371e+00     2.24717110e+00      
H    5.51472754e-01      -4.00523678e+00     2.69437573e+00      
H    1.99939158e+00      -3.91726179e+00     2.22412801e+00      
26
221.054789
N    -1.18437648e-02     -5.42249898e-02     -5.07636365e-02     
H    -1.05144436e+00     -7.17487646e-02     -9.15540611e-02     
H    3.19514973e-01      8.38431832e-01      -4.71516435e-01     
H    3.24103429e-01      -1.50145438e-01     9.32142833e-01      
C    5.29633148e-01      -1.18783033e+00     -8.21354818e-01     
H    1.61570812e+00      -1.15056158e+00     -7.95216275e-01     
H    1.96281649e-01      -2.11960113e+00     -3.71888992e-01     
C    4.23615697e-02      -1.09317962e+00     -2.25166338e+00     
O    -6.57932324e-01     -1.90843478e-01     -2.67266878e+00     
O    4.93546354e-01      -2.12183789e+00     -2.94643696e+00     
H    1.43075422e-01      -2.05910086e+00     -3.88383414e+00     
O    1.00484839e+00      2.05250110e+00      -1.52273858e+00     
H    5.24477248e-01      2.08122452e+00      -2.35518786e+00     
H    1.34163061e+00      2.94070978e+00      -1.37849789e+00     
O    1.07001688e+00      -6.62934889e-01     2.36813730e+00      
H    1.16804345e+00      -1.61288144e+00     2.53271039e+00      
H    1.23541185e+00      -2.11676218e-01     3.19665482e+00      
O    -2.71739038e+00     -4.26827623e-01     -4.92243431e-01     
H    -2.89094399e+00     -2.19497508e-01     -1.41524427e+00     
H    -3.54969856e+00     -2.96863541e-01     -2.98195197e-02     
O    -4.32857754e-01     -2.04874924e+00     -5.42195993e+00     
H    -7.09979292e-01     -1.22281949e+00     -5.82392331e+00     
H    -9.14576602e-02     -2.58779442e+00     -6.14247910e+00     
O    1.17410068e+00      -3.42683419e+00     2.24712782e+00      
H    5.49595438e-01      -4.00462606e+00     2.69091641e+00      
H    1.99995020e+00      -3.91523049e+00     2.22840139e+00      
26
221.054789
N    -1.19044898e-02     -5.39807103e-02     -5.06419140e-02     
H    -1.05146777e+00     -7.15349809e-02     -9.12472669e-02     
H    3.19494682e-01      8.38651670e-01      -4.71366155e-01     
H    3.24186311e-01      -1.50033594e-01     9.32196535e-01      
C    5.29462331e-01      -1.18760522e+00     -8.21289687e-01     
H    1.61554378e+00      -1.15040971e+00     -7.95156008e-01     
H    1.96087282e-01      -2.11935321e+00     -3.71783365e-01     
C    4.23117585e-02      -1.09319490e+00     -2.25167769e+00     
O    -6.58016070e-01     -1.91091917e-01     -2.67306678e+00     
O    4.93808162e-01      -2.12200204e+00     -2.94617388e+00     
H    1.43478689e-01      -2.05940216e+00     -3.88358721e+00     
O    1.00423941e+00      2.05216814e+00      -1.52241775e+00     
H    5.23618413e-01      2.08290443e+00      -2.35463962e+00     
H    1.34668542e+00      2.93846596e+00      -1.37923430e+00     
O    1.06998283e+00      -6.63230384e-01     2.36808659e+00      
H    1.16793616e+00      -1.61318570e+00     2.53264063e+00      
H    1.23614842e+00      -2.11920683e-01     3.19642134e+00      
O    -2.71673170e+00     -4.26102146e-01     -4.92357861e-01     
H    -2.89289472e+00     -2.16265821e-01     -1.41429839e+00     
H    -3.55010493e+00     -3.06544257e-01     -2.85029761e-02     
O    -4.32828984e-01     -2.04868911e+00     -5.42224534e+00     
H    -7.10319416e-01     -1.22281013e+00     -5.82402569e+00     
H    -9.32804005e-02     -2.58830314e+00     -6.14319957e+00     
O    1.17409315e+00      -3.42652431e+00     2.24711700e+00      
H    5.49126109e-01      -4.00447337e+00     2.69005157e+00      
H    2.00008986e+00      -3.91472267e+00     2.22946974e+00      
26
221.054789
N    -1.19652149e-02     -5.37364308e-02     -5.05201915e-02     
H    -1.05149119e+00     -7.13211971e-02     -9.09404727e-02     
H    3.19474390e-01      8.38871508e-01      -4.71215875e-01     
H    3.24269194e-01      -1.49921751e-01     9.32250238e-01      
C    5.29291515e-01      -1.18738010e+00     -8.21224556e-01     
H    1.61537945e+00      -1.15025783e+00     -7.95095740e-01     
H    1.95892915e-01      -2.11910529e+00     -3.71677738e-01     
C    4.22619473e-02      -1.09321018e+00     -2.25169200e+00     
O    -6.58099817e-01     -1.91340356e-01     -2.67346478e+00     
O    4.94069969e-01      -2.12216620e+00     -2.94591079e+00     
H    1.43881956e-01      -2.05970346e+00     -3.88334029e+00     
O    1.00363043e+00      2.05183519e+00      -1.52209692e+00     
H    5.22759578e-01      2.08458434e+00      -2.35409138e+00     
H    1.35174023e+00      2.93622213e+00      -1.37997072e+00     
O    1.06994878e+00      -6.63525878e-01     2.36803588e+00      
H    1.16782887e+00      -1.61348995e+00     2.53257088e+00      
H    1.23688499e+00      -2.12165149e-01     3.19618786e+00      
O    -2.71607303e+00     -4.25376669e-01     -4.92472290e-01     
H    -2.89484544e+00     -2.13034134e-01     -1.41335250e+00     
H    -3.55051130e+00     -3.16224973e-01     -2.71864325e-02     
O    -4.32800213e-01     -2.04862898e+00     -5.42253074e+00     
H    -7.10659540e-01     -1.22280078e+00     -5.82412808e+00     
H    -9.51031407e-02     -2.58881185e+00     -6.14392003e+00     
O    1.17408563e+00      -3.42621443e+00     2.24710618e+00      
H    5.48656781e-01      -4.00432069e+00     2.68918674e+00      
H    2.00022952e+00      -3.91421484e+00     2.23053808e+00      
26
221.054789
N    -1.20866649e-02     -5.32478717e-02     -5.02767466e-02     
H    -1.05153803e+00     -7.08936295e-02     -9.03268844e-02     
H    3.19433807e-01      8.39311185e-01      -4.70915314e-01     
H    3.24434960e-01      -1.49698065e-01     9.32357643e-01      
C    5.28949883e-01      -1.18692988e+00     -8.21094295e-01     
H    1.61505079e+00      -1.14995409e+00     -7.94975204e-01     
H    1.95504181e-01      -2.11860946e+00     -3.71466484e-01     
C    4.21623250e-02      -1.09324075e+00     -2.25172062e+00     
O    -6.58267311e-01     -1.91837235e-01     -2.67426078e+00     
O    4.94593585e-01      -2.12249451e+00     -2.94538462e+00     
H    1.44688490e-01      -2.06030607e+00     -3.88284643e+00     
O    1.00241247e+00      2.05116929e+00      -1.52145527e+00     
H    5.21041909e-01      2.08794416e+00      -2.35299490e+00     
H    1.36184985e+00      2.93173448e+00      -1.38144354e+00     
O    1.06988068e+00      -6.64116866e-01     2.36793445e+00      
H    1.16761430e+00      -1.61409847e+00     2.53243137e+00      
H    1.23835813e+00      -2.12654081e-01     3.19572091e+00      
O    -2.71475569e+00     -4.23925714e-01     -4.92701149e-01     
H    -2.89874690e+00     -2.06570761e-01     -1.41146072e+00     
H    -3.55132405e+00     -3.35586404e-01     -2.45533454e-02     
O    -4.32742671e-01     -2.04850873e+00     -5.42310155e+00     
H    -7.11339788e-01     -1.22278208e+00     -5.82433284e+00     
H    -9.87486212e-02     -2.58982927e+00     -6.14536095e+00     
O    1.17407057e+00      -3.42559467e+00     2.24708455e+00      
H    5.47718123e-01      -4.00401533e+00     2.68745708e+00      
H    2.00050883e+00      -3.91319919e+00     2.23267477e+00      
26
221.054789
N    -1.22081149e-02     -5.27593127e-02     -5.00333016e-02     
H    -1.05158486e+00     -7.04660620e-02     -8.97132961e-02     
H    3.19393224e-01      8.39750861e-01      -4.70614753e-01     
H    3.24600725e-01      -1.49474378e-01     9.32465048e-01      
C    5.28608251e-01      -1.18647965e+00     -8.20964033e-01     
H    1.61472212e+00      -1.14965034e+00     -7.94854668e-01     
H    1.95115447e-01      -2.11811363e+00     -3.71255230e-01     
C    4.20627027e-02      -1.09327132e+00     -2.25174924e+00     
O    -6.58434804e-01     -1.92334113e-01     -2.67505678e+00     
O    4.95117201e-01      -2.12282282e+00     -2.94485845e+00     
H    1.45495024e-01      -2.06090867e+00     -3.88235257e+00     
O    1.00119451e+00      2.05050338e+00      -1.52081361e+00     
H    5.19324239e-01      2.09130398e+00      -2.35189842e+00     
H    1.37195948e+00      2.92724683e+00      -1.38291637e+00     
O    1.06981258e+00      -6.64707854e-01     2.36783303e+00      
H    1.16739973e+00      -1.61470698e+00     2.53229186e+00      
H    1.23983127e+00      -2.13143012e-01     3.19525395e+00      
O    -2.71343835e+00     -4.22474760e-01     -4.92930008e-01     
H    -2.90264836e+00     -2.00107387e-01     -1.40956895e+00     
H    -3.55213679e+00     -3.54947836e-01     -2.19202582e-02     
O    -4.32685130e-01     -2.04838848e+00     -5.42367236e+00     
H    -7.12020036e-01     -1.22276337e+00     -5.82453761e+00     
H    -1.02394102e-01     -2.59084670e+00     -6.14680187e+00     
O    1.17405551e+00      -3.42497491e+00     2.24706291e+00      
H    5.46779465e-01      -4.00370996e+00     2.68572742e+00      
H    2.00078814e+00      -3.91218354e+00     2.23481146e+00      
26
221.054789
N    -1.23295649e-02     -5.22707536e-02     -4.97898567e-02     
H    -1.05163170e+00     -7.00384944e-02     -8.90997077e-02     
H    3.19352641e-01      8.40190538e-01      -4.70314193e-01     
H    3.24766491e-01      -1.49250692e-01     9.32572453e-01      
C    5.28266618e-01      -1.18602942e+00     -8.20833771e-01     
H    1.61439346e+00      -1.14934659e+00     -7.94734133e-01     
H    1.94726713e-01      -2.11761779e+00     -3.71043976e-01     
C    4.19630803e-02      -1.09330188e+00     -2.25177786e+00     
O    -6.58602298e-01     -1.92830991e-01     -2.67585277e+00     
O    4.95640817e-01      -2.12315113e+00     -2.94433228e+00     
H    1.46301558e-01      -2.06151128e+00     -3.88185871e+00     
O    9.99976556e-01      2.04983748e+00      -1.52017196e+00     
H    5.17606570e-01      2.09466380e+00      -2.35080194e+00     
H    1.38206910e+00      2.92275918e+00      -1.38438920e+00     
O    1.06974448e+00      -6.65298843e-01     2.36773160e+00      
H    1.16718515e+00      -1.61531549e+00     2.53215235e+00      
H    1.24130441e+00      -2.13631944e-01     3.19478699e+00      
O    -2.71212100e+00     -4.21023805e-01     -4.93158867e-01     
H    -2.90654981e+00     -1.93644013e-01     -1.40767717e+00     
H    -3.55294953e+00     -3.74309267e-01     -1.92871711e-02     
O    -4.32627588e-01     -2.04826823e+00     -5.42424318e+00     
H    -7.12700284e-01     -1.22274467e+00     -5.82474238e+00     
H    -1.06039582e-01     -2.59186412e+00     -6.14824280e+00     
O    1.17404046e+00      -3.42435516e+00     2.24704127e+00      
H    5.45840807e-01      -4.00340460e+00     2.68399775e+00      
H    2.00106745e+00      -3.91116789e+00     2.23694815e+00      
26
221.054789
N    -1.24510150e-02     -5.17821946e-02     -4.95464117e-02     
H    -1.05167854e+00     -6.96109269e-02     -8.84861194e-02     
H    3.19312058e-01      8.40630214e-01      -4.70013632e-01     
H    3.24932256e-01      -1.49027005e-01     9.32679858e-01      
C    5.27924986e-01      -1.18557919e+00     -8.20703509e-01     
H    1.61406479e+00      -1.14904284e+00     -7.94613597e-01     
H    1.94337979e-01      -2.11712196e+00     -3.70832722e-01     
C    4.18634580e-02      -1.09333245e+00     -2.25180648e+00     
O    -6.58769791e-01     -1.93327869e-01     -2.67664877e+00     
O    4.96164432e-01      -2.12347944e+00     -2.94380611e+00     
H    1.47108091e-01      -2.06211389e+00     -3.88136486e+00     
O    9.98758597e-01      2.04917157e+00      -1.51953030e+00     
H    5.15888900e-01      2.09802362e+00      -2.34970546e+00     
H    1.39217872e+00      2.91827153e+00      -1.38586203e+00     
O    1.06967638e+00      -6.65889831e-01     2.36763017e+00      
H    1.16697058e+00      -1.61592400e+00     2.53201284e+00      
H    1.24277755e+00      -2.14120876e-01     3.19432003e+00      
O    -2.71080366e+00     -4.19572850e-01     -4.93387726e-01     
H    -2.91045127e+00     -1.87180639e-01     -1.40578539e+00     
H    -3.55376227e+00     -3.93670698e-01     -1.66540839e-02     
O    -4.32570047e-01     -2.04814797e+00     -5.42481399e+00     
H    -7.13380532e-01     -1.22272597e+00     -5.82494715e+00     
H    -1.09685063e-01     -2.59288155e+00     -6.14968372e+00     
O    1.17402540e+00      -3.42373540e+00     2.24701963e+00      
H    5.44902150e-01      -4.00309923e+00     2.68226809e+00      
H    2.00134677e+00      -3.91015224e+00     2.23908485e+00      
26
221.054789
N    -1.26939150e-02     -5.08050765e-02     -4.90595219e-02     
H    -1.05177221e+00     -6.87557917e-02     -8.72589427e-02     
H    3.19230892e-01      8.41509567e-01      -4.69412510e-01     
H    3.25263788e-01      -1.48579632e-01     9.32894668e-01      
C    5.27241721e-01      -1.18467874e+00     -8.20442986e-01     
H    1.61340746e+00      -1.14843535e+00     -7.94372526e-01     
H    1.93560510e-01      -2.11613030e+00     -3.70410215e-01     
C    4.16642133e-02      -1.09339358e+00     -2.25186372e+00     
O    -6.59104778e-01     -1.94321626e-01     -2.67824077e+00     
O    4.97211664e-01      -2.12413606e+00     -2.94275377e+00     
H    1.48721159e-01      -2.06331910e+00     -3.88037714e+00     
O    9.96322680e-01      2.04783976e+00      -1.51824699e+00     
H    5.12453561e-01      2.10474326e+00      -2.34751250e+00     
H    1.41239796e+00      2.90929623e+00      -1.38880768e+00     
O    1.06954018e+00      -6.67071808e-01     2.36742732e+00      
H    1.16654143e+00      -1.61714103e+00     2.53173381e+00      
H    1.24572383e+00      -2.15098739e-01     3.19338612e+00      
O    -2.70816897e+00     -4.16670941e-01     -4.93845444e-01     
H    -2.91825418e+00     -1.74253891e-01     -1.40200184e+00     
H    -3.55538776e+00     -4.32393561e-01     -1.13879096e-02     
O    -4.32454964e-01     -2.04790747e+00     -5.42595561e+00     
H    -7.14741028e-01     -1.22268856e+00     -5.82535668e+00     
H    -1.16976024e-01     -2.59491639e+00     -6.15256557e+00     
O    1.17399529e+00      -3.42249588e+00     2.24697636e+00      
H    5.43024834e-01      -4.00248850e+00     2.67880876e+00      
H    2.00190539e+00      -3.90812094e+00     2.24335823e+00      
