26
183.967163
N    -1.08914327e-02     -5.47068300e-02     -5.08111351e-02     
H    -1.05050562e+00     -7.21899880e-02     -9.48238178e-02     
H    3.21586287e-01      8.38593460e-01      -4.69256754e-01     
H    3.21601758e-01      -1.52916338e-01     9.33459297e-01      
C    5.32310103e-01      -1.18724384e+00     -8.21773167e-01     
H    1.61831921e+00      -1.14743081e+00     -7.96844134e-01     
H    2.00744109e-01      -2.11960558e+00     -3.72042062e-01     
C    4.29880767e-02      -1.09294466e+00     -2.25144549e+00     
O    -6.57526146e-01     -1.90334610e-01     -2.67145644e+00     
O    4.92247299e-01      -2.12218971e+00     -2.94653314e+00     
H    1.41274703e-01      -2.05918742e+00     -3.88374997e+00     
O    1.00480737e+00      2.05369005e+00      -1.52419547e+00     
H    5.21776503e-01      2.08334284e+00      -2.35505367e+00     
H    1.34492357e+00      2.94093982e+00      -1.38155950e+00     
O    1.07762828e+00      -6.59718964e-01     2.36489974e+00      
H    1.15113961e+00      -1.61217385e+00     2.53127125e+00      
H    1.11924327e+00      -2.21822437e-01     3.22555676e+00      
O    -2.71712465e+00     -4.26870545e-01     -4.91496820e-01     
H    -2.89174405e+00     -2.24117579e-01     -1.41530650e+00     
H    -3.54900282e+00     -2.94816287e-01     -2.90109275e-02     
O    -4.32843937e-01     -2.04883795e+00     -5.42222227e+00     
H    -7.09778540e-01     -1.22291865e+00     -5.82436729e+00     
H    -8.86958905e-02     -2.58688492e+00     -6.14218749e+00     
O    1.16626525e+00      -3.43104414e+00     2.24983667e+00      
H    6.24673945e-01      -4.03313282e+00     2.77845267e+00      
H    2.01008748e+00      -3.88444322e+00     2.12628580e+00      
26
183.967163
N    -1.10991532e-02     -5.47085097e-02     -5.08601217e-02     
H    -1.05072859e+00     -7.21865740e-02     -9.41597757e-02     
H    3.21078604e-01      8.38443134e-01      -4.69896815e-01     
H    3.22185734e-01      -1.52279534e-01     9.33103330e-01      
C    5.31726272e-01      -1.18750302e+00     -8.21701145e-01     
H    1.61774860e+00      -1.14828944e+00     -7.96467303e-01     
H    1.99725677e-01      -2.11972843e+00     -3.72056608e-01     
C    4.28563556e-02      -1.09299576e+00     -2.25149281e+00     
O    -6.57585817e-01     -1.90337608e-01     -2.67156052e+00     
O    4.92441159e-01      -2.12201968e+00     -2.94664063e+00     
H    1.41523249e-01      -2.05901513e+00     -3.88389448e+00     
O    1.00512212e+00      2.05355929e+00      -1.52399166e+00     
H    5.22881106e-01      2.08197331e+00      -2.35536134e+00     
H    1.34157292e+00      2.94200423e+00      -1.38042589e+00     
O    1.07574245e+00      -6.60375198e-01     2.36573449e+00      
H    1.15541921e+00      -1.61219862e+00     2.53166591e+00      
H    1.14791713e+00      -2.19163649e-01     3.21844802e+00      
O    -2.71752042e+00     -4.27222553e-01     -4.91626258e-01     
H    -2.89056867e+00     -2.24578405e-01     -1.41576389e+00     
H    -3.54897357e+00     -2.90487743e-01     -2.98713473e-02     
O    -4.32861777e-01     -2.04884584e+00     -5.42201398e+00     
H    -7.09658666e-01     -1.22289854e+00     -5.82420510e+00     
H    -8.84749628e-02     -2.58685794e+00     -6.14190016e+00     
O    1.16822787e+00      -3.43014659e+00     2.24916487e+00      
H    6.06138983e-01      -4.02608247e+00     2.75700102e+00      
H    2.00748333e+00      -3.89239395e+00     2.15128052e+00      
26
183.967163
N    -1.12030135e-02     -5.47093496e-02     -5.08846149e-02     
H    -1.05084008e+00     -7.21848671e-02     -9.38277546e-02     
H    3.20824763e-01      8.38367971e-01      -4.70216845e-01     
H    3.22477722e-01      -1.51961133e-01     9.32925346e-01      
C    5.31434357e-01      -1.18763261e+00     -8.21665134e-01     
H    1.61746330e+00      -1.14871875e+00     -7.96278888e-01     
H    1.99216462e-01      -2.11978985e+00     -3.72063881e-01     
C    4.27904950e-02      -1.09302131e+00     -2.25151646e+00     
O    -6.57615653e-01     -1.90339107e-01     -2.67161257e+00     
O    4.92538089e-01      -2.12193466e+00     -2.94669438e+00     
H    1.41647522e-01      -2.05892898e+00     -3.88396673e+00     
O    1.00527949e+00      2.05349391e+00      -1.52388975e+00     
H    5.23433408e-01      2.08128854e+00      -2.35551517e+00     
H    1.33989760e+00      2.94253643e+00      -1.37985908e+00     
O    1.07479954e+00      -6.60703316e-01     2.36615186e+00      
H    1.15755901e+00      -1.61221100e+00     2.53186324e+00      
H    1.16225406e+00      -2.17834255e-01     3.21489364e+00      
O    -2.71771830e+00     -4.27398557e-01     -4.91690977e-01     
H    -2.88998098e+00     -2.24808818e-01     -1.41599258e+00     
H    -3.54895895e+00     -2.88323471e-01     -3.03015572e-02     
O    -4.32870697e-01     -2.04884978e+00     -5.42190984e+00     
H    -7.09598729e-01     -1.22288848e+00     -5.82412401e+00     
H    -8.83644989e-02     -2.58684445e+00     -6.14175650e+00     
O    1.16920918e+00      -3.42969782e+00     2.24882897e+00      
H    5.96871502e-01      -4.02255729e+00     2.74627519e+00      
H    2.00618126e+00      -3.89636932e+00     2.16377789e+00      
26
183.967163
N    -1.13068737e-02     -5.47101894e-02     -5.09091082e-02     
H    -1.05095157e+00     -7.21831601e-02     -9.34957336e-02     
H    3.20570921e-01      8.38292808e-01      -4.70536875e-01     
H    3.22769711e-01      -1.51642731e-01     9.32747362e-01      
C    5.31142441e-01      -1.18776220e+00     -8.21629123e-01     
H    1.61717800e+00      -1.14914807e+00     -7.96090473e-01     
H    1.98707246e-01      -2.11985127e+00     -3.72071154e-01     
C    4.27246344e-02      -1.09304686e+00     -2.25154012e+00     
O    -6.57645488e-01     -1.90340605e-01     -2.67166461e+00     
O    4.92635019e-01      -2.12184965e+00     -2.94674813e+00     
H    1.41771796e-01      -2.05884283e+00     -3.88403898e+00     
O    1.00543686e+00      2.05342852e+00      -1.52378785e+00     
H    5.23985710e-01      2.08060377e+00      -2.35566901e+00     
H    1.33822228e+00      2.94306863e+00      -1.37929228e+00     
O    1.07385663e+00      -6.61031433e-01     2.36656924e+00      
H    1.15969881e+00      -1.61222339e+00     2.53206057e+00      
H    1.17659099e+00      -2.16504862e-01     3.21133927e+00      
O    -2.71791619e+00     -4.27574561e-01     -4.91755696e-01     
H    -2.88939329e+00     -2.25039231e-01     -1.41622128e+00     
H    -3.54894432e+00     -2.86159199e-01     -3.07317671e-02     
O    -4.32879617e-01     -2.04885372e+00     -5.42180570e+00     
H    -7.09538792e-01     -1.22287842e+00     -5.82404291e+00     
H    -8.82540351e-02     -2.58683096e+00     -6.14161283e+00     
O    1.17019049e+00      -3.42924904e+00     2.24849306e+00      
H    5.87604020e-01      -4.01903212e+00     2.73554937e+00      
H    2.00487918e+00      -3.90034468e+00     2.17627525e+00      
26
183.967163
N    -1.14107340e-02     -5.47110293e-02     -5.09336015e-02     
H    -1.05106306e+00     -7.21814531e-02     -9.31637125e-02     
H    3.20317080e-01      8.38217644e-01      -4.70856905e-01     
H    3.23061699e-01      -1.51324329e-01     9.32569379e-01      
C    5.30850526e-01      -1.18789179e+00     -8.21593112e-01     
H    1.61689269e+00      -1.14957738e+00     -7.95902057e-01     
H    1.98198030e-01      -2.11991269e+00     -3.72078427e-01     
C    4.26587738e-02      -1.09307241e+00     -2.25156378e+00     
O    -6.57675324e-01     -1.90342104e-01     -2.67171665e+00     
O    4.92731948e-01      -2.12176463e+00     -2.94680188e+00     
H    1.41896069e-01      -2.05875669e+00     -3.88411124e+00     
O    1.00559423e+00      2.05336314e+00      -1.52368594e+00     
H    5.24538012e-01      2.07991900e+00      -2.35582284e+00     
H    1.33654696e+00      2.94360083e+00      -1.37872547e+00     
O    1.07291372e+00      -6.61359550e-01     2.36698661e+00      
H    1.16183862e+00      -1.61223577e+00     2.53225790e+00      
H    1.19092792e+00      -2.15175468e-01     3.20778490e+00      
O    -2.71811407e+00     -4.27750566e-01     -4.91820415e-01     
H    -2.88880560e+00     -2.25269643e-01     -1.41644997e+00     
H    -3.54892970e+00     -2.83994926e-01     -3.11619771e-02     
O    -4.32888536e-01     -2.04885766e+00     -5.42170155e+00     
H    -7.09478855e-01     -1.22286836e+00     -5.82396182e+00     
H    -8.81435712e-02     -2.58681747e+00     -6.14146917e+00     
O    1.17117180e+00      -3.42880027e+00     2.24815716e+00      
H    5.78336539e-01      -4.01550694e+00     2.72482354e+00      
H    2.00357711e+00      -3.90432005e+00     2.18877261e+00      
26
183.967163
N    -1.15145943e-02     -5.47118692e-02     -5.09580948e-02     
H    -1.05117454e+00     -7.21797461e-02     -9.28316915e-02     
H    3.20063239e-01      8.38142481e-01      -4.71176936e-01     
H    3.23353687e-01      -1.51005927e-01     9.32391395e-01      
C    5.30558611e-01      -1.18802138e+00     -8.21557102e-01     
H    1.61660739e+00      -1.15000670e+00     -7.95713642e-01     
H    1.97688814e-01      -2.11997412e+00     -3.72085700e-01     
C    4.25929132e-02      -1.09309795e+00     -2.25158744e+00     
O    -6.57705159e-01     -1.90343603e-01     -2.67176869e+00     
O    4.92828878e-01      -2.12167961e+00     -2.94685563e+00     
H    1.42020342e-01      -2.05867054e+00     -3.88418349e+00     
O    1.00575161e+00      2.05329776e+00      -1.52358404e+00     
H    5.25090313e-01      2.07923424e+00      -2.35597667e+00     
H    1.33487163e+00      2.94413303e+00      -1.37815867e+00     
O    1.07197080e+00      -6.61687667e-01     2.36740398e+00      
H    1.16397842e+00      -1.61224816e+00     2.53245524e+00      
H    1.20526485e+00      -2.13846074e-01     3.20423053e+00      
O    -2.71831195e+00     -4.27926570e-01     -4.91885134e-01     
H    -2.88821791e+00     -2.25500056e-01     -1.41667866e+00     
H    -3.54891507e+00     -2.81830654e-01     -3.15921870e-02     
O    -4.32897456e-01     -2.04886161e+00     -5.42159741e+00     
H    -7.09418918e-01     -1.22285831e+00     -5.82388073e+00     
H    -8.80331074e-02     -2.58680398e+00     -6.14132551e+00     
O    1.17215312e+00      -3.42835150e+00     2.24782126e+00      
H    5.69069058e-01      -4.01198177e+00     2.71409772e+00      
H    2.00227504e+00      -3.90829541e+00     2.20126997e+00      
26
183.967163
N    -1.15665244e-02     -5.47122891e-02     -5.09703415e-02     
H    -1.05123029e+00     -7.21788927e-02     -9.26656810e-02     
H    3.19936318e-01      8.38104900e-01      -4.71336951e-01     
H    3.23499681e-01      -1.50846727e-01     9.32302403e-01      
C    5.30412653e-01      -1.18808617e+00     -8.21539096e-01     
H    1.61646474e+00      -1.15022136e+00     -7.95619434e-01     
H    1.97434207e-01      -2.12000483e+00     -3.72089336e-01     
C    4.25599829e-02      -1.09311073e+00     -2.25159927e+00     
O    -6.57720077e-01     -1.90344352e-01     -2.67179472e+00     
O    4.92877343e-01      -2.12163710e+00     -2.94688251e+00     
H    1.42082478e-01      -2.05862747e+00     -3.88421962e+00     
O    1.00583029e+00      2.05326507e+00      -1.52353309e+00     
H    5.25366464e-01      2.07889185e+00      -2.35605359e+00     
H    1.33403397e+00      2.94439913e+00      -1.37787527e+00     
O    1.07149935e+00      -6.61851725e-01     2.36761267e+00      
H    1.16504832e+00      -1.61225435e+00     2.53255390e+00      
H    1.21243331e+00      -2.13181377e-01     3.20245334e+00      
O    -2.71841089e+00     -4.28014572e-01     -4.91917493e-01     
H    -2.88792406e+00     -2.25615263e-01     -1.41679301e+00     
H    -3.54890776e+00     -2.80748518e-01     -3.18072919e-02     
O    -4.32901916e-01     -2.04886358e+00     -5.42154534e+00     
H    -7.09388949e-01     -1.22285328e+00     -5.82384018e+00     
H    -8.79778755e-02     -2.58679723e+00     -6.14125368e+00     
O    1.17264377e+00      -3.42812711e+00     2.24765331e+00      
H    5.64435318e-01      -4.01021918e+00     2.70873481e+00      
H    2.00162400e+00      -3.91028309e+00     2.20751866e+00      
26
183.967163
N    -1.16184545e-02     -5.47127090e-02     -5.09825881e-02     
H    -1.05128603e+00     -7.21780392e-02     -9.24996704e-02     
H    3.19809397e-01      8.38067318e-01      -4.71496966e-01     
H    3.23645675e-01      -1.50687526e-01     9.32213412e-01      
C    5.30266695e-01      -1.18815097e+00     -8.21521091e-01     
H    1.61632208e+00      -1.15043601e+00     -7.95525226e-01     
H    1.97179599e-01      -2.12003554e+00     -3.72092973e-01     
C    4.25270526e-02      -1.09312350e+00     -2.25161110e+00     
O    -6.57734995e-01     -1.90345101e-01     -2.67182074e+00     
O    4.92925808e-01      -2.12159460e+00     -2.94690938e+00     
H    1.42144615e-01      -2.05858440e+00     -3.88425575e+00     
O    1.00590898e+00      2.05323238e+00      -1.52348213e+00     
H    5.25642615e-01      2.07854947e+00      -2.35613051e+00     
H    1.33319631e+00      2.94466523e+00      -1.37759186e+00     
O    1.07102789e+00      -6.62015784e-01     2.36782136e+00      
H    1.16611822e+00      -1.61226054e+00     2.53265257e+00      
H    1.21960178e+00      -2.12516680e-01     3.20067615e+00      
O    -2.71850984e+00     -4.28102574e-01     -4.91949853e-01     
H    -2.88763022e+00     -2.25730469e-01     -1.41690736e+00     
H    -3.54890045e+00     -2.79666382e-01     -3.20223969e-02     
O    -4.32906376e-01     -2.04886555e+00     -5.42149326e+00     
H    -7.09358981e-01     -1.22284825e+00     -5.82379963e+00     
H    -8.79226435e-02     -2.58679049e+00     -6.14118184e+00     
O    1.17313443e+00      -3.42790272e+00     2.24748536e+00      
H    5.59801577e-01      -4.00845659e+00     2.70337189e+00      
H    2.00097296e+00      -3.91227078e+00     2.21376734e+00      
26
183.967163
N    -1.18261751e-02     -5.47143888e-02     -5.10315747e-02     
H    -1.05150901e+00     -7.21746252e-02     -9.18356284e-02     
H    3.19301715e-01      8.37916992e-01      -4.72137026e-01     
H    3.24229651e-01      -1.50050722e-01     9.31857444e-01      
C    5.29682865e-01      -1.18841015e+00     -8.21449069e-01     
H    1.61575148e+00      -1.15129465e+00     -7.95148396e-01     
H    1.96161167e-01      -2.12015838e+00     -3.72107519e-01     
C    4.23953314e-02      -1.09317460e+00     -2.25165842e+00     
O    -6.57794665e-01     -1.90348099e-01     -2.67192482e+00     
O    4.93119668e-01      -2.12142456e+00     -2.94701688e+00     
H    1.42393161e-01      -2.05841210e+00     -3.88440025e+00     
O    1.00622372e+00      2.05310162e+00      -1.52327833e+00     
H    5.26747219e-01      2.07717993e+00      -2.35643817e+00     
H    1.32984567e+00      2.94572963e+00      -1.37645826e+00     
O    1.06914207e+00      -6.62672018e-01     2.36865610e+00      
H    1.17039782e+00      -1.61228532e+00     2.53304723e+00      
H    1.24827564e+00      -2.09857892e-01     3.19356741e+00      
O    -2.71890560e+00     -4.28454582e-01     -4.92079291e-01     
H    -2.88645484e+00     -2.26191295e-01     -1.41736474e+00     
H    -3.54887119e+00     -2.75337838e-01     -3.28828167e-02     
O    -4.32924216e-01     -2.04887343e+00     -5.42128498e+00     
H    -7.09239107e-01     -1.22282813e+00     -5.82363745e+00     
H    -8.77017159e-02     -2.58676351e+00     -6.14089452e+00     
O    1.17509705e+00      -3.42700518e+00     2.24681356e+00      
H    5.41266615e-01      -4.00140625e+00     2.68192025e+00      
H    1.99836882e+00      -3.92022150e+00     2.23876206e+00      
26
183.967163
N    -1.18781052e-02     -5.47148087e-02     -5.10438213e-02     
H    -1.05156475e+00     -7.21737717e-02     -9.16696178e-02     
H    3.19174794e-01      8.37879410e-01      -4.72297041e-01     
H    3.24375645e-01      -1.49891521e-01     9.31768453e-01      
C    5.29536907e-01      -1.18847495e+00     -8.21431064e-01     
H    1.61560882e+00      -1.15150930e+00     -7.95054188e-01     
H    1.95906559e-01      -2.12018909e+00     -3.72111156e-01     
C    4.23624011e-02      -1.09318737e+00     -2.25167025e+00     
O    -6.57809583e-01     -1.90348848e-01     -2.67195084e+00     
O    4.93168133e-01      -2.12138206e+00     -2.94704375e+00     
H    1.42455298e-01      -2.05836903e+00     -3.88443638e+00     
O    1.00630241e+00      2.05306893e+00      -1.52322737e+00     
H    5.27023370e-01      2.07683755e+00      -2.35651509e+00     
H    1.32900801e+00      2.94599573e+00      -1.37617485e+00     
O    1.06867061e+00      -6.62836077e-01     2.36886479e+00      
H    1.17146772e+00      -1.61229151e+00     2.53314590e+00      
H    1.25544411e+00      -2.09193195e-01     3.19179022e+00      
O    -2.71900455e+00     -4.28542584e-01     -4.92111651e-01     
H    -2.88616100e+00     -2.26306501e-01     -1.41747909e+00     
H    -3.54886388e+00     -2.74255702e-01     -3.30979217e-02     
O    -4.32928676e-01     -2.04887540e+00     -5.42123290e+00     
H    -7.09209139e-01     -1.22282310e+00     -5.82359690e+00     
H    -8.76464839e-02     -2.58675677e+00     -6.14082268e+00     
O    1.17558771e+00      -3.42678079e+00     2.24664561e+00      
H    5.36632874e-01      -3.99964366e+00     2.67655733e+00      
H    1.99771778e+00      -3.92220919e+00     2.24501074e+00      
26
183.967163
N    -1.19300353e-02     -5.47152286e-02     -5.10560680e-02     
H    -1.05162050e+00     -7.21729183e-02     -9.15036073e-02     
H    3.19047873e-01      8.37841829e-01      -4.72457056e-01     
H    3.24521639e-01      -1.49732321e-01     9.31679461e-01      
C    5.29390949e-01      -1.18853974e+00     -8.21413058e-01     
H    1.61546617e+00      -1.15172396e+00     -7.94959980e-01     
H    1.95651952e-01      -2.12021980e+00     -3.72114792e-01     
C    4.23294708e-02      -1.09320015e+00     -2.25168208e+00     
O    -6.57824501e-01     -1.90349597e-01     -2.67197687e+00     
O    4.93216598e-01      -2.12133955e+00     -2.94707063e+00     
H    1.42517434e-01      -2.05832596e+00     -3.88447251e+00     
O    1.00638109e+00      2.05303624e+00      -1.52317642e+00     
H    5.27299521e-01      2.07649516e+00      -2.35659201e+00     
H    1.32817035e+00      2.94626183e+00      -1.37589145e+00     
O    1.06819916e+00      -6.63000135e-01     2.36907348e+00      
H    1.17253762e+00      -1.61229770e+00     2.53324456e+00      
H    1.26261257e+00      -2.08528498e-01     3.19001303e+00      
O    -2.71910349e+00     -4.28630586e-01     -4.92144010e-01     
H    -2.88586715e+00     -2.26421708e-01     -1.41759344e+00     
H    -3.54885657e+00     -2.73173566e-01     -3.33130266e-02     
O    -4.32933136e-01     -2.04887737e+00     -5.42118083e+00     
H    -7.09179170e-01     -1.22281807e+00     -5.82355635e+00     
H    -8.75912520e-02     -2.58675002e+00     -6.14075085e+00     
O    1.17607836e+00      -3.42655640e+00     2.24647766e+00      
H    5.31999134e-01      -3.99788107e+00     2.67119442e+00      
H    1.99706674e+00      -3.92419687e+00     2.25125943e+00      
26
183.967163
N    -1.20338956e-02     -5.47160685e-02     -5.10805613e-02     
H    -1.05173198e+00     -7.21712113e-02     -9.11715863e-02     
H    3.18794032e-01      8.37766666e-01      -4.72777087e-01     
H    3.24813627e-01      -1.49413919e-01     9.31501477e-01      
C    5.29099034e-01      -1.18866933e+00     -8.21377048e-01     
H    1.61518087e+00      -1.15215328e+00     -7.94771565e-01     
H    1.95142736e-01      -2.12028123e+00     -3.72122065e-01     
C    4.22636102e-02      -1.09322569e+00     -2.25170574e+00     
O    -6.57854336e-01     -1.90351096e-01     -2.67202891e+00     
O    4.93313528e-01      -2.12125453e+00     -2.94712438e+00     
H    1.42641707e-01      -2.05823981e+00     -3.88454476e+00     
O    1.00653847e+00      2.05297086e+00      -1.52307452e+00     
H    5.27851822e-01      2.07581040e+00      -2.35674584e+00     
H    1.32649502e+00      2.94679403e+00      -1.37532465e+00     
O    1.06725624e+00      -6.63328252e-01     2.36949085e+00      
H    1.17467742e+00      -1.61231009e+00     2.53344190e+00      
H    1.27694950e+00      -2.07199104e-01     3.18645866e+00      
O    -2.71930137e+00     -4.28806590e-01     -4.92208729e-01     
H    -2.88527946e+00     -2.26652121e-01     -1.41782213e+00     
H    -3.54884194e+00     -2.71009294e-01     -3.37432365e-02     
O    -4.32942056e-01     -2.04888132e+00     -5.42107669e+00     
H    -7.09119233e-01     -1.22280802e+00     -5.82347526e+00     
H    -8.74807882e-02     -2.58673653e+00     -6.14060719e+00     
O    1.17705968e+00      -3.42610763e+00     2.24614176e+00      
H    5.22731653e-01      -3.99435590e+00     2.66046860e+00      
H    1.99576467e+00      -3.92817223e+00     2.26375679e+00      
26
183.967163
N    -1.21377559e-02     -5.47169084e-02     -5.11050546e-02     
H    -1.05184347e+00     -7.21695043e-02     -9.08395652e-02     
H    3.18540191e-01      8.37691502e-01      -4.73097117e-01     
H    3.25105615e-01      -1.49095517e-01     9.31323494e-01      
C    5.28807119e-01      -1.18879892e+00     -8.21341037e-01     
H    1.61489556e+00      -1.15258259e+00     -7.94583149e-01     
H    1.94633520e-01      -2.12034265e+00     -3.72129338e-01     
C    4.21977496e-02      -1.09325124e+00     -2.25172940e+00     
O    -6.57884172e-01     -1.90352595e-01     -2.67208095e+00     
O    4.93410457e-01      -2.12116951e+00     -2.94717813e+00     
H    1.42765980e-01      -2.05815367e+00     -3.88461702e+00     
O    1.00669584e+00      2.05290548e+00      -1.52297261e+00     
H    5.28404124e-01      2.07512563e+00      -2.35689967e+00     
H    1.32481970e+00      2.94732623e+00      -1.37475784e+00     
O    1.06631333e+00      -6.63656369e-01     2.36990822e+00      
H    1.17681723e+00      -1.61232247e+00     2.53363923e+00      
H    1.29128643e+00      -2.05869710e-01     3.18290429e+00      
O    -2.71949925e+00     -4.28982595e-01     -4.92273448e-01     
H    -2.88469177e+00     -2.26882533e-01     -1.41805082e+00     
H    -3.54882732e+00     -2.68845021e-01     -3.41734465e-02     
O    -4.32950975e-01     -2.04888526e+00     -5.42097254e+00     
H    -7.09059296e-01     -1.22279796e+00     -5.82339417e+00     
H    -8.73703243e-02     -2.58672304e+00     -6.14046353e+00     
O    1.17804099e+00      -3.42565886e+00     2.24580586e+00      
H    5.13464172e-01      -3.99083072e+00     2.64974277e+00      
H    1.99446260e+00      -3.93214760e+00     2.27625415e+00      
26
183.967163
N    -1.22416161e-02     -5.47177482e-02     -5.11295479e-02     
H    -1.05195496e+00     -7.21677973e-02     -9.05075442e-02     
H    3.18286349e-01      8.37616339e-01      -4.73417147e-01     
H    3.25397604e-01      -1.48777115e-01     9.31145510e-01      
C    5.28515203e-01      -1.18892851e+00     -8.21305026e-01     
H    1.61461026e+00      -1.15301191e+00     -7.94394734e-01     
H    1.94124304e-01      -2.12040407e+00     -3.72136611e-01     
C    4.21318890e-02      -1.09327679e+00     -2.25175306e+00     
O    -6.57914007e-01     -1.90354093e-01     -2.67213299e+00     
O    4.93507387e-01      -2.12108450e+00     -2.94723188e+00     
H    1.42890254e-01      -2.05806752e+00     -3.88468927e+00     
O    1.00685321e+00      2.05284009e+00      -1.52287071e+00     
H    5.28956426e-01      2.07444086e+00      -2.35705351e+00     
H    1.32314438e+00      2.94785843e+00      -1.37419104e+00     
O    1.06537042e+00      -6.63984486e-01     2.37032560e+00      
H    1.17895703e+00      -1.61233486e+00     2.53383656e+00      
H    1.30562336e+00      -2.04540317e-01     3.17934992e+00      
O    -2.71969714e+00     -4.29158599e-01     -4.92338167e-01     
H    -2.88410408e+00     -2.27112946e-01     -1.41827952e+00     
H    -3.54881269e+00     -2.66680749e-01     -3.46036564e-02     
O    -4.32959895e-01     -2.04888920e+00     -5.42086840e+00     
H    -7.08999359e-01     -1.22278790e+00     -5.82331307e+00     
H    -8.72598605e-02     -2.58670955e+00     -6.14031986e+00     
O    1.17902230e+00      -3.42521008e+00     2.24546995e+00      
H    5.04196690e-01      -3.98730555e+00     2.63901695e+00      
H    1.99316052e+00      -3.93612296e+00     2.28875151e+00      
26
183.967163
N    -1.23454764e-02     -5.47185881e-02     -5.11540411e-02     
H    -1.05206645e+00     -7.21660904e-02     -9.01755231e-02     
H    3.18032508e-01      8.37541176e-01      -4.73737177e-01     
H    3.25689592e-01      -1.48458714e-01     9.30967526e-01      
C    5.28223288e-01      -1.18905810e+00     -8.21269015e-01     
H    1.61432496e+00      -1.15344122e+00     -7.94206319e-01     
H    1.93615089e-01      -2.12046549e+00     -3.72143884e-01     
C    4.20660284e-02      -1.09330234e+00     -2.25177671e+00     
O    -6.57943843e-01     -1.90355592e-01     -2.67218504e+00     
O    4.93604317e-01      -2.12099948e+00     -2.94728563e+00     
H    1.43014527e-01      -2.05798137e+00     -3.88476152e+00     
O    1.00701058e+00      2.05277471e+00      -1.52276880e+00     
H    5.29508728e-01      2.07375609e+00      -2.35720734e+00     
H    1.32146906e+00      2.94839063e+00      -1.37362423e+00     
O    1.06442751e+00      -6.64312604e-01     2.37074297e+00      
H    1.18109683e+00      -1.61234724e+00     2.53403389e+00      
H    1.31996029e+00      -2.03210923e-01     3.17579554e+00      
O    -2.71989502e+00     -4.29334603e-01     -4.92402886e-01     
H    -2.88351639e+00     -2.27343359e-01     -1.41850821e+00     
H    -3.54879807e+00     -2.64516477e-01     -3.50338663e-02     
O    -4.32968815e-01     -2.04889314e+00     -5.42076426e+00     
H    -7.08939422e-01     -1.22277784e+00     -5.82323198e+00     
H    -8.71493966e-02     -2.58669606e+00     -6.14017620e+00     
O    1.18000361e+00      -3.42476131e+00     2.24513405e+00      
H    4.94929209e-01      -3.98378037e+00     2.62829112e+00      
H    1.99185845e+00      -3.94009833e+00     2.30124888e+00      
26
183.967163
N    -1.25531969e-02     -5.47202678e-02     -5.12030277e-02     
H    -1.05228942e+00     -7.21626764e-02     -8.95114810e-02     
H    3.17524825e-01      8.37390850e-01      -4.74377238e-01     
H    3.26273568e-01      -1.47821910e-01     9.30611559e-01      
C    5.27639457e-01      -1.18931728e+00     -8.21196993e-01     
H    1.61375435e+00      -1.15429985e+00     -7.93829488e-01     
H    1.92596657e-01      -2.12058834e+00     -3.72158430e-01     
C    4.19343073e-02      -1.09335344e+00     -2.25182403e+00     
O    -6.58003514e-01     -1.90358590e-01     -2.67228912e+00     
O    4.93798177e-01      -2.12082945e+00     -2.94739312e+00     
H    1.43263073e-01      -2.05780908e+00     -3.88490603e+00     
O    1.00732533e+00      2.05264395e+00      -1.52256499e+00     
H    5.30613331e-01      2.07238656e+00      -2.35751501e+00     
H    1.31811841e+00      2.94945504e+00      -1.37249062e+00     
O    1.06254168e+00      -6.64968838e-01     2.37157772e+00      
H    1.18537643e+00      -1.61237201e+00     2.53442855e+00      
H    1.34863415e+00      -2.00552135e-01     3.16868680e+00      
O    -2.72029079e+00     -4.29686611e-01     -4.92532324e-01     
H    -2.88234101e+00     -2.27804185e-01     -1.41896560e+00     
H    -3.54876882e+00     -2.60187933e-01     -3.58942861e-02     
O    -4.32986655e-01     -2.04890103e+00     -5.42055597e+00     
H    -7.08819548e-01     -1.22275773e+00     -5.82306979e+00     
H    -8.69284689e-02     -2.58666908e+00     -6.13988887e+00     
O    1.18196623e+00      -3.42386376e+00     2.24446225e+00      
H    4.76394247e-01      -3.97673002e+00     2.60683947e+00      
H    1.98925430e+00      -3.94804906e+00     2.32624360e+00      
