26
207.963543
N    -2.53049178e-02     -3.51074297e-02     -5.33048696e-02     
H    -1.06599890e+00     -5.62407682e-02     -9.06690112e-02     
H    3.06447597e-01      8.57678428e-01      -4.76265754e-01     
H    3.13536992e-01      -1.27512542e-01     9.28207936e-01      
C    5.16891072e-01      -1.16943899e+00     -8.22565783e-01     
H    1.60289623e+00      -1.13124047e+00     -7.93822121e-01     
H    1.84595412e-01      -2.10015507e+00     -3.69694526e-01     
C    3.93518089e-02      -1.09227459e+00     -2.25859425e+00     
O    -6.60852365e-01     -2.00450523e-01     -2.70247717e+00     
O    5.01023946e-01      -2.12920718e+00     -2.93653004e+00     
H    1.60587156e-01      -2.07221056e+00     -3.87616346e+00     
O    1.00112501e+00      2.03472713e+00      -1.50734895e+00     
H    5.49797539e-01      2.03470571e+00      -2.35787764e+00     
H    1.27289834e+00      2.94440642e+00      -1.34761077e+00     
O    1.07837675e+00      -6.32151701e-01     2.38818242e+00      
H    1.17566426e+00      -1.58195443e+00     2.55195225e+00      
H    1.22923163e+00      -1.86545632e-01     3.22281436e+00      
O    -2.69608840e+00     -4.27618654e-01     -4.85123238e-01     
H    -2.85664310e+00     -2.45303210e-01     -1.41641213e+00     
H    -3.52214151e+00     -2.37421856e-01     -3.05339501e-02     
O    -4.30930573e-01     -2.04279342e+00     -5.43649996e+00     
H    -7.50993074e-01     -1.23244994e+00     -5.83902271e+00     
H    -1.85224633e-01     -2.61629581e+00     -6.17586106e+00     
O    1.17591600e+00      -3.45992237e+00     2.24735424e+00      
H    5.44392205e-01      -4.04411661e+00     2.67277248e+00      
H    1.99642065e+00      -3.95678366e+00     2.21974303e+00      
26
207.963543
N    -2.19092670e-02     -4.00089595e-02     -5.27304225e-02     
H    -1.06234855e+00     -6.02246592e-02     -9.10436708e-02     
H    3.09724587e-01      8.52756860e-01      -4.75153565e-01     
H    3.16137160e-01      -1.33226688e-01     9.29164809e-01      
C    5.20161999e-01      -1.17414939e+00     -8.22295607e-01     
H    1.60618136e+00      -1.13614668e+00     -7.94200794e-01     
H    1.87614155e-01      -2.10514054e+00     -3.70295956e-01     
C    4.01291547e-02      -1.09249321e+00     -2.25685438e+00     
O    -6.60080481e-01     -1.97924542e-01     -2.69482607e+00     
O    4.99023644e-01      -2.12728278e+00     -2.93913831e+00     
H    1.56007589e-01      -2.06878248e+00     -3.87820459e+00     
O    1.00236034e+00      2.03933710e+00      -1.51135677e+00     
H    5.43896884e-01      2.04549546e+00      -2.35747932e+00     
H    1.28755401e+00      2.94460417e+00      -1.35496435e+00     
O    1.07630381e+00      -6.39699751e-01     2.38319650e+00      
H    1.17381270e+00      -1.58953405e+00     2.54717666e+00      
H    1.23040840e+00      -1.92706045e-01     3.21639122e+00      
O    -2.70174323e+00     -4.27783635e-01     -4.86846072e-01     
H    -2.86424296e+00     -2.40467628e-01     -1.41659311e+00     
H    -3.52882759e+00     -2.47441920e-01     -3.10136142e-02     
O    -4.31426754e-01     -2.04431244e+00     -5.43272225e+00     
H    -7.40569566e-01     -1.23004700e+00     -5.83519667e+00     
H    -1.60871520e-01     -2.60891611e+00     -6.16715534e+00     
O    1.17546594e+00      -3.45180526e+00     2.24730304e+00      
H    5.45927678e-01      -4.03432031e+00     2.67774087e+00      
H    1.99723321e+00      -3.94664928e+00     2.22137345e+00      
26
207.963543
N    -2.02114417e-02     -4.24597244e-02     -5.24431990e-02     
H    -1.06052338e+00     -6.22166047e-02     -9.12310006e-02     
H    3.11363081e-01      8.50296076e-01      -4.74597470e-01     
H    3.17437243e-01      -1.36083760e-01     9.29643246e-01      
C    5.21797462e-01      -1.17650458e+00     -8.22160519e-01     
H    1.60782393e+00      -1.13859979e+00     -7.94390130e-01     
H    1.89123526e-01      -2.10763328e+00     -3.70596671e-01     
C    4.05178276e-02      -1.09260251e+00     -2.25598444e+00     
O    -6.59694540e-01     -1.96661552e-01     -2.69100052e+00     
O    4.98023493e-01      -2.12632058e+00     -2.94044245e+00     
H    1.53717805e-01      -2.06706844e+00     -3.87922516e+00     
O    1.00297801e+00      2.04164208e+00      -1.51336068e+00     
H    5.40946556e-01      2.05089033e+00      -2.35728016e+00     
H    1.29488184e+00      2.94470305e+00      -1.35864113e+00     
O    1.07526734e+00      -6.43473776e-01     2.38070354e+00      
H    1.17288692e+00      -1.59332387e+00     2.54478887e+00      
H    1.23099679e+00      -1.95786252e-01     3.21317964e+00      
O    -2.70457064e+00     -4.27866126e-01     -4.87707488e-01     
H    -2.86804289e+00     -2.38049837e-01     -1.41668360e+00     
H    -3.53217063e+00     -2.52451951e-01     -3.12534463e-02     
O    -4.31674844e-01     -2.04507195e+00     -5.43083340e+00     
H    -7.35357813e-01     -1.22884553e+00     -5.83328364e+00     
H    -1.48694963e-01     -2.60522625e+00     -6.16280248e+00     
O    1.17524090e+00      -3.44774671e+00     2.24727745e+00      
H    5.46695414e-01      -4.02942216e+00     2.68022507e+00      
H    1.99763949e+00      -3.94158209e+00     2.22218866e+00      
26
207.963543
N    -1.85136163e-02     -4.49104893e-02     -5.21559755e-02     
H    -1.05869821e+00     -6.42085502e-02     -9.14183303e-02     
H    3.13001576e-01      8.47835291e-01      -4.74041375e-01     
H    3.18737327e-01      -1.38940833e-01     9.30121682e-01      
C    5.23432926e-01      -1.17885978e+00     -8.22025432e-01     
H    1.60946650e+00      -1.14105290e+00     -7.94579466e-01     
H    1.90632897e-01      -2.11012602e+00     -3.70897386e-01     
C    4.09065005e-02      -1.09271182e+00     -2.25511451e+00     
O    -6.59308598e-01     -1.95398561e-01     -2.68717498e+00     
O    4.97023342e-01      -2.12535838e+00     -2.94174659e+00     
H    1.51428022e-01      -2.06535440e+00     -3.88024573e+00     
O    1.00359568e+00      2.04394707e+00      -1.51536459e+00     
H    5.37996228e-01      2.05628521e+00      -2.35708099e+00     
H    1.30220967e+00      2.94480193e+00      -1.36231792e+00     
O    1.07423087e+00      -6.47247801e-01     2.37821058e+00      
H    1.17196114e+00      -1.59711368e+00     2.54240108e+00      
H    1.23158517e+00      -1.98866459e-01     3.20996807e+00      
O    -2.70739806e+00     -4.27948616e-01     -4.88568905e-01     
H    -2.87184281e+00     -2.35632046e-01     -1.41677409e+00     
H    -3.53551367e+00     -2.57461983e-01     -3.14932784e-02     
O    -4.31922935e-01     -2.04583145e+00     -5.42894454e+00     
H    -7.30146059e-01     -1.22764406e+00     -5.83137062e+00     
H    -1.36518406e-01     -2.60153640e+00     -6.15844962e+00     
O    1.17501587e+00      -3.44368816e+00     2.24725185e+00      
H    5.47463150e-01      -4.02452401e+00     2.68270927e+00      
H    1.99804577e+00      -3.93651490e+00     2.22300387e+00      
26
207.963543
N    -1.68157909e-02     -4.73612542e-02     -5.18687520e-02     
H    -1.05687304e+00     -6.62004957e-02     -9.16056601e-02     
H    3.14640071e-01      8.45374507e-01      -4.73485280e-01     
H    3.20037411e-01      -1.41797906e-01     9.30600119e-01      
C    5.25068389e-01      -1.18121497e+00     -8.21890344e-01     
H    1.61110907e+00      -1.14350601e+00     -7.94768802e-01     
H    1.92142269e-01      -2.11261875e+00     -3.71198101e-01     
C    4.12951733e-02      -1.09282113e+00     -2.25424457e+00     
O    -6.58922656e-01     -1.94135571e-01     -2.68334943e+00     
O    4.96023191e-01      -2.12439618e+00     -2.94305072e+00     
H    1.49138238e-01      -2.06364037e+00     -3.88126630e+00     
O    1.00421335e+00      2.04625205e+00      -1.51736850e+00     
H    5.35045900e-01      2.06168008e+00      -2.35688183e+00     
H    1.30953750e+00      2.94490080e+00      -1.36599470e+00     
O    1.07319440e+00      -6.51021826e-01     2.37571761e+00      
H    1.17103536e+00      -1.60090349e+00     2.54001328e+00      
H    1.23217356e+00      -2.01946666e-01     3.20675650e+00      
O    -2.71022547e+00     -4.28031107e-01     -4.89430322e-01     
H    -2.87564274e+00     -2.33214255e-01     -1.41686458e+00     
H    -3.53885670e+00     -2.62472015e-01     -3.17331105e-02     
O    -4.32171025e-01     -2.04659096e+00     -5.42705569e+00     
H    -7.24934305e-01     -1.22644259e+00     -5.82945760e+00     
H    -1.24341850e-01     -2.59784655e+00     -6.15409676e+00     
O    1.17479084e+00      -3.43962961e+00     2.24722625e+00      
H    5.48230887e-01      -4.01962586e+00     2.68519347e+00      
H    1.99845205e+00      -3.93144771e+00     2.22381907e+00      
26
207.963543
N    -1.51179655e-02     -4.98120191e-02     -5.15815284e-02     
H    -1.05504786e+00     -6.81924412e-02     -9.17929899e-02     
H    3.16278566e-01      8.42913723e-01      -4.72929186e-01     
H    3.21337495e-01      -1.44654979e-01     9.31078555e-01      
C    5.26703853e-01      -1.18357017e+00     -8.21755256e-01     
H    1.61275164e+00      -1.14595911e+00     -7.94958139e-01     
H    1.93651640e-01      -2.11511149e+00     -3.71498816e-01     
C    4.16838462e-02      -1.09293044e+00     -2.25337463e+00     
O    -6.58536714e-01     -1.92872581e-01     -2.67952388e+00     
O    4.95023040e-01      -2.12343398e+00     -2.94435486e+00     
H    1.46848455e-01      -2.06192633e+00     -3.88228686e+00     
O    1.00483101e+00      2.04855703e+00      -1.51937241e+00     
H    5.32095573e-01      2.06707495e+00      -2.35668267e+00     
H    1.31686533e+00      2.94499968e+00      -1.36967149e+00     
O    1.07215792e+00      -6.54795851e-01     2.37322465e+00      
H    1.17010958e+00      -1.60469330e+00     2.53762549e+00      
H    1.23276194e+00      -2.05026872e-01     3.20354493e+00      
O    -2.71305289e+00     -4.28113597e-01     -4.90291739e-01     
H    -2.87944267e+00     -2.30796464e-01     -1.41695507e+00     
H    -3.54219974e+00     -2.67482047e-01     -3.19729426e-02     
O    -4.32419115e-01     -2.04735047e+00     -5.42516683e+00     
H    -7.19722551e-01     -1.22524113e+00     -5.82754458e+00     
H    -1.12165293e-01     -2.59415670e+00     -6.14974390e+00     
O    1.17456581e+00      -3.43557105e+00     2.24720065e+00      
H    5.48998623e-01      -4.01472772e+00     2.68767767e+00      
H    1.99885833e+00      -3.92638052e+00     2.22463428e+00      
26
207.963543
N    -1.42690529e-02     -5.10374015e-02     -5.14379167e-02     
H    -1.05413528e+00     -6.91884140e-02     -9.18866547e-02     
H    3.17097814e-01      8.41683331e-01      -4.72651138e-01     
H    3.21987537e-01      -1.46083515e-01     9.31317773e-01      
C    5.27521585e-01      -1.18474777e+00     -8.21687712e-01     
H    1.61357293e+00      -1.14718567e+00     -7.95052807e-01     
H    1.94406326e-01      -2.11635786e+00     -3.71649173e-01     
C    4.18781827e-02      -1.09298509e+00     -2.25293966e+00     
O    -6.58343743e-01     -1.92241086e-01     -2.67761110e+00     
O    4.94522965e-01      -2.12295288e+00     -2.94500693e+00     
H    1.45703563e-01      -2.06106931e+00     -3.88279715e+00     
O    1.00513985e+00      2.04970952e+00      -1.52037437e+00     
H    5.30620409e-01      2.06977239e+00      -2.35658308e+00     
H    1.32052924e+00      2.94504912e+00      -1.37150988e+00     
O    1.07163969e+00      -6.56682864e-01     2.37197817e+00      
H    1.16964669e+00      -1.60658821e+00     2.53643159e+00      
H    1.23305613e+00      -2.06566976e-01     3.20193914e+00      
O    -2.71446660e+00     -4.28154842e-01     -4.90722447e-01     
H    -2.88134264e+00     -2.29587568e-01     -1.41700032e+00     
H    -3.54387126e+00     -2.69987062e-01     -3.20928587e-02     
O    -4.32543160e-01     -2.04773023e+00     -5.42422240e+00     
H    -7.17116675e-01     -1.22464039e+00     -5.82658807e+00     
H    -1.06077015e-01     -2.59231178e+00     -6.14756747e+00     
O    1.17445329e+00      -3.43354178e+00     2.24718786e+00      
H    5.49382491e-01      -4.01227864e+00     2.68891977e+00      
H    1.99906147e+00      -3.92384692e+00     2.22504189e+00      
26
207.963543
N    -1.34201402e-02     -5.22627840e-02     -5.12943049e-02     
H    -1.05322269e+00     -7.01843867e-02     -9.19803196e-02     
H    3.17917061e-01      8.40452939e-01      -4.72373091e-01     
H    3.22637579e-01      -1.47512051e-01     9.31556992e-01      
C    5.28339316e-01      -1.18592536e+00     -8.21620168e-01     
H    1.61439421e+00      -1.14841222e+00     -7.95147475e-01     
H    1.95161012e-01      -2.11760422e+00     -3.71799531e-01     
C    4.20725191e-02      -1.09303974e+00     -2.25250470e+00     
O    -6.58150772e-01     -1.91609590e-01     -2.67569833e+00     
O    4.94022889e-01      -2.12247178e+00     -2.94565899e+00     
H    1.44558671e-01      -2.06021229e+00     -3.88330743e+00     
O    1.00544868e+00      2.05086202e+00      -1.52137632e+00     
H    5.29145245e-01      2.07246983e+00      -2.35648350e+00     
H    1.32419316e+00      2.94509855e+00      -1.37334827e+00     
O    1.07112145e+00      -6.58569876e-01     2.37073169e+00      
H    1.16918380e+00      -1.60848312e+00     2.53523769e+00      
H    1.23335033e+00      -2.08107079e-01     3.20033335e+00      
O    -2.71588030e+00     -4.28196088e-01     -4.91153155e-01     
H    -2.88324260e+00     -2.28378673e-01     -1.41704556e+00     
H    -3.54554278e+00     -2.72492078e-01     -3.22127747e-02     
O    -4.32667206e-01     -2.04810998e+00     -5.42327798e+00     
H    -7.14510798e-01     -1.22403966e+00     -5.82563156e+00     
H    -9.99887364e-02     -2.59046685e+00     -6.14539104e+00     
O    1.17434077e+00      -3.43151250e+00     2.24717506e+00      
H    5.49766360e-01      -4.00982957e+00     2.69016187e+00      
H    1.99926461e+00      -3.92131333e+00     2.22544949e+00      
26
207.963543
N    -1.00244894e-02     -5.71643138e-02     -5.07198579e-02     
H    -1.04957235e+00     -7.41682777e-02     -9.23549792e-02     
H    3.21194051e-01      8.35531371e-01      -4.71260901e-01     
H    3.25237747e-01      -1.53226197e-01     9.32513864e-01      
C    5.31610244e-01      -1.19063576e+00     -8.21349992e-01     
H    1.61767935e+00      -1.15331844e+00     -7.95526147e-01     
H    1.98179754e-01      -2.12258970e+00     -3.72400961e-01     
C    4.28498649e-02      -1.09325836e+00     -2.25076482e+00     
O    -6.57378888e-01     -1.89083610e-01     -2.66804723e+00     
O    4.92022587e-01      -2.12054738e+00     -2.94826727e+00     
H    1.39979105e-01      -2.05678421e+00     -3.88534857e+00     
O    1.00668402e+00      2.05547198e+00      -1.52538414e+00     
H    5.23244589e-01      2.08325957e+00      -2.35608518e+00     
H    1.33884882e+00      2.94529631e+00      -1.38070185e+00     
O    1.06904851e+00      -6.66117926e-01     2.36574577e+00      
H    1.16733224e+00      -1.61606274e+00     2.53046211e+00      
H    1.23452709e+00      -2.14267493e-01     3.19391021e+00      
O    -2.72153514e+00     -4.28361068e-01     -4.92875989e-01     
H    -2.89084246e+00     -2.23543091e-01     -1.41722654e+00     
H    -3.55222886e+00     -2.82512142e-01     -3.26924389e-02     
O    -4.33163386e-01     -2.04962900e+00     -5.41950026e+00     
H    -7.04087290e-01     -1.22163672e+00     -5.82180552e+00     
H    -7.56356230e-02     -2.58308715e+00     -6.13668532e+00     
O    1.17389071e+00      -3.42339540e+00     2.24712386e+00      
H    5.51301832e-01      -4.00003327e+00     2.69513027e+00      
H    2.00007717e+00      -3.91117895e+00     2.22707991e+00      
26
207.963543
N    -9.17557674e-03     -5.83896963e-02     -5.05762461e-02     
H    -1.04865976e+00     -7.51642504e-02     -9.24486441e-02     
H    3.22013298e-01      8.34300979e-01      -4.70982854e-01     
H    3.25887789e-01      -1.54654733e-01     9.32753083e-01      
C    5.32427975e-01      -1.19181335e+00     -8.21282448e-01     
H    1.61850063e+00      -1.15454499e+00     -7.95620815e-01     
H    1.98934440e-01      -2.12383606e+00     -3.72551319e-01     
C    4.30442013e-02      -1.09331301e+00     -2.25032986e+00     
O    -6.57185917e-01     -1.88452114e-01     -2.66613446e+00     
O    4.91522511e-01      -2.12006628e+00     -2.94891933e+00     
H    1.38834213e-01      -2.05592719e+00     -3.88585885e+00     
O    1.00699285e+00      2.05662448e+00      -1.52638609e+00     
H    5.21769425e-01      2.08595701e+00      -2.35598560e+00     
H    1.34251274e+00      2.94534574e+00      -1.38254024e+00     
O    1.06853027e+00      -6.68004938e-01     2.36449929e+00      
H    1.16686935e+00      -1.61795765e+00     2.52926821e+00      
H    1.23482129e+00      -2.15807596e-01     3.19230442e+00      
O    -2.72294884e+00     -4.28402314e-01     -4.93306697e-01     
H    -2.89274242e+00     -2.22334196e-01     -1.41727178e+00     
H    -3.55390038e+00     -2.85017158e-01     -3.28123549e-02     
O    -4.33287432e-01     -2.05000875e+00     -5.41855584e+00     
H    -7.01481413e-01     -1.22103599e+00     -5.82084901e+00     
H    -6.95473447e-02     -2.58124222e+00     -6.13450889e+00     
O    1.17377819e+00      -3.42136612e+00     2.24711106e+00      
H    5.51685701e-01      -3.99758420e+00     2.69637237e+00      
H    2.00028031e+00      -3.90864536e+00     2.22748751e+00      
26
207.963543
N    -8.32666405e-03     -5.96150787e-02     -5.04326344e-02     
H    -1.04774718e+00     -7.61602232e-02     -9.25423089e-02     
H    3.22832546e-01      8.33070587e-01      -4.70704806e-01     
H    3.26537831e-01      -1.56083269e-01     9.32992301e-01      
C    5.33245707e-01      -1.19299095e+00     -8.21214904e-01     
H    1.61932192e+00      -1.15577155e+00     -7.95715483e-01     
H    1.99689126e-01      -2.12508243e+00     -3.72701676e-01     
C    4.32385378e-02      -1.09336766e+00     -2.24989489e+00     
O    -6.56992946e-01     -1.87820619e-01     -2.66422168e+00     
O    4.91022436e-01      -2.11958518e+00     -2.94957140e+00     
H    1.37689321e-01      -2.05507017e+00     -3.88636914e+00     
O    1.00730169e+00      2.05777697e+00      -1.52738805e+00     
H    5.20294261e-01      2.08865445e+00      -2.35588601e+00     
H    1.34617665e+00      2.94539518e+00      -1.38437863e+00     
O    1.06801204e+00      -6.69891951e-01     2.36325281e+00      
H    1.16640646e+00      -1.61985256e+00     2.52807431e+00      
H    1.23511548e+00      -2.17347700e-01     3.19069863e+00      
O    -2.72436255e+00     -4.28443559e-01     -4.93737405e-01     
H    -2.89464239e+00     -2.21125300e-01     -1.41731703e+00     
H    -3.55557190e+00     -2.87522173e-01     -3.29322710e-02     
O    -4.33411477e-01     -2.05038851e+00     -5.41761141e+00     
H    -6.98875537e-01     -1.22043525e+00     -5.81989250e+00     
H    -6.34590664e-02     -2.57939730e+00     -6.13233246e+00     
O    1.17366567e+00      -3.41933685e+00     2.24709827e+00      
H    5.52069569e-01      -3.99513512e+00     2.69761447e+00      
H    2.00048345e+00      -3.90611176e+00     2.22789512e+00      
26
207.963543
N    -6.62883868e-03     -6.20658436e-02     -5.01454108e-02     
H    -1.04592200e+00     -7.81521687e-02     -9.27296387e-02     
H    3.24471041e-01      8.30609803e-01      -4.70148712e-01     
H    3.27837915e-01      -1.58940342e-01     9.33470737e-01      
C    5.34881171e-01      -1.19534615e+00     -8.21079816e-01     
H    1.62096449e+00      -1.15822465e+00     -7.95904820e-01     
H    2.01198497e-01      -2.12757517e+00     -3.73002391e-01     
C    4.36272107e-02      -1.09347697e+00     -2.24902495e+00     
O    -6.56607004e-01     -1.86557629e-01     -2.66039613e+00     
O    4.90022285e-01      -2.11862298e+00     -2.95087554e+00     
H    1.35399538e-01      -2.05335613e+00     -3.88738970e+00     
O    1.00791935e+00      2.06008195e+00      -1.52939196e+00     
H    5.17343934e-01      2.09404932e+00      -2.35568685e+00     
H    1.35350448e+00      2.94549406e+00      -1.38805542e+00     
O    1.06697556e+00      -6.73665976e-01     2.36075985e+00      
H    1.16548068e+00      -1.62364237e+00     2.52568652e+00      
H    1.23570386e+00      -2.20427906e-01     3.18748706e+00      
O    -2.72718997e+00     -4.28526049e-01     -4.94598822e-01     
H    -2.89844232e+00     -2.18707509e-01     -1.41740752e+00     
H    -3.55891494e+00     -2.92532205e-01     -3.31721031e-02     
O    -4.33659567e-01     -2.05114802e+00     -5.41572255e+00     
H    -6.93663783e-01     -1.21923379e+00     -5.81797948e+00     
H    -5.12825097e-02     -2.57570745e+00     -6.12797960e+00     
O    1.17344064e+00      -3.41527829e+00     2.24707267e+00      
H    5.52837305e-01      -3.99023698e+00     2.70009867e+00      
H    2.00088973e+00      -3.90104457e+00     2.22871033e+00      
26
207.963543
N    -4.93101331e-03     -6.45166085e-02     -4.98581873e-02     
H    -1.04409683e+00     -8.01441142e-02     -9.29169685e-02     
H    3.26109536e-01      8.28149019e-01      -4.69592617e-01     
H    3.29137999e-01      -1.61797415e-01     9.33949174e-01      
C    5.36516634e-01      -1.19770134e+00     -8.20944728e-01     
H    1.62260706e+00      -1.16067776e+00     -7.96094156e-01     
H    2.02707869e-01      -2.13006790e+00     -3.73303106e-01     
C    4.40158835e-02      -1.09358628e+00     -2.24815501e+00     
O    -6.56221062e-01     -1.85294639e-01     -2.65657058e+00     
O    4.89022134e-01      -2.11766078e+00     -2.95217967e+00     
H    1.33109754e-01      -2.05164210e+00     -3.88841027e+00     
O    1.00853702e+00      2.06238693e+00      -1.53139587e+00     
H    5.14393606e-01      2.09944419e+00      -2.35548769e+00     
H    1.36083231e+00      2.94559293e+00      -1.39173220e+00     
O    1.06593909e+00      -6.77440001e-01     2.35826688e+00      
H    1.16455490e+00      -1.62743218e+00     2.52329872e+00      
H    1.23629225e+00      -2.23508113e-01     3.18427549e+00      
O    -2.73001738e+00     -4.28608540e-01     -4.95460239e-01     
H    -2.90224225e+00     -2.16289718e-01     -1.41749801e+00     
H    -3.56225797e+00     -2.97542237e-01     -3.34119352e-02     
O    -4.33907657e-01     -2.05190753e+00     -5.41383370e+00     
H    -6.88452029e-01     -1.21803232e+00     -5.81606646e+00     
H    -3.91059531e-02     -2.57201760e+00     -6.12362674e+00     
O    1.17321561e+00      -3.41121974e+00     2.24704707e+00      
H    5.53605042e-01      -3.98533883e+00     2.70258287e+00      
H    2.00129601e+00      -3.89597738e+00     2.22952553e+00      
26
207.963543
N    -3.23318793e-03     -6.69673734e-02     -4.95709638e-02     
H    -1.04227166e+00     -8.21360597e-02     -9.31042982e-02     
H    3.27748031e-01      8.25688234e-01      -4.69036522e-01     
H    3.30438083e-01      -1.64654488e-01     9.34427610e-01      
C    5.38152098e-01      -1.20005654e+00     -8.20809641e-01     
H    1.62424963e+00      -1.16313087e+00     -7.96283492e-01     
H    2.04217240e-01      -2.13256064e+00     -3.73603821e-01     
C    4.44045564e-02      -1.09369559e+00     -2.24728508e+00     
O    -6.55835120e-01     -1.84031648e-01     -2.65274504e+00     
O    4.88021983e-01      -2.11669858e+00     -2.95348381e+00     
H    1.30819971e-01      -2.04992806e+00     -3.88943084e+00     
O    1.00915469e+00      2.06469192e+00      -1.53339978e+00     
H    5.11443278e-01      2.10483907e+00      -2.35528852e+00     
H    1.36816014e+00      2.94569181e+00      -1.39540899e+00     
O    1.06490262e+00      -6.81214026e-01     2.35577392e+00      
H    1.16362912e+00      -1.63122199e+00     2.52091093e+00      
H    1.23688063e+00      -2.26588320e-01     3.18106392e+00      
O    -2.73284480e+00     -4.28691030e-01     -4.96321656e-01     
H    -2.90604217e+00     -2.13871927e-01     -1.41758850e+00     
H    -3.56560101e+00     -3.02552269e-01     -3.36517673e-02     
O    -4.34155748e-01     -2.05266703e+00     -5.41194484e+00     
H    -6.83240275e-01     -1.21683085e+00     -5.81415344e+00     
H    -2.69293964e-02     -2.56832775e+00     -6.11927388e+00     
O    1.17299058e+00      -3.40716119e+00     2.24702147e+00      
H    5.54372778e-01      -3.98044068e+00     2.70506707e+00      
H    2.00170229e+00      -3.89091019e+00     2.23034074e+00      
26
207.963543
N    -1.53536256e-03     -6.94181383e-02     -4.92837403e-02     
H    -1.04044649e+00     -8.41280052e-02     -9.32916280e-02     
H    3.29386525e-01      8.23227450e-01      -4.68480427e-01     
H    3.31738166e-01      -1.67511560e-01     9.34906047e-01      
C    5.39787561e-01      -1.20241173e+00     -8.20674553e-01     
H    1.62589220e+00      -1.16558398e+00     -7.96472828e-01     
H    2.05726611e-01      -2.13505338e+00     -3.73904536e-01     
C    4.47932293e-02      -1.09380489e+00     -2.24641514e+00     
O    -6.55449179e-01     -1.82768658e-01     -2.64891949e+00     
O    4.87021832e-01      -2.11573638e+00     -2.95478795e+00     
H    1.28530187e-01      -2.04821402e+00     -3.89045141e+00     
O    1.00977236e+00      2.06699690e+00      -1.53540369e+00     
H    5.08492950e-01      2.11023394e+00      -2.35508936e+00     
H    1.37548797e+00      2.94579069e+00      -1.39908577e+00     
O    1.06386615e+00      -6.84988051e-01     2.35328096e+00      
H    1.16270334e+00      -1.63501181e+00     2.51852314e+00      
H    1.23746902e+00      -2.29668527e-01     3.17785234e+00      
O    -2.73567221e+00     -4.28773521e-01     -4.97183072e-01     
H    -2.90984210e+00     -2.11454136e-01     -1.41767899e+00     
H    -3.56894405e+00     -3.07562300e-01     -3.38915994e-02     
O    -4.34403838e-01     -2.05342654e+00     -5.41005599e+00     
H    -6.78028522e-01     -1.21562938e+00     -5.81224041e+00     
H    -1.47528398e-02     -2.56463789e+00     -6.11492102e+00     
O    1.17276554e+00      -3.40310264e+00     2.24699588e+00      
H    5.55140514e-01      -3.97554253e+00     2.70755127e+00      
H    2.00210857e+00      -3.88584300e+00     2.23115595e+00      
26
207.963543
N    1.86028818e-03      -7.43196681e-02     -4.87092932e-02     
H    -1.03679614e+00     -8.81118962e-02     -9.36662876e-02     
H    3.32663515e-01      8.18305882e-01      -4.67368238e-01     
H    3.34338334e-01      -1.73225706e-01     9.35862920e-01      
C    5.43058488e-01      -1.20712213e+00     -8.20404377e-01     
H    1.62917733e+00      -1.17049019e+00     -7.96851501e-01     
H    2.08745354e-01      -2.14003885e+00     -3.74505966e-01     
C    4.55705751e-02      -1.09402351e+00     -2.24467527e+00     
O    -6.54677295e-01     -1.80242677e-01     -2.64126839e+00     
O    4.85021530e-01      -2.11381198e+00     -2.95739622e+00     
H    1.23950620e-01      -2.04478594e+00     -3.89249254e+00     
O    1.01100769e+00      2.07160687e+00      -1.53941151e+00     
H    5.02592295e-01      2.12102369e+00      -2.35469104e+00     
H    1.39014364e+00      2.94598844e+00      -1.40643935e+00     
O    1.06179321e+00      -6.92536101e-01     2.34829504e+00      
H    1.16085178e+00      -1.64259143e+00     2.51374755e+00      
H    1.23864579e+00      -2.35828940e-01     3.17142920e+00      
O    -2.74132704e+00     -4.28938502e-01     -4.98905906e-01     
H    -2.91744196e+00     -2.06618554e-01     -1.41785997e+00     
H    -3.57563013e+00     -3.17582364e-01     -3.43712635e-02     
O    -4.34900019e-01     -2.05494556e+00     -5.40627828e+00     
H    -6.67605014e-01     -1.21322644e+00     -5.80841437e+00     
H    9.60027352e-03      -2.55725819e+00     -6.10621530e+00     
O    1.17231548e+00      -3.39498553e+00     2.24694468e+00      
H    5.56675987e-01      -3.96574623e+00     2.71251966e+00      
H    2.00292113e+00      -3.87570862e+00     2.23278637e+00      
