26
497.050314
N    -1.35118575e-02     -4.97109067e-02     -5.55171167e-02     
H    -1.05312426e+00     -6.14726528e-02     -1.05419625e-01     
H    3.29209860e-01      8.43035413e-01      -4.67347470e-01     
H    3.13594018e-01      -1.66575447e-01     9.28449312e-01      
C    5.28766889e-01      -1.18514357e+00     -8.22425336e-01     
H    1.61449539e+00      -1.14949813e+00     -7.89928426e-01     
H    1.92151780e-01      -2.11340722e+00     -3.68676972e-01     
C    4.44447129e-02      -1.09363566e+00     -2.25161566e+00     
O    -6.57170001e-01     -1.90234648e-01     -2.66845816e+00     
O    4.92969082e-01      -2.12257597e+00     -2.94720234e+00     
H    1.41306599e-01      -2.05985246e+00     -3.88416094e+00     
O    1.00476238e+00      2.05172616e+00      -1.52452748e+00     
H    5.33366006e-01      2.08669204e+00      -2.36191790e+00     
H    1.32890045e+00      2.94185643e+00      -1.36333574e+00     
O    1.07261086e+00      -6.75397677e-01     2.36890126e+00      
H    1.19117176e+00      -1.59982703e+00     2.66202238e+00      
H    1.19546733e+00      -9.01572127e-02     3.13300228e+00      
O    -2.71866467e+00     -4.29051653e-01     -4.91122276e-01     
H    -2.88097759e+00     -2.17957595e-01     -1.41556419e+00     
H    -3.55054093e+00     -2.77227970e-01     -3.49486614e-02     
O    -4.32815034e-01     -2.04885280e+00     -5.42119869e+00     
H    -7.09020778e-01     -1.22269022e+00     -5.82335751e+00     
H    -8.75582503e-02     -2.58658730e+00     -6.14090383e+00     
O    1.17416168e+00      -3.42803066e+00     2.24176785e+00      
H    5.51806169e-01      -3.98986623e+00     2.70966781e+00      
H    1.99854648e+00      -3.91985315e+00     2.23908814e+00      
26
497.050314
N    -1.30644718e-02     -5.09615673e-02     -5.43896079e-02     
H    -1.05269257e+00     -6.41485726e-02     -1.02106631e-01     
H    3.26796284e-01      8.41774598e-01      -4.68464852e-01     
H    3.16179929e-01      -1.62523866e-01     9.29345841e-01      
C    5.29068862e-01      -1.18592782e+00     -8.22190272e-01     
H    1.61488074e+00      -1.14983993e+00     -7.91280523e-01     
H    1.93281431e-01      -2.11507966e+00     -3.69532791e-01     
C    4.39488326e-02      -1.09351401e+00     -2.25162043e+00     
O    -6.57318708e-01     -1.90262636e-01     -2.66931182e+00     
O    4.92982496e-01      -2.12230937e+00     -2.94714254e+00     
H    1.41547171e-01      -2.05951391e+00     -3.88420271e+00     
O    1.00508837e+00      2.05208637e+00      -1.52424066e+00     
H    5.31573234e-01      2.08448521e+00      -2.36050951e+00     
H    1.32955558e+00      2.94269168e+00      -1.36675807e+00     
O    1.07197939e+00      -6.72134233e-01     2.36873563e+00      
H    1.18544333e+00      -1.60293851e+00     2.62972926e+00      
H    1.20508517e+00      -1.20414731e-01     3.14903216e+00      
O    -2.71867543e+00     -4.28858384e-01     -4.91345350e-01     
H    -2.88249383e+00     -2.19958417e-01     -1.41595715e+00     
H    -3.55012716e+00     -2.77296505e-01     -3.43246477e-02     
O    -4.32840100e-01     -2.04885698e+00     -5.42124630e+00     
H    -7.09090344e-01     -1.22272721e+00     -5.82344777e+00     
H    -8.76217326e-02     -2.58663472e+00     -6.14093742e+00     
O    1.17415019e+00      -3.42788649e+00     2.24311325e+00      
H    5.51488150e-01      -3.99363252e+00     2.70541237e+00      
H    1.99882758e+00      -3.91895140e+00     2.23588228e+00      
26
497.050314
N    -1.28407790e-02     -5.15868975e-02     -5.38258535e-02     
H    -1.05247673e+00     -6.54865326e-02     -1.00450134e-01     
H    3.25589496e-01      8.41144191e-01      -4.69023542e-01     
H    3.17472885e-01      -1.60498076e-01     9.29794105e-01      
C    5.29219848e-01      -1.18631994e+00     -8.22072740e-01     
H    1.61507341e+00      -1.15001083e+00     -7.91956571e-01     
H    1.93846256e-01      -2.11591587e+00     -3.69960700e-01     
C    4.37008925e-02      -1.09345318e+00     -2.25162282e+00     
O    -6.57393062e-01     -1.90276630e-01     -2.66973864e+00     
O    4.92989203e-01      -2.12217607e+00     -2.94711264e+00     
H    1.41667457e-01      -2.05934463e+00     -3.88422359e+00     
O    1.00525137e+00      2.05226647e+00      -1.52409726e+00     
H    5.30676848e-01      2.08338179e+00      -2.35980531e+00     
H    1.32988315e+00      2.94310930e+00      -1.36846923e+00     
O    1.07166366e+00      -6.70502511e-01     2.36865281e+00      
H    1.18257911e+00      -1.60449424e+00     2.61358270e+00      
H    1.20989410e+00      -1.35543490e-01     3.15704709e+00      
O    -2.71868081e+00     -4.28761750e-01     -4.91456887e-01     
H    -2.88325194e+00     -2.20958828e-01     -1.41615364e+00     
H    -3.54992027e+00     -2.77330773e-01     -3.40126409e-02     
O    -4.32852632e-01     -2.04885906e+00     -5.42127010e+00     
H    -7.09125127e-01     -1.22274571e+00     -5.82349290e+00     
H    -8.76534738e-02     -2.58665843e+00     -6.14095421e+00     
O    1.17414445e+00      -3.42781440e+00     2.24378595e+00      
H    5.51329141e-01      -3.99551567e+00     2.70328466e+00      
H    1.99896813e+00      -3.91850052e+00     2.23427935e+00      
26
497.050314
N    -1.26170861e-02     -5.22122278e-02     -5.32620991e-02     
H    -1.05226089e+00     -6.68244925e-02     -9.87936374e-02     
H    3.24382708e-01      8.40513784e-01      -4.69582233e-01     
H    3.18765841e-01      -1.58472285e-01     9.30242370e-01      
C    5.29370834e-01      -1.18671207e+00     -8.21955208e-01     
H    1.61526609e+00      -1.15018173e+00     -7.92632619e-01     
H    1.94411082e-01      -2.11675209e+00     -3.70388609e-01     
C    4.34529524e-02      -1.09339235e+00     -2.25162521e+00     
O    -6.57467415e-01     -1.90290624e-01     -2.67016547e+00     
O    4.92995910e-01      -2.12204277e+00     -2.94708274e+00     
H    1.41787743e-01      -2.05917535e+00     -3.88424447e+00     
O    1.00541436e+00      2.05244658e+00      -1.52395385e+00     
H    5.29780461e-01      2.08227837e+00      -2.35910112e+00     
H    1.33021072e+00      2.94352693e+00      -1.37018040e+00     
O    1.07134792e+00      -6.68870789e-01     2.36857000e+00      
H    1.17971489e+00      -1.60604998e+00     2.59743614e+00      
H    1.21470302e+00      -1.50672249e-01     3.16506203e+00      
O    -2.71868619e+00     -4.28665115e-01     -4.91568424e-01     
H    -2.88401006e+00     -2.21959238e-01     -1.41635012e+00     
H    -3.54971338e+00     -2.77365040e-01     -3.37006341e-02     
O    -4.32865165e-01     -2.04886115e+00     -5.42129391e+00     
H    -7.09159911e-01     -1.22276421e+00     -5.82353803e+00     
H    -8.76852150e-02     -2.58668215e+00     -6.14097100e+00     
O    1.17413871e+00      -3.42774231e+00     2.24445865e+00      
H    5.51170132e-01      -3.99739882e+00     2.70115694e+00      
H    1.99910869e+00      -3.91804965e+00     2.23267642e+00      
26
497.050314
N    -1.23933933e-02     -5.28375581e-02     -5.26983447e-02     
H    -1.05204505e+00     -6.81624524e-02     -9.71371404e-02     
H    3.23175920e-01      8.39883377e-01      -4.70140924e-01     
H    3.20058796e-01      -1.56446495e-01     9.30690634e-01      
C    5.29521821e-01      -1.18710419e+00     -8.21837676e-01     
H    1.61545876e+00      -1.15035263e+00     -7.93308667e-01     
H    1.94975907e-01      -2.11758831e+00     -3.70816518e-01     
C    4.32050123e-02      -1.09333153e+00     -2.25162760e+00     
O    -6.57541769e-01     -1.90304618e-01     -2.67059230e+00     
O    4.93002617e-01      -2.12190947e+00     -2.94705283e+00     
H    1.41908030e-01      -2.05900608e+00     -3.88426535e+00     
O    1.00557736e+00      2.05262668e+00      -1.52381045e+00     
H    5.28884075e-01      2.08117495e+00      -2.35839692e+00     
H    1.33053829e+00      2.94394455e+00      -1.37189156e+00     
O    1.07103219e+00      -6.67239067e-01     2.36848718e+00      
H    1.17685067e+00      -1.60760572e+00     2.58128958e+00      
H    1.21951194e+00      -1.65801008e-01     3.17307697e+00      
O    -2.71869158e+00     -4.28568481e-01     -4.91679961e-01     
H    -2.88476818e+00     -2.22959649e-01     -1.41654660e+00     
H    -3.54950649e+00     -2.77399308e-01     -3.33886273e-02     
O    -4.32877698e-01     -2.04886323e+00     -5.42131771e+00     
H    -7.09194694e-01     -1.22278270e+00     -5.82358315e+00     
H    -8.77169562e-02     -2.58670586e+00     -6.14098780e+00     
O    1.17413297e+00      -3.42767022e+00     2.24513135e+00      
H    5.51011123e-01      -3.99928197e+00     2.69902922e+00      
H    1.99924924e+00      -3.91759877e+00     2.23107349e+00      
26
497.050314
N    -1.21697005e-02     -5.34628884e-02     -5.21345902e-02     
H    -1.05182920e+00     -6.95004123e-02     -9.54806434e-02     
H    3.21969132e-01      8.39252969e-01      -4.70699615e-01     
H    3.21351752e-01      -1.54420705e-01     9.31138899e-01      
C    5.29672807e-01      -1.18749631e+00     -8.21720144e-01     
H    1.61565143e+00      -1.15052353e+00     -7.93984715e-01     
H    1.95540732e-01      -2.11842453e+00     -3.71244428e-01     
C    4.29570722e-02      -1.09327070e+00     -2.25162998e+00     
O    -6.57616123e-01     -1.90318612e-01     -2.67101913e+00     
O    4.93009324e-01      -2.12177618e+00     -2.94702293e+00     
H    1.42028316e-01      -2.05883680e+00     -3.88428624e+00     
O    1.00574036e+00      2.05280679e+00      -1.52366704e+00     
H    5.27987689e-01      2.08007154e+00      -2.35769273e+00     
H    1.33086585e+00      2.94436218e+00      -1.37360273e+00     
O    1.07071645e+00      -6.65607345e-01     2.36840436e+00      
H    1.17398646e+00      -1.60916146e+00     2.56514302e+00      
H    1.22432086e+00      -1.80929768e-01     3.18109191e+00      
O    -2.71869696e+00     -4.28471847e-01     -4.91791498e-01     
H    -2.88552630e+00     -2.23960060e-01     -1.41674308e+00     
H    -3.54929960e+00     -2.77433575e-01     -3.30766204e-02     
O    -4.32890231e-01     -2.04886532e+00     -5.42134151e+00     
H    -7.09229477e-01     -1.22280120e+00     -5.82362828e+00     
H    -8.77486973e-02     -2.58672957e+00     -6.14100459e+00     
O    1.17412722e+00      -3.42759813e+00     2.24580406e+00      
H    5.50852114e-01      -4.00116512e+00     2.69690150e+00      
H    1.99938979e+00      -3.91714789e+00     2.22947056e+00      
26
497.050314
N    -1.20578541e-02     -5.37755535e-02     -5.18527130e-02     
H    -1.05172128e+00     -7.01693923e-02     -9.46523949e-02     
H    3.21365738e-01      8.38937766e-01      -4.70978960e-01     
H    3.21998230e-01      -1.53407810e-01     9.31363031e-01      
C    5.29748300e-01      -1.18769238e+00     -8.21661378e-01     
H    1.61574777e+00      -1.15060898e+00     -7.94322739e-01     
H    1.95823145e-01      -2.11884263e+00     -3.71458382e-01     
C    4.28331022e-02      -1.09324029e+00     -2.25163118e+00     
O    -6.57653299e-01     -1.90325609e-01     -2.67123254e+00     
O    4.93012677e-01      -2.12170953e+00     -2.94700798e+00     
H    1.42088459e-01      -2.05875216e+00     -3.88429668e+00     
O    1.00582186e+00      2.05289684e+00      -1.52359534e+00     
H    5.27539496e-01      2.07951983e+00      -2.35734063e+00     
H    1.33102964e+00      2.94457099e+00      -1.37445831e+00     
O    1.07055858e+00      -6.64791484e-01     2.36836296e+00      
H    1.17255435e+00      -1.60993932e+00     2.55706974e+00      
H    1.22672533e+00      -1.88494147e-01     3.18509937e+00      
O    -2.71869965e+00     -4.28423530e-01     -4.91847267e-01     
H    -2.88590535e+00     -2.24460266e-01     -1.41684133e+00     
H    -3.54919615e+00     -2.77450709e-01     -3.29206170e-02     
O    -4.32896497e-01     -2.04886636e+00     -5.42135342e+00     
H    -7.09246869e-01     -1.22281045e+00     -5.82365085e+00     
H    -8.77645679e-02     -2.58674143e+00     -6.14101299e+00     
O    1.17412435e+00      -3.42756208e+00     2.24614041e+00      
H    5.50772610e-01      -4.00210670e+00     2.69583765e+00      
H    1.99946006e+00      -3.91692245e+00     2.22866909e+00      
26
497.050314
N    -1.19460076e-02     -5.40882186e-02     -5.15708358e-02     
H    -1.05161336e+00     -7.08383723e-02     -9.38241464e-02     
H    3.20762344e-01      8.38622562e-01      -4.71258305e-01     
H    3.22644707e-01      -1.52394914e-01     9.31587163e-01      
C    5.29823794e-01      -1.18788844e+00     -8.21602612e-01     
H    1.61584411e+00      -1.15069443e+00     -7.94660763e-01     
H    1.96105558e-01      -2.11926074e+00     -3.71672337e-01     
C    4.27091321e-02      -1.09320988e+00     -2.25163237e+00     
O    -6.57690476e-01     -1.90332606e-01     -2.67144595e+00     
O    4.93016031e-01      -2.12164288e+00     -2.94699303e+00     
H    1.42148602e-01      -2.05866753e+00     -3.88430712e+00     
O    1.00590335e+00      2.05298689e+00      -1.52352364e+00     
H    5.27091303e-01      2.07896812e+00      -2.35698853e+00     
H    1.33119342e+00      2.94477980e+00      -1.37531389e+00     
O    1.07040072e+00      -6.63975623e-01     2.36832155e+00      
H    1.17112224e+00      -1.61071719e+00     2.54899646e+00      
H    1.22912979e+00      -1.96058527e-01     3.18910684e+00      
O    -2.71870234e+00     -4.28375212e-01     -4.91903035e-01     
H    -2.88628441e+00     -2.24960471e-01     -1.41693957e+00     
H    -3.54909271e+00     -2.77467843e-01     -3.27646136e-02     
O    -4.32902763e-01     -2.04886740e+00     -5.42136532e+00     
H    -7.09264261e-01     -1.22281969e+00     -5.82367341e+00     
H    -8.77804385e-02     -2.58675329e+00     -6.14102139e+00     
O    1.17412148e+00      -3.42752604e+00     2.24647676e+00      
H    5.50693105e-01      -4.00304827e+00     2.69477379e+00      
H    1.99953034e+00      -3.91669702e+00     2.22786763e+00      
26
497.050314
N    -1.14986220e-02     -5.53388792e-02     -5.04433270e-02     
H    -1.05118168e+00     -7.35142921e-02     -9.05111524e-02     
H    3.18348768e-01      8.37361748e-01      -4.72375687e-01     
H    3.25230619e-01      -1.48343334e-01     9.32483693e-01      
C    5.30125766e-01      -1.18867268e+00     -8.21367548e-01     
H    1.61622945e+00      -1.15103623e+00     -7.96012859e-01     
H    1.97235208e-01      -2.12093318e+00     -3.72528155e-01     
C    4.22132519e-02      -1.09308822e+00     -2.25163715e+00     
O    -6.57839184e-01     -1.90360594e-01     -2.67229961e+00     
O    4.93029445e-01      -2.12137628e+00     -2.94693323e+00     
H    1.42389174e-01      -2.05832897e+00     -3.88434888e+00     
O    1.00622935e+00      2.05334711e+00      -1.52323682e+00     
H    5.25298531e-01      2.07676128e+00      -2.35558015e+00     
H    1.33184856e+00      2.94561506e+00      -1.37873623e+00     
O    1.06976924e+00      -6.60712179e-01     2.36815591e+00      
H    1.16539380e+00      -1.61382867e+00     2.51670334e+00      
H    1.23874763e+00      -2.26316045e-01     3.20513672e+00      
O    -2.71871310e+00     -4.28181944e-01     -4.92126109e-01     
H    -2.88780065e+00     -2.26961293e-01     -1.41733253e+00     
H    -3.54867893e+00     -2.77536377e-01     -3.21406000e-02     
O    -4.32927829e-01     -2.04887158e+00     -5.42141292e+00     
H    -7.09333827e-01     -1.22285669e+00     -5.82376367e+00     
H    -8.78439209e-02     -2.58680071e+00     -6.14105497e+00     
O    1.17411000e+00      -3.42738186e+00     2.24782216e+00      
H    5.50375087e-01      -4.00681457e+00     2.69051835e+00      
H    1.99981144e+00      -3.91579526e+00     2.22466177e+00      
26
497.050314
N    -1.13867755e-02     -5.56515443e-02     -5.01614498e-02     
H    -1.05107376e+00     -7.41832721e-02     -8.96829039e-02     
H    3.17745374e-01      8.37046544e-01      -4.72655032e-01     
H    3.25877096e-01      -1.47330438e-01     9.32707825e-01      
C    5.30201260e-01      -1.18886874e+00     -8.21308782e-01     
H    1.61632579e+00      -1.15112168e+00     -7.96350883e-01     
H    1.97517621e-01      -2.12135129e+00     -3.72742110e-01     
C    4.20892818e-02      -1.09305781e+00     -2.25163834e+00     
O    -6.57876361e-01     -1.90367591e-01     -2.67251302e+00     
O    4.93032799e-01      -2.12130963e+00     -2.94691828e+00     
H    1.42449317e-01      -2.05824434e+00     -3.88435932e+00     
O    1.00631084e+00      2.05343716e+00      -1.52316512e+00     
H    5.24850338e-01      2.07620957e+00      -2.35522805e+00     
H    1.33201234e+00      2.94582387e+00      -1.37959181e+00     
O    1.06961138e+00      -6.59896318e-01     2.36811450e+00      
H    1.16396169e+00      -1.61460654e+00     2.50863006e+00      
H    1.24115209e+00      -2.33880425e-01     3.20914419e+00      
O    -2.71871579e+00     -4.28133626e-01     -4.92181877e-01     
H    -2.88817971e+00     -2.27461498e-01     -1.41743077e+00     
H    -3.54857549e+00     -2.77553511e-01     -3.19845966e-02     
O    -4.32934095e-01     -2.04887262e+00     -5.42142482e+00     
H    -7.09351219e-01     -1.22286593e+00     -5.82378623e+00     
H    -8.78597915e-02     -2.58681257e+00     -6.14106337e+00     
O    1.17410713e+00      -3.42734582e+00     2.24815851e+00      
H    5.50295582e-01      -4.00775614e+00     2.68945449e+00      
H    1.99988172e+00      -3.91556983e+00     2.22386031e+00      
26
497.050314
N    -1.12749291e-02     -5.59642094e-02     -4.98795726e-02     
H    -1.05096584e+00     -7.48522521e-02     -8.88546554e-02     
H    3.17141980e-01      8.36731341e-01      -4.72934377e-01     
H    3.26523574e-01      -1.46317543e-01     9.32931957e-01      
C    5.30276753e-01      -1.18906481e+00     -8.21250016e-01     
H    1.61642213e+00      -1.15120713e+00     -7.96688907e-01     
H    1.97800034e-01      -2.12176939e+00     -3.72956064e-01     
C    4.19653118e-02      -1.09302740e+00     -2.25163954e+00     
O    -6.57913537e-01     -1.90374588e-01     -2.67272643e+00     
O    4.93036152e-01      -2.12124298e+00     -2.94690333e+00     
H    1.42509460e-01      -2.05815970e+00     -3.88436976e+00     
O    1.00639234e+00      2.05352721e+00      -1.52309342e+00     
H    5.24402145e-01      2.07565786e+00      -2.35487595e+00     
H    1.33217613e+00      2.94603268e+00      -1.38044739e+00     
O    1.06945351e+00      -6.59080457e-01     2.36807310e+00      
H    1.16252958e+00      -1.61538440e+00     2.50055678e+00      
H    1.24355656e+00      -2.41444804e-01     3.21315165e+00      
O    -2.71871848e+00     -4.28085309e-01     -4.92237646e-01     
H    -2.88855876e+00     -2.27961704e-01     -1.41752902e+00     
H    -3.54847204e+00     -2.77570645e-01     -3.18285932e-02     
O    -4.32940361e-01     -2.04887366e+00     -5.42143673e+00     
H    -7.09368611e-01     -1.22287518e+00     -5.82380880e+00     
H    -8.78756621e-02     -2.58682443e+00     -6.14107177e+00     
O    1.17410426e+00      -3.42730977e+00     2.24849486e+00      
H    5.50216078e-01      -4.00869772e+00     2.68839064e+00      
H    1.99995199e+00      -3.91534439e+00     2.22305884e+00      
26
497.050314
N    -1.10512363e-02     -5.65895397e-02     -4.93158181e-02     
H    -1.05074999e+00     -7.61902120e-02     -8.71981584e-02     
H    3.15935192e-01      8.36100933e-01      -4.73493068e-01     
H    3.27816530e-01      -1.44291753e-01     9.33380222e-01      
C    5.30427739e-01      -1.18945693e+00     -8.21132484e-01     
H    1.61661480e+00      -1.15137803e+00     -7.97364955e-01     
H    1.98364859e-01      -2.12260561e+00     -3.73383974e-01     
C    4.17173717e-02      -1.09296657e+00     -2.25164192e+00     
O    -6.57987891e-01     -1.90388582e-01     -2.67315326e+00     
O    4.93042859e-01      -2.12110969e+00     -2.94687343e+00     
H    1.42629746e-01      -2.05799042e+00     -3.88439065e+00     
O    1.00655534e+00      2.05370732e+00      -1.52295001e+00     
H    5.23505759e-01      2.07455445e+00      -2.35417176e+00     
H    1.33250369e+00      2.94645031e+00      -1.38215856e+00     
O    1.06913777e+00      -6.57448735e-01     2.36799028e+00      
H    1.15966537e+00      -1.61694014e+00     2.48441022e+00      
H    1.24836548e+00      -2.56573564e-01     3.22116659e+00      
O    -2.71872386e+00     -4.27988675e-01     -4.92349183e-01     
H    -2.88931688e+00     -2.28962115e-01     -1.41772550e+00     
H    -3.54826515e+00     -2.77604912e-01     -3.15165863e-02     
O    -4.32952894e-01     -2.04887575e+00     -5.42146053e+00     
H    -7.09403394e-01     -1.22289368e+00     -5.82385393e+00     
H    -8.79074032e-02     -2.58684814e+00     -6.14108856e+00     
O    1.17409851e+00      -3.42723768e+00     2.24916757e+00      
H    5.50057069e-01      -4.01058087e+00     2.68626292e+00      
H    2.00009254e+00      -3.91489351e+00     2.22145591e+00      
26
497.050314
N    -1.08275435e-02     -5.72148700e-02     -4.87520637e-02     
H    -1.05053415e+00     -7.75281719e-02     -8.55416614e-02     
H    3.14728404e-01      8.35470526e-01      -4.74051759e-01     
H    3.29109485e-01      -1.42265963e-01     9.33828486e-01      
C    5.30578726e-01      -1.18984905e+00     -8.21014952e-01     
H    1.61680747e+00      -1.15154893e+00     -7.98041003e-01     
H    1.98929684e-01      -2.12344183e+00     -3.73811883e-01     
C    4.14694316e-02      -1.09290575e+00     -2.25164431e+00     
O    -6.58062245e-01     -1.90402576e-01     -2.67358009e+00     
O    4.93049566e-01      -2.12097639e+00     -2.94684352e+00     
H    1.42750033e-01      -2.05782115e+00     -3.88441153e+00     
O    1.00671834e+00      2.05388742e+00      -1.52280661e+00     
H    5.22609373e-01      2.07345103e+00      -2.35346756e+00     
H    1.33283126e+00      2.94686793e+00      -1.38386972e+00     
O    1.06882204e+00      -6.55817013e-01     2.36790746e+00      
H    1.15680115e+00      -1.61849588e+00     2.46826366e+00      
H    1.25317440e+00      -2.71702323e-01     3.22918153e+00      
O    -2.71872925e+00     -4.27892041e-01     -4.92460720e-01     
H    -2.89007500e+00     -2.29962526e-01     -1.41792198e+00     
H    -3.54805826e+00     -2.77639180e-01     -3.12045795e-02     
O    -4.32965427e-01     -2.04887783e+00     -5.42148433e+00     
H    -7.09438177e-01     -1.22291217e+00     -5.82389905e+00     
H    -8.79391444e-02     -2.58687185e+00     -6.14110536e+00     
O    1.17409277e+00      -3.42716559e+00     2.24984027e+00      
H    5.49898060e-01      -4.01246402e+00     2.68413520e+00      
H    2.00023309e+00      -3.91444263e+00     2.21985298e+00      
26
497.050314
N    -1.06038506e-02     -5.78402003e-02     -4.81883093e-02     
H    -1.05031831e+00     -7.88661318e-02     -8.38851644e-02     
H    3.13521616e-01      8.34840119e-01      -4.74610450e-01     
H    3.30402441e-01      -1.40240172e-01     9.34276751e-01      
C    5.30729712e-01      -1.19024118e+00     -8.20897420e-01     
H    1.61700015e+00      -1.15171983e+00     -7.98717051e-01     
H    1.99494510e-01      -2.12427805e+00     -3.74239792e-01     
C    4.12214915e-02      -1.09284492e+00     -2.25164670e+00     
O    -6.58136598e-01     -1.90416570e-01     -2.67400692e+00     
O    4.93056273e-01      -2.12084309e+00     -2.94681362e+00     
H    1.42870319e-01      -2.05765187e+00     -3.88443241e+00     
O    1.00688133e+00      2.05406753e+00      -1.52266320e+00     
H    5.21712986e-01      2.07234761e+00      -2.35276337e+00     
H    1.33315883e+00      2.94728556e+00      -1.38558089e+00     
O    1.06850630e+00      -6.54185291e-01     2.36782465e+00      
H    1.15393693e+00      -1.62005162e+00     2.45211710e+00      
H    1.25798332e+00      -2.86831082e-01     3.23719647e+00      
O    -2.71873463e+00     -4.27795406e-01     -4.92572257e-01     
H    -2.89083312e+00     -2.30962936e-01     -1.41811846e+00     
H    -3.54785137e+00     -2.77673447e-01     -3.08925727e-02     
O    -4.32977960e-01     -2.04887992e+00     -5.42150814e+00     
H    -7.09472961e-01     -1.22293067e+00     -5.82394418e+00     
H    -8.79708856e-02     -2.58689557e+00     -6.14112215e+00     
O    1.17408703e+00      -3.42709350e+00     2.25051297e+00      
H    5.49739051e-01      -4.01434717e+00     2.68200748e+00      
H    2.00037365e+00      -3.91399176e+00     2.21825005e+00      
26
497.050314
N    -1.03801578e-02     -5.84655305e-02     -4.76245549e-02     
H    -1.05010247e+00     -8.02040918e-02     -8.22286674e-02     
H    3.12314828e-01      8.34209712e-01      -4.75169140e-01     
H    3.31695397e-01      -1.38214382e-01     9.34725015e-01      
C    5.30880698e-01      -1.19063330e+00     -8.20779888e-01     
H    1.61719282e+00      -1.15189073e+00     -7.99393099e-01     
H    2.00059335e-01      -2.12511426e+00     -3.74667701e-01     
C    4.09735514e-02      -1.09278409e+00     -2.25164909e+00     
O    -6.58210952e-01     -1.90430564e-01     -2.67443374e+00     
O    4.93062980e-01      -2.12070979e+00     -2.94678372e+00     
H    1.42990605e-01      -2.05748259e+00     -3.88445329e+00     
O    1.00704433e+00      2.05424763e+00      -1.52251980e+00     
H    5.20816600e-01      2.07124419e+00      -2.35205917e+00     
H    1.33348640e+00      2.94770318e+00      -1.38729205e+00     
O    1.06819057e+00      -6.52553569e-01     2.36774183e+00      
H    1.15107271e+00      -1.62160735e+00     2.43597054e+00      
H    1.26279225e+00      -3.01959841e-01     3.24521140e+00      
O    -2.71874001e+00     -4.27698772e-01     -4.92683794e-01     
H    -2.89159123e+00     -2.31963347e-01     -1.41831495e+00     
H    -3.54764448e+00     -2.77707715e-01     -3.05805659e-02     
O    -4.32990492e-01     -2.04888200e+00     -5.42153194e+00     
H    -7.09507744e-01     -1.22294917e+00     -5.82398931e+00     
H    -8.80026268e-02     -2.58691928e+00     -6.14113894e+00     
O    1.17408129e+00      -3.42702141e+00     2.25118567e+00      
H    5.49580042e-01      -4.01623032e+00     2.67987977e+00      
H    2.00051420e+00      -3.91354088e+00     2.21664712e+00      
26
497.050314
N    -9.93277212e-03     -5.97161911e-02     -4.64970461e-02     
H    -1.04967078e+00     -8.28800116e-02     -7.89156734e-02     
H    3.09901252e-01      8.32948897e-01      -4.76286522e-01     
H    3.34281308e-01      -1.34162801e-01     9.35621544e-01      
C    5.31182671e-01      -1.19141755e+00     -8.20544824e-01     
H    1.61757817e+00      -1.15223253e+00     -8.00745196e-01     
H    2.01188986e-01      -2.12678670e+00     -3.75523520e-01     
C    4.04776711e-02      -1.09266244e+00     -2.25165386e+00     
O    -6.58359659e-01     -1.90458552e-01     -2.67528740e+00     
O    4.93076394e-01      -2.12044319e+00     -2.94672392e+00     
H    1.43231177e-01      -2.05714404e+00     -3.88449506e+00     
O    1.00737032e+00      2.05460784e+00      -1.52223298e+00     
H    5.19023828e-01      2.06903736e+00      -2.35065078e+00     
H    1.33414153e+00      2.94853843e+00      -1.39071438e+00     
O    1.06755910e+00      -6.49290125e-01     2.36757620e+00      
H    1.14534428e+00      -1.62471883e+00     2.40367742e+00      
H    1.27241009e+00      -3.32217359e-01     3.26124128e+00      
O    -2.71875077e+00     -4.27505503e-01     -4.92906868e-01     
H    -2.89310747e+00     -2.33964169e-01     -1.41870791e+00     
H    -3.54723071e+00     -2.77776250e-01     -2.99565522e-02     
O    -4.33015558e-01     -2.04888618e+00     -5.42157955e+00     
H    -7.09577310e-01     -1.22298616e+00     -5.82407957e+00     
H    -8.80661091e-02     -2.58696670e+00     -6.14117253e+00     
O    1.17406980e+00      -3.42687724e+00     2.25253107e+00      
H    5.49262023e-01      -4.01999661e+00     2.67562433e+00      
H    2.00079530e+00      -3.91263913e+00     2.21344126e+00      
