26
354.083373
N    8.51282005e-04      -6.36356919e-02     -3.15666375e-02     
H    -1.03871042e+00     -7.70835008e-02     -5.62619578e-02     
H    3.31081184e-01      8.34135341e-01      -4.40625662e-01     
H    3.47809832e-01      -1.73778993e-01     9.48046710e-01      
C    5.28745867e-01      -1.18762470e+00     -8.23739847e-01     
H    1.61507712e+00      -1.15625242e+00     -8.06221327e-01     
H    1.96173053e-01      -2.12381995e+00     -3.83332973e-01     
C    3.73869890e-02      -1.08621370e+00     -2.25339759e+00     
O    -6.62726087e-01     -1.87312150e-01     -2.68306849e+00     
O    4.97410237e-01      -2.12056380e+00     -2.93531117e+00     
H    1.55177788e-01      -2.07939818e+00     -3.87655744e+00     
O    1.01448334e+00      2.05805881e+00      -1.52611745e+00     
H    4.64120046e-01      2.07500713e+00      -2.31904853e+00     
H    1.32270615e+00      2.96010300e+00      -1.40109282e+00     
O    1.06493023e+00      -6.57184552e-01     2.35966763e+00      
H    1.16686447e+00      -1.60510571e+00     2.53541254e+00      
H    1.22946737e+00      -1.91629398e-01     3.18046918e+00      
O    -2.72832466e+00     -4.35841625e-01     -4.89626319e-01     
H    -2.84147057e+00     -1.45148013e-01     -1.40596562e+00     
H    -3.57026465e+00     -2.65144624e-01     -5.72902118e-02     
O    -4.31126640e-01     -2.05851310e+00     -5.42975132e+00     
H    -6.75358483e-01     -1.18325139e+00     -5.75352686e+00     
H    -1.47088549e-01     -2.55898988e+00     -6.20584277e+00     
O    1.17357600e+00      -3.43129487e+00     2.24430271e+00      
H    5.55266822e-01      -4.00029375e+00     2.70830010e+00      
H    2.00378533e+00      -3.91308505e+00     2.24099683e+00      
26
354.083373
N    -2.29211720e-03     -6.14051561e-02     -3.64267485e-02     
H    -1.04188219e+00     -7.58567086e-02     -6.52383807e-02     
H    3.28199777e-01      8.35099545e-01      -4.48423496e-01     
H    3.41841790e-01      -1.67926526e-01     9.44043890e-01      
C    5.29053095e-01      -1.18778867e+00     -8.23176155e-01     
H    1.61531704e+00      -1.15490565e+00     -8.03500198e-01     
H    1.96297385e-01      -2.12288920e+00     -3.80524791e-01     
C    3.86555398e-02      -1.08794754e+00     -2.25295689e+00     
O    -6.61485772e-01     -1.88070763e-01     -2.68026957e+00     
O    4.96313362e-01      -2.12080025e+00     -2.93822416e+00     
H    1.51950563e-01      -2.07417319e+00     -3.87850008e+00     
O    1.01237909e+00      2.05683585e+00      -1.52543315e+00     
H    4.79638764e-01      2.07572152e+00      -2.32835748e+00     
H    1.32490986e+00      2.95637661e+00      -1.39507588e+00     
O    1.06621892e+00      -6.58474389e-01     2.36181041e+00      
H    1.16721286e+00      -1.60689751e+00     2.53477188e+00      
H    1.23058520e+00      -1.96518870e-01     3.18463233e+00      
O    -2.72592043e+00     -4.33950863e-01     -4.90223382e-01     
H    -2.85286356e+00     -1.65351230e-01     -1.40875823e+00     
H    -3.56491994e+00     -2.68233996e-01     -5.10808105e-02     
O    -4.31573804e-01     -2.05610220e+00     -5.42766077e+00     
H    -6.83843624e-01     -1.19314809e+00     -5.77107478e+00     
H    -1.32269456e-01     -2.56593666e+00     -6.18964162e+00     
O    1.17371093e+00      -3.43033464e+00     2.24501440e+00      
H    5.54083640e-01      -4.00145316e+00     2.70438660e+00      
H    2.00275672e+00      -3.91387533e+00     2.23731380e+00      
26
354.083373
N    -3.86381680e-03     -6.02898883e-02     -3.88568039e-02     
H    -1.04346808e+00     -7.52433125e-02     -6.97265921e-02     
H    3.26759074e-01      8.35581646e-01      -4.52322413e-01     
H    3.38857769e-01      -1.65000292e-01     9.42042479e-01      
C    5.29206709e-01      -1.18787065e+00     -8.22894309e-01     
H    1.61543699e+00      -1.15423226e+00     -8.02139633e-01     
H    1.96359552e-01      -2.12242383e+00     -3.79120701e-01     
C    3.92898151e-02      -1.08881446e+00     -2.25273653e+00     
O    -6.60865615e-01     -1.88450069e-01     -2.67887010e+00     
O    4.95764925e-01      -2.12091847e+00     -2.93968066e+00     
H    1.50336950e-01      -2.07156070e+00     -3.87947140e+00     
O    1.01132697e+00      2.05622438e+00      -1.52509099e+00     
H    4.87398123e-01      2.07607872e+00      -2.33301196e+00     
H    1.32601172e+00      2.95451341e+00      -1.39206741e+00     
O    1.06686326e+00      -6.59119308e-01     2.36288179e+00      
H    1.16738705e+00      -1.60779341e+00     2.53445155e+00      
H    1.23114412e+00      -1.98963606e-01     3.18671391e+00      
O    -2.72471831e+00     -4.33005482e-01     -4.90521914e-01     
H    -2.85856006e+00     -1.75452839e-01     -1.41015453e+00     
H    -3.56224759e+00     -2.69778681e-01     -4.79761099e-02     
O    -4.31797386e-01     -2.05489675e+00     -5.42661550e+00     
H    -6.88086194e-01     -1.19809644e+00     -5.77984874e+00     
H    -1.24859910e-01     -2.56941005e+00     -6.18154105e+00     
O    1.17377840e+00      -3.42985452e+00     2.24537024e+00      
H    5.53492050e-01      -4.00203287e+00     2.70242984e+00      
H    2.00224241e+00      -3.91427046e+00     2.23547228e+00      
26
354.083373
N    -5.43551640e-03     -5.91746204e-02     -4.12868594e-02     
H    -1.04505397e+00     -7.46299165e-02     -7.42148036e-02     
H    3.25318370e-01      8.36063748e-01      -4.56221329e-01     
H    3.35873748e-01      -1.62074058e-01     9.40041069e-01      
C    5.29360323e-01      -1.18795263e+00     -8.22612463e-01     
H    1.61555695e+00      -1.15355887e+00     -8.00779069e-01     
H    1.96421718e-01      -2.12195845e+00     -3.77716610e-01     
C    3.99240905e-02      -1.08968138e+00     -2.25251618e+00     
O    -6.60245458e-01     -1.88829375e-01     -2.67747064e+00     
O    4.95216487e-01      -2.12103669e+00     -2.94113715e+00     
H    1.48723338e-01      -2.06894821e+00     -3.88044272e+00     
O    1.01027484e+00      2.05561290e+00      -1.52474884e+00     
H    4.95157482e-01      2.07643591e+00      -2.33766643e+00     
H    1.32711357e+00      2.95265022e+00      -1.38905894e+00     
O    1.06750761e+00      -6.59764227e-01     2.36395318e+00      
H    1.16756125e+00      -1.60868932e+00     2.53413122e+00      
H    1.23170304e+00      -2.01408342e-01     3.18879548e+00      
O    -2.72351619e+00     -4.32060101e-01     -4.90820445e-01     
H    -2.86425655e+00     -1.85554447e-01     -1.41155084e+00     
H    -3.55957523e+00     -2.71323367e-01     -4.48714093e-02     
O    -4.32020968e-01     -2.05369130e+00     -5.42557022e+00     
H    -6.92328764e-01     -1.20304479e+00     -5.78862270e+00     
H    -1.17450364e-01     -2.57288344e+00     -6.17344047e+00     
O    1.17384587e+00      -3.42937441e+00     2.24572609e+00      
H    5.52900459e-01      -4.00261258e+00     2.70047309e+00      
H    2.00172811e+00      -3.91466560e+00     2.23363077e+00      
26
354.083373
N    -7.00721600e-03     -5.80593525e-02     -4.37169149e-02     
H    -1.04663986e+00     -7.40165204e-02     -7.87030150e-02     
H    3.23877667e-01      8.36545850e-01      -4.60120246e-01     
H    3.32889726e-01      -1.59147825e-01     9.38039659e-01      
C    5.29513937e-01      -1.18803461e+00     -8.22330617e-01     
H    1.61567691e+00      -1.15288549e+00     -7.99418504e-01     
H    1.96483884e-01      -2.12149308e+00     -3.76312519e-01     
C    4.05583659e-02      -1.09054829e+00     -2.25229582e+00     
O    -6.59625301e-01     -1.89208681e-01     -2.67607117e+00     
O    4.94668050e-01      -2.12115491e+00     -2.94259365e+00     
H    1.47109725e-01      -2.06633572e+00     -3.88141404e+00     
O    1.00922272e+00      2.05500143e+00      -1.52440669e+00     
H    5.02916840e-01      2.07679311e+00      -2.34232091e+00     
H    1.32821543e+00      2.95078702e+00      -1.38605047e+00     
O    1.06815195e+00      -6.60409145e-01     2.36502457e+00      
H    1.16773544e+00      -1.60958522e+00     2.53381089e+00      
H    1.23226196e+00      -2.03853078e-01     3.19087706e+00      
O    -2.72231407e+00     -4.31114720e-01     -4.91118977e-01     
H    -2.86995305e+00     -1.95656056e-01     -1.41294714e+00     
H    -3.55690288e+00     -2.72868053e-01     -4.17667087e-02     
O    -4.32244550e-01     -2.05248584e+00     -5.42452495e+00     
H    -6.96571334e-01     -1.20799314e+00     -5.79739666e+00     
H    -1.10040818e-01     -2.57635683e+00     -6.16533990e+00     
O    1.17391334e+00      -3.42889429e+00     2.24608193e+00      
H    5.52308868e-01      -4.00319229e+00     2.69851633e+00      
H    2.00121380e+00      -3.91506073e+00     2.23178925e+00      
26
354.083373
N    -8.57891560e-03     -5.69440846e-02     -4.61469704e-02     
H    -1.04822574e+00     -7.34031243e-02     -8.31912265e-02     
H    3.22436963e-01      8.37027952e-01      -4.64019163e-01     
H    3.29905705e-01      -1.56221591e-01     9.36038249e-01      
C    5.29667552e-01      -1.18811660e+00     -8.22048772e-01     
H    1.61579687e+00      -1.15221210e+00     -7.98057940e-01     
H    1.96546050e-01      -2.12102771e+00     -3.74908428e-01     
C    4.11926413e-02      -1.09141521e+00     -2.25207547e+00     
O    -6.59005144e-01     -1.89587988e-01     -2.67467171e+00     
O    4.94119613e-01      -2.12127314e+00     -2.94405014e+00     
H    1.45496113e-01      -2.06372323e+00     -3.88238536e+00     
O    1.00817060e+00      2.05438995e+00      -1.52406454e+00     
H    5.10676199e-01      2.07715031e+00      -2.34697539e+00     
H    1.32931728e+00      2.94892382e+00      -1.38304200e+00     
O    1.06879629e+00      -6.61054064e-01     2.36609596e+00      
H    1.16790963e+00      -1.61048112e+00     2.53349056e+00      
H    1.23282087e+00      -2.06297814e-01     3.19295863e+00      
O    -2.72111196e+00     -4.30169340e-01     -4.91417509e-01     
H    -2.87564954e+00     -2.05757665e-01     -1.41434344e+00     
H    -3.55423053e+00     -2.74412739e-01     -3.86620080e-02     
O    -4.32468132e-01     -2.05128039e+00     -5.42347967e+00     
H    -7.00813904e-01     -1.21294149e+00     -5.80617062e+00     
H    -1.02631272e-01     -2.57983022e+00     -6.15723933e+00     
O    1.17398080e+00      -3.42841418e+00     2.24643777e+00      
H    5.51717277e-01      -4.00377200e+00     2.69655958e+00      
H    2.00069950e+00      -3.91545587e+00     2.22994773e+00      
26
354.083373
N    -9.36476540e-03     -5.63864507e-02     -4.73619982e-02     
H    -1.04901869e+00     -7.30964263e-02     -8.54353322e-02     
H    3.21716611e-01      8.37269002e-01      -4.65968621e-01     
H    3.28413695e-01      -1.54758474e-01     9.35037543e-01      
C    5.29744359e-01      -1.18815759e+00     -8.21907849e-01     
H    1.61585684e+00      -1.15187541e+00     -7.97377658e-01     
H    1.96577134e-01      -2.12079502e+00     -3.74206382e-01     
C    4.15097789e-02      -1.09184867e+00     -2.25196529e+00     
O    -6.58695066e-01     -1.89777641e-01     -2.67397198e+00     
O    4.93845394e-01      -2.12133225e+00     -2.94477839e+00     
H    1.44689307e-01      -2.06241699e+00     -3.88287102e+00     
O    1.00764454e+00      2.05408421e+00      -1.52389346e+00     
H    5.14555879e-01      2.07732890e+00      -2.34930262e+00     
H    1.32986821e+00      2.94799222e+00      -1.38153776e+00     
O    1.06911846e+00      -6.61376523e-01     2.36663165e+00      
H    1.16799673e+00      -1.61092908e+00     2.53333039e+00      
H    1.23310033e+00      -2.07520182e-01     3.19399942e+00      
O    -2.72051090e+00     -4.29696649e-01     -4.91566774e-01     
H    -2.87849779e+00     -2.10808469e-01     -1.41504159e+00     
H    -3.55289435e+00     -2.75185081e-01     -3.71096577e-02     
O    -4.32579923e-01     -2.05067767e+00     -5.42295703e+00     
H    -7.02935189e-01     -1.21541566e+00     -5.81055760e+00     
H    -9.89264989e-02     -2.58156691e+00     -6.15318904e+00     
O    1.17401454e+00      -3.42817412e+00     2.24661569e+00      
H    5.51421482e-01      -4.00406186e+00     2.69558120e+00      
H    2.00044235e+00      -3.91565344e+00     2.22902698e+00      
26
354.083373
N    -1.01506152e-02     -5.58288168e-02     -4.85770259e-02     
H    -1.04981163e+00     -7.27897283e-02     -8.76794379e-02     
H    3.20996260e-01      8.37510053e-01      -4.67918079e-01     
H    3.26921684e-01      -1.53295358e-01     9.34036838e-01      
C    5.29821166e-01      -1.18819858e+00     -8.21766926e-01     
H    1.61591682e+00      -1.15153872e+00     -7.96697375e-01     
H    1.96608217e-01      -2.12056233e+00     -3.73504337e-01     
C    4.18269166e-02      -1.09228213e+00     -2.25185511e+00     
O    -6.58384987e-01     -1.89967294e-01     -2.67327224e+00     
O    4.93571175e-01      -2.12139136e+00     -2.94550664e+00     
H    1.43882500e-01      -2.06111074e+00     -3.88335668e+00     
O    1.00711847e+00      2.05377848e+00      -1.52372238e+00     
H    5.18435558e-01      2.07750750e+00      -2.35162986e+00     
H    1.33041914e+00      2.94706063e+00      -1.38003353e+00     
O    1.06944064e+00      -6.61698982e-01     2.36716734e+00      
H    1.16808383e+00      -1.61137703e+00     2.53317023e+00      
H    1.23337979e+00      -2.08742550e-01     3.19504021e+00      
O    -2.71990984e+00     -4.29223959e-01     -4.91716040e-01     
H    -2.88134604e+00     -2.15859273e-01     -1.41573975e+00     
H    -3.55155817e+00     -2.75957424e-01     -3.55573074e-02     
O    -4.32691714e-01     -2.05007494e+00     -5.42243440e+00     
H    -7.05056474e-01     -1.21788984e+00     -5.81494458e+00     
H    -9.52217258e-02     -2.58330361e+00     -6.14913875e+00     
O    1.17404827e+00      -3.42793406e+00     2.24679362e+00      
H    5.51125687e-01      -4.00435171e+00     2.69460282e+00      
H    2.00018519e+00      -3.91585100e+00     2.22810622e+00      
26
354.083373
N    -1.32940144e-02     -5.35982810e-02     -5.34371369e-02     
H    -1.05298341e+00     -7.15629361e-02     -9.66558609e-02     
H    3.18114852e-01      8.38474257e-01      -4.75715913e-01     
H    3.20953642e-01      -1.47442890e-01     9.30034018e-01      
C    5.30128394e-01      -1.18836254e+00     -8.21203234e-01     
H    1.61615674e+00      -1.15019194e+00     -7.93976247e-01     
H    1.96732549e-01      -2.11963159e+00     -3.70696155e-01     
C    4.30954674e-02      -1.09401597e+00     -2.25141441e+00     
O    -6.57144673e-01     -1.90725906e-01     -2.67047332e+00     
O    4.92474301e-01      -2.12162780e+00     -2.94841962e+00     
H    1.40655276e-01      -2.05588576e+00     -3.88529932e+00     
O    1.00501423e+00      2.05255552e+00      -1.52303808e+00     
H    5.33954276e-01      2.07822190e+00      -2.36093882e+00     
H    1.33262284e+00      2.94333423e+00      -1.37401659e+00     
O    1.07072932e+00      -6.62988820e-01     2.36931012e+00      
H    1.16843221e+00      -1.61316883e+00     2.53252957e+00      
H    1.23449763e+00      -2.13632022e-01     3.19920335e+00      
O    -2.71750560e+00     -4.27333197e-01     -4.92313104e-01     
H    -2.89273902e+00     -2.36062491e-01     -1.41853235e+00     
H    -3.54621347e+00     -2.79046796e-01     -2.93479062e-02     
O    -4.33138878e-01     -2.04766404e+00     -5.42034384e+00     
H    -7.13541614e-01     -1.22778654e+00     -5.83249250e+00     
H    -8.04026336e-02     -2.59025039e+00     -6.13293761e+00     
O    1.17418321e+00      -3.42697384e+00     2.24750530e+00      
H    5.49942505e-01      -4.00551113e+00     2.69068932e+00      
H    1.99915659e+00      -3.91664128e+00     2.22442318e+00      
26
354.083373
N    -1.40798642e-02     -5.30406471e-02     -5.46521646e-02     
H    -1.05377635e+00     -7.12562381e-02     -9.88999666e-02     
H    3.17394501e-01      8.38715308e-01      -4.77665371e-01     
H    3.19461631e-01      -1.45979774e-01     9.29033313e-01      
C    5.30205201e-01      -1.18840353e+00     -8.21062311e-01     
H    1.61621672e+00      -1.14985525e+00     -7.93295964e-01     
H    1.96763632e-01      -2.11939890e+00     -3.69994110e-01     
C    4.34126051e-02      -1.09444943e+00     -2.25130423e+00     
O    -6.56834594e-01     -1.90915559e-01     -2.66977358e+00     
O    4.92200082e-01      -2.12168691e+00     -2.94914787e+00     
H    1.39848469e-01      -2.05457951e+00     -3.88578498e+00     
O    1.00448816e+00      2.05224979e+00      -1.52286700e+00     
H    5.37833955e-01      2.07840050e+00      -2.36326606e+00     
H    1.33317377e+00      2.94240264e+00      -1.37251236e+00     
O    1.07105150e+00      -6.63311279e-01     2.36984581e+00      
H    1.16851931e+00      -1.61361678e+00     2.53236941e+00      
H    1.23477709e+00      -2.14854390e-01     3.20024414e+00      
O    -2.71690454e+00     -4.26860507e-01     -4.92462370e-01     
H    -2.89558727e+00     -2.41113295e-01     -1.41923051e+00     
H    -3.54487729e+00     -2.79819139e-01     -2.77955559e-02     
O    -4.33250669e-01     -2.04706131e+00     -5.41982121e+00     
H    -7.15662899e-01     -1.23026072e+00     -5.83687948e+00     
H    -7.66978605e-02     -2.59198709e+00     -6.12888732e+00     
O    1.17421694e+00      -3.42673378e+00     2.24768323e+00      
H    5.49646710e-01      -4.00580098e+00     2.68971094e+00      
H    1.99889943e+00      -3.91683884e+00     2.22350242e+00      
26
354.083373
N    -1.48657140e-02     -5.24830132e-02     -5.58671924e-02     
H    -1.05456930e+00     -7.09495401e-02     -1.01144072e-01     
H    3.16674149e-01      8.38956358e-01      -4.79614829e-01     
H    3.17969621e-01      -1.44516657e-01     9.28032607e-01      
C    5.30282008e-01      -1.18844452e+00     -8.20921388e-01     
H    1.61627669e+00      -1.14951856e+00     -7.92615682e-01     
H    1.96794716e-01      -2.11916621e+00     -3.69292064e-01     
C    4.37297427e-02      -1.09488289e+00     -2.25119405e+00     
O    -6.56524516e-01     -1.91105212e-01     -2.66907385e+00     
O    4.91925863e-01      -2.12174602e+00     -2.94987612e+00     
H    1.39041663e-01      -2.05327327e+00     -3.88627064e+00     
O    1.00396210e+00      2.05194405e+00      -1.52269592e+00     
H    5.41713635e-01      2.07857909e+00      -2.36559329e+00     
H    1.33372470e+00      2.94147104e+00      -1.37100812e+00     
O    1.07137367e+00      -6.63633738e-01     2.37038150e+00      
H    1.16860641e+00      -1.61406474e+00     2.53220924e+00      
H    1.23505655e+00      -2.16076758e-01     3.20128493e+00      
O    -2.71630348e+00     -4.26387816e-01     -4.92611635e-01     
H    -2.89843552e+00     -2.46164099e-01     -1.41992866e+00     
H    -3.54354111e+00     -2.80591481e-01     -2.62432056e-02     
O    -4.33362460e-01     -2.04645859e+00     -5.41929857e+00     
H    -7.17784184e-01     -1.23273489e+00     -5.84126646e+00     
H    -7.29930875e-02     -2.59372378e+00     -6.12483703e+00     
O    1.17425068e+00      -3.42649372e+00     2.24786115e+00      
H    5.49350915e-01      -4.00609084e+00     2.68873256e+00      
H    1.99864228e+00      -3.91703641e+00     2.22258167e+00      
26
354.083373
N    -1.64374136e-02     -5.13677453e-02     -5.82972479e-02     
H    -1.05615518e+00     -7.03361440e-02     -1.05632284e-01     
H    3.15233445e-01      8.39438460e-01      -4.83513746e-01     
H    3.14985600e-01      -1.41590423e-01     9.26031197e-01      
C    5.30435623e-01      -1.18852651e+00     -8.20639543e-01     
H    1.61639665e+00      -1.14884517e+00     -7.91255118e-01     
H    1.96856882e-01      -2.11870084e+00     -3.67887973e-01     
C    4.43640181e-02      -1.09574981e+00     -2.25097370e+00     
O    -6.55904359e-01     -1.91484519e-01     -2.66767439e+00     
O    4.91377426e-01      -2.12186425e+00     -2.95133261e+00     
H    1.37428051e-01      -2.05066078e+00     -3.88724196e+00     
O    1.00290998e+00      2.05133257e+00      -1.52235377e+00     
H    5.49472994e-01      2.07893629e+00      -2.37024777e+00     
H    1.33482655e+00      2.93960784e+00      -1.36799965e+00     
O    1.07201801e+00      -6.64278657e-01     2.37145289e+00      
H    1.16878060e+00      -1.61496064e+00     2.53188891e+00      
H    1.23561546e+00      -2.18521494e-01     3.20336650e+00      
O    -2.71510137e+00     -4.25442436e-01     -4.92910167e-01     
H    -2.90413201e+00     -2.56265708e-01     -1.42132496e+00     
H    -3.54086876e+00     -2.82136167e-01     -2.31385049e-02     
O    -4.33586042e-01     -2.04525314e+00     -5.41825329e+00     
H    -7.22026754e-01     -1.23768324e+00     -5.85004042e+00     
H    -6.55835413e-02     -2.59719717e+00     -6.11673646e+00     
O    1.17431814e+00      -3.42601361e+00     2.24821699e+00      
H    5.48759324e-01      -4.00667055e+00     2.68677581e+00      
H    1.99812798e+00      -3.91743155e+00     2.22074015e+00      
26
354.083373
N    -1.80091132e-02     -5.02524774e-02     -6.07273034e-02     
H    -1.05774107e+00     -6.97227479e-02     -1.10120495e-01     
H    3.13792742e-01      8.39920562e-01      -4.87412663e-01     
H    3.12001578e-01      -1.38664190e-01     9.24029787e-01      
C    5.30589237e-01      -1.18860849e+00     -8.20357697e-01     
H    1.61651661e+00      -1.14817179e+00     -7.89894553e-01     
H    1.96919048e-01      -2.11823547e+00     -3.66483882e-01     
C    4.49982935e-02      -1.09661672e+00     -2.25075334e+00     
O    -6.55284202e-01     -1.91863825e-01     -2.66627492e+00     
O    4.90828989e-01      -2.12198247e+00     -2.95278911e+00     
H    1.35814438e-01      -2.04804829e+00     -3.88821328e+00     
O    1.00185786e+00      2.05072110e+00      -1.52201162e+00     
H    5.57232352e-01      2.07929349e+00      -2.37490225e+00     
H    1.33592841e+00      2.93774464e+00      -1.36499118e+00     
O    1.07266235e+00      -6.64923575e-01     2.37252428e+00      
H    1.16895479e+00      -1.61585654e+00     2.53156858e+00      
H    1.23617438e+00      -2.20966230e-01     3.20544808e+00      
O    -2.71389925e+00     -4.24497055e-01     -4.93208699e-01     
H    -2.90982851e+00     -2.66367317e-01     -1.42272126e+00     
H    -3.53819641e+00     -2.83680853e-01     -2.00338043e-02     
O    -4.33809624e-01     -2.04404768e+00     -5.41720802e+00     
H    -7.26269324e-01     -1.24263159e+00     -5.85881438e+00     
H    -5.81739952e-02     -2.60067056e+00     -6.10863589e+00     
O    1.17438561e+00      -3.42553349e+00     2.24857283e+00      
H    5.48167733e-01      -4.00725026e+00     2.68481905e+00      
H    1.99761367e+00      -3.91782668e+00     2.21889863e+00      
26
354.083373
N    -1.95808128e-02     -4.91372095e-02     -6.31573589e-02     
H    -1.05932696e+00     -6.91093519e-02     -1.14608707e-01     
H    3.12352038e-01      8.40402664e-01      -4.91311579e-01     
H    3.09017557e-01      -1.35737956e-01     9.22028377e-01      
C    5.30742851e-01      -1.18869047e+00     -8.20075851e-01     
H    1.61663657e+00      -1.14749840e+00     -7.88533989e-01     
H    1.96981214e-01      -2.11777009e+00     -3.65079791e-01     
C    4.56325689e-02      -1.09748364e+00     -2.25053299e+00     
O    -6.54664045e-01     -1.92243131e-01     -2.66487546e+00     
O    4.90280551e-01      -2.12210069e+00     -2.95424560e+00     
H    1.34200826e-01      -2.04543580e+00     -3.88918460e+00     
O    1.00080573e+00      2.05010962e+00      -1.52166947e+00     
H    5.64991711e-01      2.07965068e+00      -2.37955672e+00     
H    1.33703026e+00      2.93588145e+00      -1.36198271e+00     
O    1.07330670e+00      -6.65568494e-01     2.37359567e+00      
H    1.16912899e+00      -1.61675245e+00     2.53124825e+00      
H    1.23673330e+00      -2.23410966e-01     3.20752965e+00      
O    -2.71269713e+00     -4.23551674e-01     -4.93507230e-01     
H    -2.91552500e+00     -2.76468925e-01     -1.42411757e+00     
H    -3.53552405e+00     -2.85225539e-01     -1.69291037e-02     
O    -4.34033206e-01     -2.04284223e+00     -5.41616274e+00     
H    -7.30511894e-01     -1.24757994e+00     -5.86758834e+00     
H    -5.07644491e-02     -2.60414395e+00     -6.10053531e+00     
O    1.17445308e+00      -3.42505338e+00     2.24892868e+00      
H    5.47576142e-01      -4.00782997e+00     2.68286230e+00      
H    1.99709937e+00      -3.91822182e+00     2.21705712e+00      
26
354.083373
N    -2.11525124e-02     -4.80219417e-02     -6.55874143e-02     
H    -1.06091285e+00     -6.84959558e-02     -1.19096918e-01     
H    3.10911335e-01      8.40884765e-01      -4.95210496e-01     
H    3.06033536e-01      -1.32811722e-01     9.20026966e-01      
C    5.30896465e-01      -1.18877245e+00     -8.19794005e-01     
H    1.61675652e+00      -1.14682501e+00     -7.87173424e-01     
H    1.97043381e-01      -2.11730472e+00     -3.63675701e-01     
C    4.62668442e-02      -1.09835056e+00     -2.25031263e+00     
O    -6.54043888e-01     -1.92622437e-01     -2.66347599e+00     
O    4.89732114e-01      -2.12221891e+00     -2.95570210e+00     
H    1.32587213e-01      -2.04282331e+00     -3.89015592e+00     
O    9.99753609e-01      2.04949815e+00      -1.52132731e+00     
H    5.72751070e-01      2.08000788e+00      -2.38421120e+00     
H    1.33813212e+00      2.93401825e+00      -1.35897424e+00     
O    1.07395104e+00      -6.66213413e-01     2.37466705e+00      
H    1.16930318e+00      -1.61764835e+00     2.53092792e+00      
H    1.23729222e+00      -2.25855702e-01     3.20961123e+00      
O    -2.71149501e+00     -4.22606293e-01     -4.93805762e-01     
H    -2.92122150e+00     -2.86570534e-01     -1.42551387e+00     
H    -3.53285170e+00     -2.86770224e-01     -1.38244031e-02     
O    -4.34256788e-01     -2.04163678e+00     -5.41511747e+00     
H    -7.34754464e-01     -1.25252829e+00     -5.87636230e+00     
H    -4.33549030e-02     -2.60761734e+00     -6.09243474e+00     
O    1.17452055e+00      -3.42457326e+00     2.24928452e+00      
H    5.46984552e-01      -4.00840968e+00     2.68090554e+00      
H    1.99658506e+00      -3.91861695e+00     2.21521560e+00      
26
354.083373
N    -2.42959116e-02     -4.57914059e-02     -7.04475253e-02     
H    -1.06408462e+00     -6.72691636e-02     -1.28073341e-01     
H    3.08029928e-01      8.41848969e-01      -5.03008330e-01     
H    3.00065494e-01      -1.26959255e-01     9.16024146e-01      
C    5.31203693e-01      -1.18893642e+00     -8.19230313e-01     
H    1.61699644e+00      -1.14547824e+00     -7.84452295e-01     
H    1.97167713e-01      -2.11637397e+00     -3.60867519e-01     
C    4.75353950e-02      -1.10008440e+00     -2.24987193e+00     
O    -6.52803573e-01     -1.93381050e-01     -2.66067707e+00     
O    4.88635239e-01      -2.12245536e+00     -2.95861509e+00     
H    1.29359988e-01      -2.03759832e+00     -3.89209856e+00     
O    9.97649362e-01      2.04827519e+00      -1.52064301e+00     
H    5.88269788e-01      2.08072227e+00      -2.39352015e+00     
H    1.34033583e+00      2.93029186e+00      -1.35295730e+00     
O    1.07523973e+00      -6.67503250e-01     2.37680983e+00      
H    1.16965157e+00      -1.61944015e+00     2.53028726e+00      
H    1.23841005e+00      -2.30745174e-01     3.21377438e+00      
O    -2.70909078e+00     -4.20715531e-01     -4.94402825e-01     
H    -2.93261449e+00     -3.06773751e-01     -1.42830648e+00     
H    -3.52750699e+00     -2.89859596e-01     -7.61500181e-03     
O    -4.34703952e-01     -2.03922588e+00     -5.41302692e+00     
H    -7.43239605e-01     -1.26242499e+00     -5.89391022e+00     
H    -2.85358107e-02     -2.61456412e+00     -6.07623359e+00     
O    1.17465548e+00      -3.42361303e+00     2.24999621e+00      
H    5.45801370e-01      -4.00956909e+00     2.67699204e+00      
H    1.99555645e+00      -3.91940723e+00     2.21153257e+00      
