26
1089.134544
N    -3.06731696e-02     -1.40950717e-02     -2.40487993e-02     
H    -1.07110333e+00     -5.13242790e-02     -8.86610676e-02     
H    3.02458721e-01      8.67145942e-01      -4.72527123e-01     
H    2.88476809e-01      -8.34000441e-02     9.66466028e-01      
C    5.49909022e-01      -1.23497204e+00     -8.56466669e-01     
H    1.63922949e+00      -1.21383370e+00     -8.86232540e-01     
H    2.14248362e-01      -2.18876906e+00     -4.51866359e-01     
C    4.41563290e-02      -1.09325920e+00     -2.25132790e+00     
O    -6.53197757e-01     -1.96926394e-01     -2.66978359e+00     
O    4.90452126e-01      -2.11368297e+00     -2.93838547e+00     
H    1.42364461e-01      -2.05591828e+00     -3.87587842e+00     
O    1.00607558e+00      2.05273249e+00      -1.52295481e+00     
H    5.25250978e-01      2.07750340e+00      -2.35542507e+00     
H    1.33128009e+00      2.94514005e+00      -1.37739208e+00     
O    1.07002594e+00      -6.63485209e-01     2.36741993e+00      
H    1.17153796e+00      -1.61164520e+00     2.53755432e+00      
H    1.23124917e+00      -2.04596356e-01     3.19279005e+00      
O    -2.71819865e+00     -4.28321429e-01     -4.91805618e-01     
H    -2.88624952e+00     -2.25247356e-01     -1.41688452e+00     
H    -3.54864865e+00     -2.77292547e-01     -3.25646154e-02     
O    -4.33045250e-01     -2.04893843e+00     -5.42139609e+00     
H    -7.08350754e-01     -1.22284418e+00     -5.82478845e+00     
H    -8.77428814e-02     -2.58550412e+00     -6.14207686e+00     
O    1.17404559e+00      -3.42728338e+00     2.24706327e+00      
H    5.50582662e-01      -4.00489331e+00     2.69251922e+00      
H    1.99954056e+00      -3.91600839e+00     2.22589401e+00      
26
1089.134544
N    -2.59354559e-02     -2.42496910e-02     -3.07883698e-02     
H    -1.06617688e+00     -5.65372923e-02     -8.95377130e-02     
H    3.06732930e-01      8.59857495e-01      -4.72349591e-01     
H    2.97342023e-01      -1.00142314e-01     9.57858378e-01      
C    5.44925461e-01      -1.22329917e+00     -8.47721271e-01     
H    1.63343131e+00      -1.19809160e+00     -8.63508608e-01     
H    2.09853867e-01      -2.17160103e+00     -4.31924831e-01     
C    4.37325448e-02      -1.09323166e+00     -2.25140462e+00     
O    -6.54339525e-01     -1.95281446e-01     -2.67030589e+00     
O    4.91094779e-01      -2.11563962e+00     -2.94052988e+00     
H    1.42340568e-01      -2.05656327e+00     -3.87799081e+00     
O    1.00607327e+00      2.05284112e+00      -1.52306117e+00     
H    5.25486962e-01      2.07759372e+00      -2.35563989e+00     
H    1.33134032e+00      2.94515439e+00      -1.37730033e+00     
O    1.07004070e+00      -6.63199882e-01     2.36762463e+00      
H    1.17071798e+00      -1.61180213e+00     2.53637822e+00      
H    1.23192155e+00      -2.06244089e-01     3.19387298e+00      
O    -2.71832592e+00     -4.28310717e-01     -4.91857857e-01     
H    -2.88644777e+00     -2.25425737e-01     -1.41694740e+00     
H    -3.54870794e+00     -2.77344938e-01     -3.25366132e-02     
O    -4.33012761e-01     -2.04892120e+00     -5.42139434e+00     
H    -7.08587827e-01     -1.22284268e+00     -5.82452097e+00     
H    -8.77602060e-02     -2.58582234e+00     -6.14181719e+00     
O    1.17406313e+00      -3.42732602e+00     2.24708482e+00      
H    5.50570521e-01      -4.00490284e+00     2.69255093e+00      
H    1.99957314e+00      -3.91606783e+00     2.22598668e+00      
26
1089.134544
N    -2.35665991e-02     -2.93270006e-02     -3.41581551e-02     
H    -1.06371365e+00     -5.91437990e-02     -8.99760358e-02     
H    3.08870034e-01      8.56213272e-01      -4.72260826e-01     
H    3.01774629e-01      -1.08513449e-01     9.53554553e-01      
C    5.42433681e-01      -1.21746273e+00     -8.43348573e-01     
H    1.63053222e+00      -1.19022056e+00     -8.52146641e-01     
H    2.07656620e-01      -2.16301702e+00     -4.21954067e-01     
C    4.35206526e-02      -1.09321790e+00     -2.25144297e+00     
O    -6.54910410e-01     -1.94458971e-01     -2.67056704e+00     
O    4.91416105e-01      -2.11661795e+00     -2.94160209e+00     
H    1.42328621e-01      -2.05688577e+00     -3.87904701e+00     
O    1.00607212e+00      2.05289543e+00      -1.52311434e+00     
H    5.25604955e-01      2.07763889e+00      -2.35574730e+00     
H    1.33137043e+00      2.94516157e+00      -1.37725445e+00     
O    1.07004808e+00      -6.63057218e-01     2.36772698e+00      
H    1.17030798e+00      -1.61188060e+00     2.53579017e+00      
H    1.23225775e+00      -2.07067955e-01     3.19441445e+00      
O    -2.71838955e+00     -4.28305360e-01     -4.91883976e-01     
H    -2.88654690e+00     -2.25514928e-01     -1.41697885e+00     
H    -3.54873759e+00     -2.77371133e-01     -3.25226122e-02     
O    -4.32996517e-01     -2.04891258e+00     -5.42139347e+00     
H    -7.08706363e-01     -1.22284193e+00     -5.82438723e+00     
H    -8.77688683e-02     -2.58598145e+00     -6.14168736e+00     
O    1.17407189e+00      -3.42734735e+00     2.24709559e+00      
H    5.50564450e-01      -4.00490760e+00     2.69256679e+00      
H    1.99958943e+00      -3.91609755e+00     2.22603302e+00      
26
1089.134544
N    -2.11977422e-02     -3.44043103e-02     -3.75279403e-02     
H    -1.06125043e+00     -6.17503056e-02     -9.04143585e-02     
H    3.11007139e-01      8.52569049e-01      -4.72172060e-01     
H    3.06207236e-01      -1.16884584e-01     9.49250728e-01      
C    5.39941901e-01      -1.21162630e+00     -8.38975874e-01     
H    1.62763313e+00      -1.18234951e+00     -8.40784675e-01     
H    2.05459372e-01      -2.15443301e+00     -4.11983302e-01     
C    4.33087605e-02      -1.09320413e+00     -2.25148133e+00     
O    -6.55481294e-01     -1.93636497e-01     -2.67082818e+00     
O    4.91737432e-01      -2.11759627e+00     -2.94267430e+00     
H    1.42316674e-01      -2.05720826e+00     -3.88010321e+00     
O    1.00607096e+00      2.05294975e+00      -1.52316752e+00     
H    5.25722947e-01      2.07768405e+00      -2.35585470e+00     
H    1.33140054e+00      2.94516874e+00      -1.37720857e+00     
O    1.07005546e+00      -6.62914555e-01     2.36782933e+00      
H    1.16989799e+00      -1.61195907e+00     2.53520211e+00      
H    1.23259394e+00      -2.07891821e-01     3.19495591e+00      
O    -2.71845319e+00     -4.28300004e-01     -4.91910095e-01     
H    -2.88664603e+00     -2.25604119e-01     -1.41701029e+00     
H    -3.54876723e+00     -2.77397329e-01     -3.25086111e-02     
O    -4.32980273e-01     -2.04890396e+00     -5.42139260e+00     
H    -7.08824899e-01     -1.22284119e+00     -5.82425349e+00     
H    -8.77775305e-02     -2.58614056e+00     -6.14155752e+00     
O    1.17408066e+00      -3.42736867e+00     2.24710636e+00      
H    5.50558379e-01      -4.00491237e+00     2.69258265e+00      
H    1.99960572e+00      -3.91612726e+00     2.22607935e+00      
26
1089.134544
N    -1.88288854e-02     -3.94816199e-02     -4.08977256e-02     
H    -1.05878720e+00     -6.43568123e-02     -9.08526812e-02     
H    3.13144243e-01      8.48924825e-01      -4.72083294e-01     
H    3.10639843e-01      -1.25255719e-01     9.44946903e-01      
C    5.37450121e-01      -1.20578986e+00     -8.34603176e-01     
H    1.62473404e+00      -1.17447847e+00     -8.29422709e-01     
H    2.03262125e-01      -2.14584900e+00     -4.02012538e-01     
C    4.30968684e-02      -1.09319036e+00     -2.25151969e+00     
O    -6.56052178e-01     -1.92814023e-01     -2.67108933e+00     
O    4.92058758e-01      -2.11857460e+00     -2.94374651e+00     
H    1.42304728e-01      -2.05753076e+00     -3.88115941e+00     
O    1.00606981e+00      2.05300406e+00      -1.52322070e+00     
H    5.25840940e-01      2.07772921e+00      -2.35596211e+00     
H    1.33143065e+00      2.94517591e+00      -1.37716269e+00     
O    1.07006284e+00      -6.62771891e-01     2.36793168e+00      
H    1.16948800e+00      -1.61203753e+00     2.53461406e+00      
H    1.23293013e+00      -2.08715687e-01     3.19549738e+00      
O    -2.71851682e+00     -4.28294647e-01     -4.91936214e-01     
H    -2.88674515e+00     -2.25693310e-01     -1.41704173e+00     
H    -3.54879688e+00     -2.77423524e-01     -3.24946100e-02     
O    -4.32964029e-01     -2.04889534e+00     -5.42139173e+00     
H    -7.08943435e-01     -1.22284044e+00     -5.82411976e+00     
H    -8.77861928e-02     -2.58629967e+00     -6.14142769e+00     
O    1.17408943e+00      -3.42738999e+00     2.24711714e+00      
H    5.50552308e-01      -4.00491713e+00     2.69259850e+00      
H    1.99962202e+00      -3.91615698e+00     2.22612569e+00      
26
1089.134544
N    -1.64600285e-02     -4.45589296e-02     -4.42675109e-02     
H    -1.05632397e+00     -6.69633189e-02     -9.12910039e-02     
H    3.15281347e-01      8.45280602e-01      -4.71994528e-01     
H    3.15072450e-01      -1.33626854e-01     9.40643078e-01      
C    5.34958340e-01      -1.19995343e+00     -8.30230477e-01     
H    1.62183496e+00      -1.16660742e+00     -8.18060743e-01     
H    2.01064878e-01      -2.13726498e+00     -3.92041774e-01     
C    4.28849763e-02      -1.09317659e+00     -2.25155805e+00     
O    -6.56623062e-01     -1.91991549e-01     -2.67135048e+00     
O    4.92380085e-01      -2.11955293e+00     -2.94481871e+00     
H    1.42292781e-01      -2.05785326e+00     -3.88221560e+00     
O    1.00606866e+00      2.05305837e+00      -1.52327388e+00     
H    5.25958932e-01      2.07777437e+00      -2.35606952e+00     
H    1.33146077e+00      2.94518308e+00      -1.37711682e+00     
O    1.07007022e+00      -6.62629228e-01     2.36803403e+00      
H    1.16907801e+00      -1.61211600e+00     2.53402601e+00      
H    1.23326632e+00      -2.09539554e-01     3.19603885e+00      
O    -2.71858045e+00     -4.28289291e-01     -4.91962334e-01     
H    -2.88684428e+00     -2.25782500e-01     -1.41707317e+00     
H    -3.54882653e+00     -2.77449719e-01     -3.24806089e-02     
O    -4.32947784e-01     -2.04888673e+00     -5.42139086e+00     
H    -7.09061972e-01     -1.22283969e+00     -5.82398602e+00     
H    -8.77948551e-02     -2.58645878e+00     -6.14129785e+00     
O    1.17409820e+00      -3.42741131e+00     2.24712791e+00      
H    5.50546238e-01      -4.00492189e+00     2.69261436e+00      
H    1.99963831e+00      -3.91618670e+00     2.22617203e+00      
26
1089.134544
N    -1.52756001e-02     -4.70975844e-02     -4.59524035e-02     
H    -1.05509236e+00     -6.82665722e-02     -9.15101653e-02     
H    3.16349899e-01      8.43458490e-01      -4.71950145e-01     
H    3.17288753e-01      -1.37812422e-01     9.38491166e-01      
C    5.33712450e-01      -1.19703521e+00     -8.28044128e-01     
H    1.62038541e+00      -1.16267190e+00     -8.12379760e-01     
H    1.99966254e-01      -2.13297298e+00     -3.87056392e-01     
C    4.27790302e-02      -1.09316970e+00     -2.25157722e+00     
O    -6.56908504e-01     -1.91580311e-01     -2.67148106e+00     
O    4.92540748e-01      -2.12004209e+00     -2.94535482e+00     
H    1.42286808e-01      -2.05801451e+00     -3.88274370e+00     
O    1.00606808e+00      2.05308553e+00      -1.52330046e+00     
H    5.26017928e-01      2.07779696e+00      -2.35612323e+00     
H    1.33147582e+00      2.94518667e+00      -1.37709388e+00     
O    1.07007391e+00      -6.62557896e-01     2.36808520e+00      
H    1.16887301e+00      -1.61215523e+00     2.53373198e+00      
H    1.23343442e+00      -2.09951487e-01     3.19630958e+00      
O    -2.71861227e+00     -4.28286613e-01     -4.91975393e-01     
H    -2.88689384e+00     -2.25827096e-01     -1.41708889e+00     
H    -3.54884135e+00     -2.77462817e-01     -3.24736084e-02     
O    -4.32939662e-01     -2.04888242e+00     -5.42139043e+00     
H    -7.09121240e-01     -1.22283931e+00     -5.82391915e+00     
H    -8.77991863e-02     -2.58653834e+00     -6.14123293e+00     
O    1.17410259e+00      -3.42742197e+00     2.24713330e+00      
H    5.50543202e-01      -4.00492427e+00     2.69262229e+00      
H    1.99964645e+00      -3.91620156e+00     2.22619520e+00      
26
1089.134544
N    -1.40911717e-02     -4.96362392e-02     -4.76372961e-02     
H    -1.05386075e+00     -6.95698256e-02     -9.17293267e-02     
H    3.17418452e-01      8.41636378e-01      -4.71905762e-01     
H    3.19505056e-01      -1.41997989e-01     9.36339253e-01      
C    5.32466560e-01      -1.19411699e+00     -8.25857779e-01     
H    1.61893587e+00      -1.15873638e+00     -8.06698777e-01     
H    1.98867630e-01      -2.12868097e+00     -3.82071010e-01     
C    4.26730841e-02      -1.09316282e+00     -2.25159640e+00     
O    -6.57193946e-01     -1.91169074e-01     -2.67161163e+00     
O    4.92701411e-01      -2.12053125e+00     -2.94589092e+00     
H    1.42280835e-01      -2.05817575e+00     -3.88327180e+00     
O    1.00606750e+00      2.05311269e+00      -1.52332705e+00     
H    5.26076925e-01      2.07781954e+00      -2.35617693e+00     
H    1.33149088e+00      2.94519026e+00      -1.37707094e+00     
O    1.07007760e+00      -6.62486564e-01     2.36813638e+00      
H    1.16866801e+00      -1.61219446e+00     2.53343795e+00      
H    1.23360252e+00      -2.10363420e-01     3.19658031e+00      
O    -2.71864409e+00     -4.28283934e-01     -4.91988453e-01     
H    -2.88694340e+00     -2.25871691e-01     -1.41710461e+00     
H    -3.54885617e+00     -2.77475915e-01     -3.24666079e-02     
O    -4.32931540e-01     -2.04887811e+00     -5.42138999e+00     
H    -7.09180508e-01     -1.22283894e+00     -5.82385228e+00     
H    -8.78035174e-02     -2.58661789e+00     -6.14116802e+00     
O    1.17410697e+00      -3.42743263e+00     2.24713869e+00      
H    5.50540167e-01      -4.00492666e+00     2.69263021e+00      
H    1.99965460e+00      -3.91621642e+00     2.22621836e+00      
26
1089.134544
N    -9.35345795e-03     -5.97908586e-02     -5.43768667e-02     
H    -1.04893429e+00     -7.47828388e-02     -9.26059721e-02     
H    3.21692660e-01      8.34347932e-01      -4.71728230e-01     
H    3.28370270e-01      -1.58740259e-01     9.27731603e-01      
C    5.27483000e-01      -1.18244413e+00     -8.17112381e-01     
H    1.61313769e+00      -1.14299428e+00     -7.83974845e-01     
H    1.94473136e-01      -2.11151295e+00     -3.62129482e-01     
C    4.22492999e-02      -1.09313528e+00     -2.25167312e+00     
O    -6.58335714e-01     -1.89524126e-01     -2.67213393e+00     
O    4.93344065e-01      -2.12248791e+00     -2.94803534e+00     
H    1.42256941e-01      -2.05882075e+00     -3.88538420e+00     
O    1.00606520e+00      2.05322131e+00      -1.52343341e+00     
H    5.26312909e-01      2.07790986e+00      -2.35639175e+00     
H    1.33155110e+00      2.94520460e+00      -1.37697918e+00     
O    1.07009236e+00      -6.62201238e-01     2.36834108e+00      
H    1.16784803e+00      -1.61235140e+00     2.53226185e+00      
H    1.23427490e+00      -2.12011152e-01     3.19766325e+00      
O    -2.71877135e+00     -4.28273222e-01     -4.92040691e-01     
H    -2.88714166e+00     -2.26050073e-01     -1.41716749e+00     
H    -3.54891547e+00     -2.77528305e-01     -3.24386057e-02     
O    -4.32899052e-01     -2.04886087e+00     -5.42138825e+00     
H    -7.09417580e-01     -1.22283744e+00     -5.82358480e+00     
H    -8.78208420e-02     -2.58693611e+00     -6.14090834e+00     
O    1.17412451e+00      -3.42747527e+00     2.24716023e+00      
H    5.50528025e-01      -4.00493618e+00     2.69266193e+00      
H    1.99968718e+00      -3.91627586e+00     2.22631104e+00      
26
1089.134544
N    -8.16902952e-03     -6.23295134e-02     -5.60617593e-02     
H    -1.04770268e+00     -7.60860922e-02     -9.28251335e-02     
H    3.22761213e-01      8.32525820e-01      -4.71683847e-01     
H    3.30586573e-01      -1.62925826e-01     9.25579690e-01      
C    5.26237110e-01      -1.17952591e+00     -8.14926032e-01     
H    1.61168815e+00      -1.13905876e+00     -7.78293862e-01     
H    1.93374512e-01      -2.10722094e+00     -3.57144100e-01     
C    4.21433538e-02      -1.09312840e+00     -2.25169230e+00     
O    -6.58621156e-01     -1.89112889e-01     -2.67226450e+00     
O    4.93504728e-01      -2.12297707e+00     -2.94857144e+00     
H    1.42250968e-01      -2.05898199e+00     -3.88591230e+00     
O    1.00606462e+00      2.05324847e+00      -1.52346000e+00     
H    5.26371906e-01      2.07793244e+00      -2.35644545e+00     
H    1.33156616e+00      2.94520819e+00      -1.37695624e+00     
O    1.07009605e+00      -6.62129906e-01     2.36839226e+00      
H    1.16764303e+00      -1.61239063e+00     2.53196782e+00      
H    1.23444300e+00      -2.12423085e-01     3.19793398e+00      
O    -2.71880317e+00     -4.28270543e-01     -4.92053751e-01     
H    -2.88719122e+00     -2.26094668e-01     -1.41718321e+00     
H    -3.54893029e+00     -2.77541403e-01     -3.24316052e-02     
O    -4.32890930e-01     -2.04885656e+00     -5.42138781e+00     
H    -7.09476848e-01     -1.22283707e+00     -5.82351793e+00     
H    -8.78251731e-02     -2.58701566e+00     -6.14084343e+00     
O    1.17412889e+00      -3.42748593e+00     2.24716562e+00      
H    5.50524990e-01      -4.00493857e+00     2.69266985e+00      
H    1.99969533e+00      -3.91629072e+00     2.22633420e+00      
26
1089.134544
N    -6.98460110e-03     -6.48681682e-02     -5.77466519e-02     
H    -1.04647107e+00     -7.73893455e-02     -9.30442949e-02     
H    3.23829765e-01      8.30703708e-01      -4.71639464e-01     
H    3.32802876e-01      -1.67111394e-01     9.23427778e-01      
C    5.24991220e-01      -1.17660769e+00     -8.12739683e-01     
H    1.61023860e+00      -1.13512324e+00     -7.72612879e-01     
H    1.92275888e-01      -2.10292894e+00     -3.52158718e-01     
C    4.20374077e-02      -1.09312151e+00     -2.25171147e+00     
O    -6.58906598e-01     -1.88701651e-01     -2.67239508e+00     
O    4.93665391e-01      -2.12346623e+00     -2.94910755e+00     
H    1.42244995e-01      -2.05914324e+00     -3.88644040e+00     
O    1.00606404e+00      2.05327563e+00      -1.52348658e+00     
H    5.26430902e-01      2.07795503e+00      -2.35649916e+00     
H    1.33158121e+00      2.94521178e+00      -1.37693330e+00     
O    1.07009974e+00      -6.62058574e-01     2.36844343e+00      
H    1.16743803e+00      -1.61242986e+00     2.53167379e+00      
H    1.23461110e+00      -2.12835018e-01     3.19820471e+00      
O    -2.71883499e+00     -4.28267865e-01     -4.92066810e-01     
H    -2.88724078e+00     -2.26139264e-01     -1.41719893e+00     
H    -3.54894511e+00     -2.77554501e-01     -3.24246047e-02     
O    -4.32882808e-01     -2.04885225e+00     -5.42138738e+00     
H    -7.09536116e-01     -1.22283669e+00     -5.82345106e+00     
H    -8.78295043e-02     -2.58709522e+00     -6.14077851e+00     
O    1.17413328e+00      -3.42749659e+00     2.24717101e+00      
H    5.50521954e-01      -4.00494095e+00     2.69267778e+00      
H    1.99970347e+00      -3.91630558e+00     2.22635737e+00      
26
1089.134544
N    -4.61574425e-03     -6.99454779e-02     -6.11164372e-02     
H    -1.04400784e+00     -7.99958521e-02     -9.34826176e-02     
H    3.25966869e-01      8.27059485e-01      -4.71550698e-01     
H    3.37235483e-01      -1.75482529e-01     9.19123953e-01      
C    5.22499439e-01      -1.17077126e+00     -8.08366984e-01     
H    1.60733952e+00      -1.12725219e+00     -7.61250913e-01     
H    1.90078641e-01      -2.09434492e+00     -3.42187954e-01     
C    4.18255156e-02      -1.09310774e+00     -2.25174983e+00     
O    -6.59477482e-01     -1.87879177e-01     -2.67265623e+00     
O    4.93986718e-01      -2.12444456e+00     -2.95017975e+00     
H    1.42233048e-01      -2.05946574e+00     -3.88749659e+00     
O    1.00606289e+00      2.05332994e+00      -1.52353976e+00     
H    5.26548894e-01      2.07800019e+00      -2.35660657e+00     
H    1.33161133e+00      2.94521895e+00      -1.37688743e+00     
O    1.07010712e+00      -6.61915911e-01     2.36854578e+00      
H    1.16702804e+00      -1.61250833e+00     2.53108574e+00      
H    1.23494729e+00      -2.13658885e-01     3.19874618e+00      
O    -2.71889862e+00     -4.28262509e-01     -4.92092930e-01     
H    -2.88733991e+00     -2.26228454e-01     -1.41723037e+00     
H    -3.54897476e+00     -2.77580696e-01     -3.24106036e-02     
O    -4.32866563e-01     -2.04884364e+00     -5.42138651e+00     
H    -7.09654653e-01     -1.22283594e+00     -5.82331732e+00     
H    -8.78381666e-02     -2.58725433e+00     -6.14064867e+00     
O    1.17414205e+00      -3.42751791e+00     2.24718178e+00      
H    5.50515884e-01      -4.00494571e+00     2.69269364e+00      
H    1.99971976e+00      -3.91633530e+00     2.22640371e+00      
26
1089.134544
N    -2.24688739e-03     -7.50227875e-02     -6.44862225e-02     
H    -1.04154461e+00     -8.26023588e-02     -9.39209403e-02     
H    3.28103973e-01      8.23415261e-01      -4.71461932e-01     
H    3.41668090e-01      -1.83853664e-01     9.14820128e-01      
C    5.20007659e-01      -1.16493482e+00     -8.03994286e-01     
H    1.60444043e+00      -1.11938115e+00     -7.49888947e-01     
H    1.87881394e-01      -2.08576091e+00     -3.32217190e-01     
C    4.16136235e-02      -1.09309397e+00     -2.25178819e+00     
O    -6.60048366e-01     -1.87056703e-01     -2.67291738e+00     
O    4.94308044e-01      -2.12542289e+00     -2.95125196e+00     
H    1.42221102e-01      -2.05978824e+00     -3.88855279e+00     
O    1.00606174e+00      2.05338425e+00      -1.52359294e+00     
H    5.26666887e-01      2.07804535e+00      -2.35671398e+00     
H    1.33164144e+00      2.94522612e+00      -1.37684155e+00     
O    1.07011450e+00      -6.61773247e-01     2.36864813e+00      
H    1.16661805e+00      -1.61258679e+00     2.53049769e+00      
H    1.23528348e+00      -2.14482751e-01     3.19928765e+00      
O    -2.71896225e+00     -4.28257152e-01     -4.92119049e-01     
H    -2.88743903e+00     -2.26317645e-01     -1.41726181e+00     
H    -3.54900441e+00     -2.77606891e-01     -3.23966025e-02     
O    -4.32850319e-01     -2.04883502e+00     -5.42138564e+00     
H    -7.09773189e-01     -1.22283519e+00     -5.82318359e+00     
H    -8.78468289e-02     -2.58741344e+00     -6.14051884e+00     
O    1.17415082e+00      -3.42753923e+00     2.24719256e+00      
H    5.50509813e-01      -4.00495047e+00     2.69270949e+00      
H    1.99973606e+00      -3.91636502e+00     2.22645005e+00      
26
1089.134544
N    1.21969457e-04      -8.01000972e-02     -6.78560077e-02     
H    -1.03908139e+00     -8.52088654e-02     -9.43592630e-02     
H    3.30241078e-01      8.19771038e-01      -4.71373166e-01     
H    3.46100697e-01      -1.92224799e-01     9.10516303e-01      
C    5.17515879e-01      -1.15909839e+00     -7.99621587e-01     
H    1.60154134e+00      -1.11151010e+00     -7.38526981e-01     
H    1.85684146e-01      -2.07717690e+00     -3.22246425e-01     
C    4.14017314e-02      -1.09308020e+00     -2.25182655e+00     
O    -6.60619250e-01     -1.86234229e-01     -2.67317852e+00     
O    4.94629371e-01      -2.12640121e+00     -2.95232417e+00     
H    1.42209155e-01      -2.06011073e+00     -3.88960899e+00     
O    1.00606058e+00      2.05343857e+00      -1.52364612e+00     
H    5.26784879e-01      2.07809051e+00      -2.35682138e+00     
H    1.33167155e+00      2.94523329e+00      -1.37679567e+00     
O    1.07012188e+00      -6.61630584e-01     2.36875048e+00      
H    1.16620806e+00      -1.61266526e+00     2.52990963e+00      
H    1.23561967e+00      -2.15306617e-01     3.19982911e+00      
O    -2.71902589e+00     -4.28251796e-01     -4.92145168e-01     
H    -2.88753816e+00     -2.26406836e-01     -1.41729325e+00     
H    -3.54903405e+00     -2.77633087e-01     -3.23826014e-02     
O    -4.32834075e-01     -2.04882640e+00     -5.42138477e+00     
H    -7.09891725e-01     -1.22283445e+00     -5.82304985e+00     
H    -8.78554911e-02     -2.58757255e+00     -6.14038900e+00     
O    1.17415959e+00      -3.42756055e+00     2.24720333e+00      
H    5.50503742e-01      -4.00495524e+00     2.69272535e+00      
H    1.99975235e+00      -3.91639473e+00     2.22649638e+00      
26
1089.134544
N    2.49082631e-03      -8.51774068e-02     -7.12257930e-02     
H    -1.03661816e+00     -8.78153721e-02     -9.47975858e-02     
H    3.32378182e-01      8.16126815e-01      -4.71284401e-01     
H    3.50533303e-01      -2.00595934e-01     9.06212478e-01      
C    5.15024099e-01      -1.15326195e+00     -7.95248889e-01     
H    1.59864225e+00      -1.10363906e+00     -7.27165014e-01     
H    1.83486899e-01      -2.06859289e+00     -3.12275661e-01     
C    4.11898392e-02      -1.09306644e+00     -2.25186490e+00     
O    -6.61190135e-01     -1.85411754e-01     -2.67343967e+00     
O    4.94950697e-01      -2.12737954e+00     -2.95339638e+00     
H    1.42197208e-01      -2.06043323e+00     -3.89066519e+00     
O    1.00605943e+00      2.05349288e+00      -1.52369929e+00     
H    5.26902872e-01      2.07813568e+00      -2.35692879e+00     
H    1.33170166e+00      2.94524047e+00      -1.37674979e+00     
O    1.07012926e+00      -6.61487920e-01     2.36885283e+00      
H    1.16579806e+00      -1.61274373e+00     2.52932158e+00      
H    1.23595587e+00      -2.16130483e-01     3.20037058e+00      
O    -2.71908952e+00     -4.28246439e-01     -4.92171287e-01     
H    -2.88763729e+00     -2.26496027e-01     -1.41732470e+00     
H    -3.54906370e+00     -2.77659282e-01     -3.23686004e-02     
O    -4.32817831e-01     -2.04881778e+00     -5.42138390e+00     
H    -7.10010261e-01     -1.22283370e+00     -5.82291611e+00     
H    -8.78641534e-02     -2.58773166e+00     -6.14025917e+00     
O    1.17416835e+00      -3.42758188e+00     2.24721410e+00      
H    5.50497671e-01      -4.00496000e+00     2.69274121e+00      
H    1.99976864e+00      -3.91642445e+00     2.22654272e+00      
26
1089.134544
N    7.22854001e-03      -9.53320261e-02     -7.79653635e-02     
H    -1.03169171e+00     -9.30283854e-02     -9.56742312e-02     
H    3.36652391e-01      8.08838368e-01      -4.71106869e-01     
H    3.59398517e-01      -2.17338204e-01     8.97604828e-01      
C    5.10040538e-01      -1.14158908e+00     -7.86503491e-01     
H    1.59284407e+00      -1.08789696e+00     -7.04441082e-01     
H    1.79092404e-01      -2.05142486e+00     -2.92334133e-01     
C    4.07660550e-02      -1.09303890e+00     -2.25194162e+00     
O    -6.62331903e-01     -1.83766806e-01     -2.67396197e+00     
O    4.95593350e-01      -2.12933619e+00     -2.95554079e+00     
H    1.42173315e-01      -2.06107822e+00     -3.89277758e+00     
O    1.00605712e+00      2.05360151e+00      -1.52380565e+00     
H    5.27138856e-01      2.07822600e+00      -2.35714361e+00     
H    1.33176189e+00      2.94525481e+00      -1.37665804e+00     
O    1.07014402e+00      -6.61202593e-01     2.36905753e+00      
H    1.16497808e+00      -1.61290066e+00     2.52814548e+00      
H    1.23662825e+00      -2.17778216e-01     3.20145351e+00      
O    -2.71921679e+00     -4.28235727e-01     -4.92223526e-01     
H    -2.88783554e+00     -2.26674408e-01     -1.41738758e+00     
H    -3.54912299e+00     -2.77711673e-01     -3.23405982e-02     
O    -4.32785342e-01     -2.04880055e+00     -5.42138215e+00     
H    -7.10247334e-01     -1.22283220e+00     -5.82264863e+00     
H    -8.78814780e-02     -2.58804988e+00     -6.13999950e+00     
O    1.17418589e+00      -3.42762452e+00     2.24723565e+00      
H    5.50485530e-01      -4.00496953e+00     2.69277292e+00      
H    1.99980122e+00      -3.91648389e+00     2.22663539e+00      
