26
1276.538302
N    -2.15760088e-02     -4.74398427e-02     -6.57989446e-02     
H    -1.06422289e+00     -6.05151214e-02     -2.60944490e-02     
H    3.40909776e-01      8.68462635e-01      -4.12207197e-01     
H    3.63417707e-01      -2.23416367e-01     8.97722785e-01      
C    5.35827171e-01      -1.19449028e+00     -8.15355316e-01     
H    1.62551258e+00      -1.17233060e+00     -8.46799589e-01     
H    1.93522220e-01      -2.14635921e+00     -4.10285835e-01     
C    4.20280710e-02      -1.07098569e+00     -2.20699798e+00     
O    -6.67281229e-01     -1.79617549e-01     -2.68073685e+00     
O    5.06438121e-01      -2.15042325e+00     -2.96424652e+00     
H    8.48159548e-02      -1.96601221e+00     -3.86903356e+00     
O    1.00585684e+00      2.05293260e+00      -1.52417072e+00     
H    5.28088338e-01      2.08002084e+00      -2.35834638e+00     
H    1.32981087e+00      2.94498718e+00      -1.37303381e+00     
O    1.07012278e+00      -6.61453788e-01     2.36892406e+00      
H    1.16511408e+00      -1.61289010e+00     2.52911031e+00      
H    1.23546042e+00      -2.14507719e-01     3.19944812e+00      
O    -2.71870830e+00     -4.28441273e-01     -4.92816315e-01     
H    -2.89026629e+00     -2.26973901e-01     -1.41768686e+00     
H    -3.54675887e+00     -2.74932026e-01     -2.97941646e-02     
O    -4.31424443e-01     -2.05044876e+00     -5.42143791e+00     
H    -7.09252269e-01     -1.21924844e+00     -5.81136913e+00     
H    -9.31033164e-02     -2.58749199e+00     -6.14332098e+00     
O    1.17412758e+00      -3.42735781e+00     2.24719814e+00      
H    5.51488563e-01      -4.00633218e+00     2.69275439e+00      
H    1.99900307e+00      -3.91783233e+00     2.22687873e+00      
26
1276.538302
N    -1.91125853e-02     -4.92582693e-02     -6.21009788e-02     
H    -1.06101655e+00     -6.34304241e-02     -4.26127491e-02     
H    3.35571221e-01      8.60845015e-01      -4.27109647e-01     
H    3.53547696e-01      -2.05154556e-01     9.06300946e-01      
C    5.34364073e-01      -1.19293785e+00     -8.16887757e-01     
H    1.62314363e+00      -1.16696428e+00     -8.33933894e-01     
H    1.94309261e-01      -2.13979365e+00     -4.00739438e-01     
C    4.21363513e-02      -1.07652653e+00     -2.21815717e+00     
O    -6.64902129e-01     -1.82299812e-01     -2.67852083e+00     
O    5.03084275e-01      -2.14319483e+00     -2.95992567e+00     
H    9.91791881e-02      -1.98913372e+00     -3.87285717e+00     
O    1.00590922e+00      2.05299120e+00      -1.52397310e+00     
H    5.27614983e-01      2.07948180e+00      -2.35783087e+00     
H    1.33023840e+00      2.94503974e+00      -1.37403162e+00     
O    1.07011333e+00      -6.61676316e-01     2.36875273e+00      
H    1.16590007e+00      -1.61273580e+00     2.53004521e+00      
H    1.23507999e+00      -2.13677611e-01     3.19886653e+00      
O    -2.71870815e+00     -4.28400599e-01     -4.92615879e-01     
H    -2.88946035e+00     -2.26720646e-01     -1.41754916e+00     
H    -3.54729061e+00     -2.75574547e-01     -3.04587752e-02     
O    -4.31797156e-01     -2.05005394e+00     -5.42142571e+00     
H    -7.09263963e-01     -1.22014588e+00     -5.81445648e+00     
H    -9.17805322e-02     -2.58731324e+00     -6.14275028e+00     
O    1.17412462e+00      -3.42738185e+00     2.24718597e+00      
H    5.51249946e-01      -4.00598199e+00     2.69272731e+00      
H    1.99917002e+00      -3.91743578e+00     2.22672522e+00      
26
1276.538302
N    -1.78808735e-02     -5.01674825e-02     -6.02519959e-02     
H    -1.05941338e+00     -6.48880754e-02     -5.08718991e-02     
H    3.32901944e-01      8.57036205e-01      -4.34560872e-01     
H    3.48612690e-01      -1.96023651e-01     9.10590026e-01      
C    5.33632525e-01      -1.19216163e+00     -8.17653978e-01     
H    1.62195915e+00      -1.16428113e+00     -8.27501047e-01     
H    1.94702781e-01      -2.13651086e+00     -3.95966239e-01     
C    4.21904914e-02      -1.07929695e+00     -2.22373677e+00     
O    -6.63712579e-01     -1.83640943e-01     -2.67741283e+00     
O    5.01407353e-01      -2.13958063e+00     -2.95776525e+00     
H    1.06360805e-01      -2.00069448e+00     -3.87476897e+00     
O    1.00593541e+00      2.05302050e+00      -1.52387429e+00     
H    5.27378305e-01      2.07921228e+00      -2.35757312e+00     
H    1.33045216e+00      2.94506603e+00      -1.37453053e+00     
O    1.07010861e+00      -6.61787580e-01     2.36866706e+00      
H    1.16629306e+00      -1.61265866e+00     2.53051266e+00      
H    1.23488978e+00      -2.13262556e-01     3.19857574e+00      
O    -2.71870808e+00     -4.28380262e-01     -4.92515661e-01     
H    -2.88905738e+00     -2.26594019e-01     -1.41748030e+00     
H    -3.54755648e+00     -2.75895808e-01     -3.07910805e-02     
O    -4.31983513e-01     -2.04985653e+00     -5.42141961e+00     
H    -7.09269809e-01     -1.22059460e+00     -5.81600016e+00     
H    -9.11191401e-02     -2.58722387e+00     -6.14246493e+00     
O    1.17412314e+00      -3.42739386e+00     2.24717988e+00      
H    5.51130638e-01      -4.00580690e+00     2.69271377e+00      
H    1.99925350e+00      -3.91723751e+00     2.22664847e+00      
26
1276.538302
N    -1.66491618e-02     -5.10766958e-02     -5.84030130e-02     
H    -1.05781020e+00     -6.63457268e-02     -5.91310492e-02     
H    3.30232666e-01      8.53227395e-01      -4.42012097e-01     
H    3.43677685e-01      -1.86892746e-01     9.14879107e-01      
C    5.32900976e-01      -1.19138542e+00     -8.18420198e-01     
H    1.62077468e+00      -1.16159797e+00     -8.21068200e-01     
H    1.95096302e-01      -2.13322808e+00     -3.91193041e-01     
C    4.22446315e-02      -1.08206737e+00     -2.22931637e+00     
O    -6.62523029e-01     -1.84982074e-01     -2.67630482e+00     
O    4.99730430e-01      -2.13596642e+00     -2.95560483e+00     
H    1.13542421e-01      -2.01225523e+00     -3.87668078e+00     
O    1.00596160e+00      2.05304980e+00      -1.52377547e+00     
H    5.27141628e-01      2.07894277e+00      -2.35731536e+00     
H    1.33066593e+00      2.94509231e+00      -1.37502943e+00     
O    1.07010388e+00      -6.61898844e-01     2.36858140e+00      
H    1.16668605e+00      -1.61258151e+00     2.53098011e+00      
H    1.23469957e+00      -2.12847502e-01     3.19828495e+00      
O    -2.71870801e+00     -4.28359925e-01     -4.92415443e-01     
H    -2.88865441e+00     -2.26467392e-01     -1.41741145e+00     
H    -3.54782234e+00     -2.76217068e-01     -3.11233857e-02     
O    -4.32169870e-01     -2.04965912e+00     -5.42141351e+00     
H    -7.09275656e-01     -1.22104332e+00     -5.81754383e+00     
H    -9.04577481e-02     -2.58713450e+00     -6.14217958e+00     
O    1.17412166e+00      -3.42740588e+00     2.24717380e+00      
H    5.51011330e-01      -4.00563180e+00     2.69270023e+00      
H    1.99933698e+00      -3.91703924e+00     2.22657171e+00      
26
1276.538302
N    -1.54174500e-02     -5.19859091e-02     -5.65540301e-02     
H    -1.05620703e+00     -6.78033781e-02     -6.73901992e-02     
H    3.27563389e-01      8.49418585e-01      -4.49463322e-01     
H    3.38742679e-01      -1.77761840e-01     9.19168187e-01      
C    5.32169427e-01      -1.19060920e+00     -8.19186419e-01     
H    1.61959020e+00      -1.15891481e+00     -8.14635353e-01     
H    1.95489822e-01      -2.12994530e+00     -3.86419842e-01     
C    4.22987716e-02      -1.08483779e+00     -2.23489597e+00     
O    -6.61333480e-01     -1.86323206e-01     -2.67519681e+00     
O    4.98053507e-01      -2.13235221e+00     -2.95344440e+00     
H    1.20724038e-01      -2.02381599e+00     -3.87859258e+00     
O    1.00598778e+00      2.05307910e+00      -1.52367666e+00     
H    5.26904950e-01      2.07867325e+00      -2.35705761e+00     
H    1.33087969e+00      2.94511859e+00      -1.37552834e+00     
O    1.07009916e+00      -6.62010109e-01     2.36849573e+00      
H    1.16707904e+00      -1.61250437e+00     2.53144756e+00      
H    1.23450935e+00      -2.12432448e-01     3.19799416e+00      
O    -2.71870794e+00     -4.28339588e-01     -4.92315226e-01     
H    -2.88825144e+00     -2.26340764e-01     -1.41734260e+00     
H    -3.54808821e+00     -2.76538329e-01     -3.14556910e-02     
O    -4.32356226e-01     -2.04946171e+00     -5.42140742e+00     
H    -7.09281503e-01     -1.22149203e+00     -5.81908751e+00     
H    -8.97963560e-02     -2.58704512e+00     -6.14189423e+00     
O    1.17412018e+00      -3.42741790e+00     2.24716771e+00      
H    5.50892021e-01      -4.00545671e+00     2.69268669e+00      
H    1.99942046e+00      -3.91684096e+00     2.22649496e+00      
26
1276.538302
N    -1.41857383e-02     -5.28951224e-02     -5.47050472e-02     
H    -1.05460386e+00     -6.92610295e-02     -7.56493493e-02     
H    3.24894111e-01      8.45609775e-01      -4.56914546e-01     
H    3.33807674e-01      -1.68630935e-01     9.23457267e-01      
C    5.31437878e-01      -1.18983299e+00     -8.19952639e-01     
H    1.61840573e+00      -1.15623165e+00     -8.08202505e-01     
H    1.95883342e-01      -2.12666252e+00     -3.81646643e-01     
C    4.23529118e-02      -1.08760821e+00     -2.24047556e+00     
O    -6.60143930e-01     -1.87664337e-01     -2.67408880e+00     
O    4.96376584e-01      -2.12873800e+00     -2.95128398e+00     
H    1.27905655e-01      -2.03537674e+00     -3.88050439e+00     
O    1.00601397e+00      2.05310840e+00      -1.52357785e+00     
H    5.26668272e-01      2.07840373e+00      -2.35679985e+00     
H    1.33109346e+00      2.94514487e+00      -1.37602725e+00     
O    1.07009443e+00      -6.62121373e-01     2.36841006e+00      
H    1.16747204e+00      -1.61242722e+00     2.53191500e+00      
H    1.23431914e+00      -2.12017394e-01     3.19770336e+00      
O    -2.71870786e+00     -4.28319252e-01     -4.92215008e-01     
H    -2.88784847e+00     -2.26214137e-01     -1.41727375e+00     
H    -3.54835408e+00     -2.76859589e-01     -3.17879963e-02     
O    -4.32542583e-01     -2.04926431e+00     -5.42140132e+00     
H    -7.09287350e-01     -1.22194075e+00     -5.82063119e+00     
H    -8.91349639e-02     -2.58695575e+00     -6.14160888e+00     
O    1.17411870e+00      -3.42742992e+00     2.24716163e+00      
H    5.50772713e-01      -4.00528161e+00     2.69267315e+00      
H    1.99950393e+00      -3.91664269e+00     2.22641821e+00      
26
1276.538302
N    -1.35698824e-02     -5.33497290e-02     -5.37805557e-02     
H    -1.05380228e+00     -6.99898552e-02     -7.97789243e-02     
H    3.23559472e-01      8.43705370e-01      -4.60640159e-01     
H    3.31340171e-01      -1.64065482e-01     9.25601808e-01      
C    5.31072103e-01      -1.18944488e+00     -8.20335749e-01     
H    1.61781349e+00      -1.15489007e+00     -8.04986082e-01     
H    1.96080103e-01      -2.12502113e+00     -3.79260044e-01     
C    4.23799818e-02      -1.08899342e+00     -2.24326536e+00     
O    -6.59549155e-01     -1.88334903e-01     -2.67353479e+00     
O    4.95538122e-01      -2.12693089e+00     -2.95020377e+00     
H    1.31496463e-01      -2.04115712e+00     -3.88146029e+00     
O    1.00602707e+00      2.05312305e+00      -1.52352845e+00     
H    5.26549934e-01      2.07826898e+00      -2.35667097e+00     
H    1.33120034e+00      2.94515801e+00      -1.37627670e+00     
O    1.07009207e+00      -6.62177005e-01     2.36836723e+00      
H    1.16766853e+00      -1.61238865e+00     2.53214873e+00      
H    1.23422403e+00      -2.11809867e-01     3.19755797e+00      
O    -2.71870783e+00     -4.28309083e-01     -4.92164899e-01     
H    -2.88764699e+00     -2.26150823e-01     -1.41723933e+00     
H    -3.54848702e+00     -2.77020219e-01     -3.19541489e-02     
O    -4.32635761e-01     -2.04916560e+00     -5.42139827e+00     
H    -7.09290274e-01     -1.22216511e+00     -5.82140303e+00     
H    -8.88042678e-02     -2.58691106e+00     -6.14146620e+00     
O    1.17411796e+00      -3.42743592e+00     2.24715859e+00      
H    5.50713059e-01      -4.00519406e+00     2.69266638e+00      
H    1.99954567e+00      -3.91654355e+00     2.22637983e+00      
26
1276.538302
N    -1.29540265e-02     -5.38043356e-02     -5.28560643e-02     
H    -1.05300069e+00     -7.07186808e-02     -8.39084993e-02     
H    3.22224834e-01      8.41800965e-01      -4.64365771e-01     
H    3.28872668e-01      -1.59500029e-01     9.27746348e-01      
C    5.30706329e-01      -1.18905677e+00     -8.20718860e-01     
H    1.61722125e+00      -1.15354849e+00     -8.01769658e-01     
H    1.96276863e-01      -2.12337974e+00     -3.76873445e-01     
C    4.24070519e-02      -1.09037863e+00     -2.24605516e+00     
O    -6.58954380e-01     -1.89005469e-01     -2.67298079e+00     
O    4.94699661e-01      -2.12512379e+00     -2.94912355e+00     
H    1.35087271e-01      -2.04693750e+00     -3.88241619e+00     
O    1.00604016e+00      2.05313770e+00      -1.52347904e+00     
H    5.26431595e-01      2.07813422e+00      -2.35654210e+00     
H    1.33130722e+00      2.94517115e+00      -1.37652615e+00     
O    1.07008971e+00      -6.62232637e-01     2.36832440e+00      
H    1.16786503e+00      -1.61235008e+00     2.53238245e+00      
H    1.23412892e+00      -2.11602340e-01     3.19741257e+00      
O    -2.71870779e+00     -4.28298915e-01     -4.92114790e-01     
H    -2.88744550e+00     -2.26087509e-01     -1.41720490e+00     
H    -3.54861995e+00     -2.77180850e-01     -3.21203015e-02     
O    -4.32728939e-01     -2.04906690e+00     -5.42139522e+00     
H    -7.09293197e-01     -1.22238947e+00     -5.82217486e+00     
H    -8.84735718e-02     -2.58686637e+00     -6.14132353e+00     
O    1.17411722e+00      -3.42744193e+00     2.24715554e+00      
H    5.50653404e-01      -4.00510652e+00     2.69265961e+00      
H    1.99958741e+00      -3.91644441e+00     2.22634145e+00      
26
1276.538302
N    -1.04906031e-02     -5.56227622e-02     -4.91580985e-02     
H    -1.04979435e+00     -7.36339836e-02     -1.00426799e-01     
H    3.16886278e-01      8.34183345e-01      -4.79268221e-01     
H    3.19002658e-01      -1.41238219e-01     9.36324508e-01      
C    5.29243231e-01      -1.18750435e+00     -8.22251300e-01     
H    1.61485231e+00      -1.14818217e+00     -7.88903964e-01     
H    1.97063903e-01      -2.11681418e+00     -3.67327047e-01     
C    4.25153321e-02      -1.09591947e+00     -2.25721436e+00     
O    -6.56575280e-01     -1.91687731e-01     -2.67076477e+00     
O    4.91345815e-01      -2.11789537e+00     -2.94480271e+00     
H    1.49450505e-01      -2.07005900e+00     -3.88623981e+00     
O    1.00609254e+00      2.05319630e+00      -1.52328142e+00     
H    5.25958239e-01      2.07759518e+00      -2.35602658e+00     
H    1.33173476e+00      2.94522371e+00      -1.37752397e+00     
O    1.07008025e+00      -6.62455165e-01     2.36815306e+00      
H    1.16865101e+00      -1.61219578e+00     2.53331735e+00      
H    1.23374850e+00      -2.10772232e-01     3.19683099e+00      
O    -2.71870765e+00     -4.28258241e-01     -4.91914354e-01     
H    -2.88663956e+00     -2.25834255e-01     -1.41706720e+00     
H    -3.54915169e+00     -2.77823370e-01     -3.27849121e-02     
O    -4.33101653e-01     -2.04867208e+00     -5.42138302e+00     
H    -7.09304891e-01     -1.22328691e+00     -5.82526222e+00     
H    -8.71507876e-02     -2.58668763e+00     -6.14075283e+00     
O    1.17411426e+00      -3.42746597e+00     2.24714338e+00      
H    5.50414788e-01      -4.00475632e+00     2.69263253e+00      
H    1.99975437e+00      -3.91604787e+00     2.22618795e+00      
26
1276.538302
N    -9.87474718e-03     -5.60773688e-02     -4.82336071e-02     
H    -1.04899276e+00     -7.43628092e-02     -1.04556374e-01     
H    3.15551640e-01      8.32278940e-01      -4.82993833e-01     
H    3.16535155e-01      -1.36672766e-01     9.38469048e-01      
C    5.28877457e-01      -1.18711624e+00     -8.22634411e-01     
H    1.61426007e+00      -1.14684059e+00     -7.85687540e-01     
H    1.97260663e-01      -2.11517279e+00     -3.64940448e-01     
C    4.25424022e-02      -1.09730468e+00     -2.26000416e+00     
O    -6.55980505e-01     -1.92358297e-01     -2.67021077e+00     
O    4.90507354e-01      -2.11608827e+00     -2.94372249e+00     
H    1.53041313e-01      -2.07583938e+00     -3.88719571e+00     
O    1.00610563e+00      2.05321095e+00      -1.52323201e+00     
H    5.25839900e-01      2.07746042e+00      -2.35589771e+00     
H    1.33184164e+00      2.94523685e+00      -1.37777342e+00     
O    1.07007789e+00      -6.62510797e-01     2.36811023e+00      
H    1.16884751e+00      -1.61215721e+00     2.53355107e+00      
H    1.23365339e+00      -2.10564705e-01     3.19668559e+00      
O    -2.71870761e+00     -4.28248073e-01     -4.91864245e-01     
H    -2.88643807e+00     -2.25770941e-01     -1.41703277e+00     
H    -3.54928462e+00     -2.77984001e-01     -3.29510647e-02     
O    -4.33194831e-01     -2.04857338e+00     -5.42137997e+00     
H    -7.09307814e-01     -1.22351127e+00     -5.82603405e+00     
H    -8.68200916e-02     -2.58664294e+00     -6.14061016e+00     
O    1.17411352e+00      -3.42747198e+00     2.24714033e+00      
H    5.50355133e-01      -4.00466878e+00     2.69262576e+00      
H    1.99979611e+00      -3.91594873e+00     2.22614957e+00      
26
1276.538302
N    -9.25889130e-03     -5.65319754e-02     -4.73091156e-02     
H    -1.04819118e+00     -7.50916349e-02     -1.08685950e-01     
H    3.14217001e-01      8.30374535e-01      -4.86719446e-01     
H    3.14067652e-01      -1.32107313e-01     9.40613589e-01      
C    5.28511682e-01      -1.18672813e+00     -8.23017521e-01     
H    1.61366783e+00      -1.14549901e+00     -7.82471117e-01     
H    1.97457424e-01      -2.11353140e+00     -3.62553849e-01     
C    4.25694722e-02      -1.09868989e+00     -2.26279396e+00     
O    -6.55385730e-01     -1.93028863e-01     -2.66965676e+00     
O    4.89668892e-01      -2.11428116e+00     -2.94264228e+00     
H    1.56632121e-01      -2.08161976e+00     -3.88815161e+00     
O    1.00611873e+00      2.05322560e+00      -1.52318261e+00     
H    5.25721562e-01      2.07732567e+00      -2.35576883e+00     
H    1.33194852e+00      2.94524999e+00      -1.37802287e+00     
O    1.07007553e+00      -6.62566429e-01     2.36806740e+00      
H    1.16904400e+00      -1.61211864e+00     2.53378480e+00      
H    1.23355828e+00      -2.10357178e-01     3.19654020e+00      
O    -2.71870758e+00     -4.28237904e-01     -4.91814136e-01     
H    -2.88623659e+00     -2.25707627e-01     -1.41699835e+00     
H    -3.54941756e+00     -2.78144631e-01     -3.31172173e-02     
O    -4.33288009e-01     -2.04847467e+00     -5.42137692e+00     
H    -7.09310738e-01     -1.22373563e+00     -5.82680589e+00     
H    -8.64893955e-02     -2.58659825e+00     -6.14046748e+00     
O    1.17411278e+00      -3.42747798e+00     2.24713729e+00      
H    5.50295479e-01      -4.00458123e+00     2.69261899e+00      
H    1.99983785e+00      -3.91584959e+00     2.22611119e+00      
26
1276.538302
N    -8.02717956e-03     -5.74411887e-02     -4.54601327e-02     
H    -1.04658801e+00     -7.65492863e-02     -1.16945100e-01     
H    3.11547723e-01      8.26565725e-01      -4.94170670e-01     
H    3.09132647e-01      -1.22976408e-01     9.44902669e-01      
C    5.27780133e-01      -1.18595192e+00     -8.23783741e-01     
H    1.61248336e+00      -1.14281585e+00     -7.76038269e-01     
H    1.97850944e-01      -2.11024862e+00     -3.57780650e-01     
C    4.26236124e-02      -1.10146031e+00     -2.26837355e+00     
O    -6.54196180e-01     -1.94369994e-01     -2.66854875e+00     
O    4.87991969e-01      -2.11066695e+00     -2.94048186e+00     
H    1.63813738e-01      -2.09318051e+00     -3.89006342e+00     
O    1.00614492e+00      2.05325490e+00      -1.52308380e+00     
H    5.25484884e-01      2.07705615e+00      -2.35551107e+00     
H    1.33216229e+00      2.94527627e+00      -1.37852178e+00     
O    1.07007080e+00      -6.62677693e-01     2.36798173e+00      
H    1.16943700e+00      -1.61204149e+00     2.53425224e+00      
H    1.23336807e+00      -2.09942124e-01     3.19624940e+00      
O    -2.71870750e+00     -4.28217568e-01     -4.91713918e-01     
H    -2.88583362e+00     -2.25581000e-01     -1.41692950e+00     
H    -3.54968343e+00     -2.78465891e-01     -3.34495226e-02     
O    -4.33474366e-01     -2.04827727e+00     -5.42137082e+00     
H    -7.09316585e-01     -1.22418435e+00     -5.82834957e+00     
H    -8.58280034e-02     -2.58650888e+00     -6.14018213e+00     
O    1.17411130e+00      -3.42749000e+00     2.24713121e+00      
H    5.50176171e-01      -4.00440613e+00     2.69260545e+00      
H    1.99992132e+00      -3.91565132e+00     2.22603444e+00      
26
1276.538302
N    -6.79546781e-03     -5.83504020e-02     -4.36111498e-02     
H    -1.04498484e+00     -7.80069376e-02     -1.25204250e-01     
H    3.08878446e-01      8.22756915e-01      -5.01621895e-01     
H    3.04197641e-01      -1.13845502e-01     9.49191749e-01      
C    5.27048584e-01      -1.18517570e+00     -8.24549962e-01     
H    1.61129888e+00      -1.14013269e+00     -7.69605422e-01     
H    1.98244464e-01      -2.10696584e+00     -3.53007451e-01     
C    4.26777525e-02      -1.10423073e+00     -2.27395315e+00     
O    -6.53006631e-01     -1.95711126e-01     -2.66744074e+00     
O    4.86315046e-01      -2.10705274e+00     -2.93832143e+00     
H    1.70995355e-01      -2.10474127e+00     -3.89197522e+00     
O    1.00617110e+00      2.05328420e+00      -1.52298499e+00     
H    5.25248206e-01      2.07678663e+00      -2.35525332e+00     
H    1.33237605e+00      2.94530255e+00      -1.37902069e+00     
O    1.07006608e+00      -6.62788958e-01     2.36789606e+00      
H    1.16982999e+00      -1.61196435e+00     2.53471969e+00      
H    1.23317785e+00      -2.09527070e-01     3.19595861e+00      
O    -2.71870743e+00     -4.28197231e-01     -4.91613701e-01     
H    -2.88543065e+00     -2.25454372e-01     -1.41686065e+00     
H    -3.54994930e+00     -2.78787152e-01     -3.37818279e-02     
O    -4.33660722e-01     -2.04807986e+00     -5.42136473e+00     
H    -7.09322432e-01     -1.22463306e+00     -5.82989325e+00     
H    -8.51666113e-02     -2.58641950e+00     -6.13989678e+00     
O    1.17410982e+00      -3.42750202e+00     2.24712512e+00      
H    5.50056862e-01      -4.00423104e+00     2.69259191e+00      
H    2.00000480e+00      -3.91545304e+00     2.22595769e+00      
26
1276.538302
N    -5.56375606e-03     -5.92596153e-02     -4.17621669e-02     
H    -1.04338166e+00     -7.94645890e-02     -1.33463400e-01     
H    3.06209168e-01      8.18948105e-01      -5.09073120e-01     
H    2.99262636e-01      -1.04714597e-01     9.53480830e-01      
C    5.26317035e-01      -1.18439949e+00     -8.25316182e-01     
H    1.61011441e+00      -1.13744953e+00     -7.63172575e-01     
H    1.98637985e-01      -2.10368306e+00     -3.48234253e-01     
C    4.27318926e-02      -1.10700115e+00     -2.27953275e+00     
O    -6.51817081e-01     -1.97052257e-01     -2.66633273e+00     
O    4.84638123e-01      -2.10343853e+00     -2.93616101e+00     
H    1.78176971e-01      -2.11630202e+00     -3.89388703e+00     
O    1.00619729e+00      2.05331350e+00      -1.52288617e+00     
H    5.25011529e-01      2.07651712e+00      -2.35499556e+00     
H    1.33258982e+00      2.94532883e+00      -1.37951959e+00     
O    1.07006135e+00      -6.62900222e-01     2.36781040e+00      
H    1.17022298e+00      -1.61188720e+00     2.53518714e+00      
H    1.23298764e+00      -2.09112016e-01     3.19566782e+00      
O    -2.71870736e+00     -4.28176894e-01     -4.91513483e-01     
H    -2.88502768e+00     -2.25327745e-01     -1.41679180e+00     
H    -3.55021516e+00     -2.79108412e-01     -3.41141331e-02     
O    -4.33847079e-01     -2.04788245e+00     -5.42135863e+00     
H    -7.09328279e-01     -1.22508178e+00     -5.83143692e+00     
H    -8.45052193e-02     -2.58633013e+00     -6.13961143e+00     
O    1.17410834e+00      -3.42751404e+00     2.24711904e+00      
H    5.49937554e-01      -4.00405594e+00     2.69257837e+00      
H    2.00008828e+00      -3.91525477e+00     2.22588093e+00      
26
1276.538302
N    -4.33204431e-03     -6.01688285e-02     -3.99131840e-02     
H    -1.04177849e+00     -8.09222403e-02     -1.41722550e-01     
H    3.03539891e-01      8.15139295e-01      -5.16524345e-01     
H    2.94327630e-01      -9.55836917e-02     9.57769910e-01      
C    5.25585487e-01      -1.18362327e+00     -8.26082403e-01     
H    1.60892993e+00      -1.13476638e+00     -7.56739728e-01     
H    1.99031505e-01      -2.10040027e+00     -3.43461054e-01     
C    4.27860327e-02      -1.10977157e+00     -2.28511235e+00     
O    -6.50627531e-01     -1.98393388e-01     -2.66522473e+00     
O    4.82961201e-01      -2.09982433e+00     -2.93400059e+00     
H    1.85358588e-01      -2.12786278e+00     -3.89579883e+00     
O    1.00622348e+00      2.05334280e+00      -1.52278736e+00     
H    5.24774851e-01      2.07624760e+00      -2.35473781e+00     
H    1.33280358e+00      2.94535512e+00      -1.38001850e+00     
O    1.07005663e+00      -6.63011486e-01     2.36772473e+00      
H    1.17061597e+00      -1.61181006e+00     2.53565459e+00      
H    1.23279743e+00      -2.08696961e-01     3.19537703e+00      
O    -2.71870729e+00     -4.28156557e-01     -4.91413265e-01     
H    -2.88462471e+00     -2.25201118e-01     -1.41672294e+00     
H    -3.55048103e+00     -2.79429673e-01     -3.44464384e-02     
O    -4.34033436e-01     -2.04768504e+00     -5.42135253e+00     
H    -7.09334125e-01     -1.22553050e+00     -5.83298060e+00     
H    -8.38438272e-02     -2.58624076e+00     -6.13932608e+00     
O    1.17410686e+00      -3.42752605e+00     2.24711295e+00      
H    5.49818246e-01      -4.00388085e+00     2.69256483e+00      
H    2.00017176e+00      -3.91505650e+00     2.22580418e+00      
26
1276.538302
N    -1.86862082e-03     -6.19872551e-02     -3.62152182e-02     
H    -1.03857215e+00     -8.38375430e-02     -1.58240850e-01     
H    2.98201336e-01      8.07521675e-01      -5.31426795e-01     
H    2.84457619e-01      -7.73218809e-02     9.66348071e-01      
C    5.24122389e-01      -1.18207084e+00     -8.27614844e-01     
H    1.60656098e+00      -1.12940006e+00     -7.43874033e-01     
H    1.99818546e-01      -2.09383471e+00     -3.33914657e-01     
C    4.28943130e-02      -1.11531241e+00     -2.29627154e+00     
O    -6.48248431e-01     -2.01075651e-01     -2.66300871e+00     
O    4.79607355e-01      -2.09259591e+00     -2.92967974e+00     
H    1.99721821e-01      -2.15098429e+00     -3.89962244e+00     
O    1.00627586e+00      2.05340140e+00      -1.52258974e+00     
H    5.24301496e-01      2.07570856e+00      -2.35422230e+00     
H    1.33323111e+00      2.94540768e+00      -1.38101631e+00     
O    1.07004718e+00      -6.63234014e-01     2.36755340e+00      
H    1.17140196e+00      -1.61165576e+00     2.53658949e+00      
H    1.23241700e+00      -2.07866853e-01     3.19479544e+00      
O    -2.71870714e+00     -4.28115883e-01     -4.91212829e-01     
H    -2.88381877e+00     -2.24947863e-01     -1.41658524e+00     
H    -3.55101277e+00     -2.80072194e-01     -3.51110490e-02     
O    -4.34406149e-01     -2.04729022e+00     -5.42134033e+00     
H    -7.09345819e-01     -1.22642794e+00     -5.83606795e+00     
H    -8.25210430e-02     -2.58606201e+00     -6.13875538e+00     
O    1.17410390e+00      -3.42755009e+00     2.24710078e+00      
H    5.49579629e-01      -4.00353066e+00     2.69253775e+00      
H    2.00033871e+00      -3.91465995e+00     2.22565067e+00      
