26
1186.682118
N    -3.22261632e-03     -6.38736379e-02     -4.11034127e-02     
H    -1.04301217e+00     -9.00868084e-02     -1.67055137e-01     
H    3.10866604e-01      7.97934736e-01      -5.51644006e-01     
H    2.77261403e-01      -5.68478112e-02     9.67190347e-01      
C    5.21160477e-01      -1.16961514e+00     -8.13777870e-01     
H    1.60955551e+00      -1.16737294e+00     -8.56005653e-01     
H    1.88421486e-01      -2.14469369e+00     -4.54849316e-01     
C    4.16916773e-02      -1.08850308e+00     -2.23844287e+00     
O    -6.58427208e-01     -1.89224454e-01     -2.67263136e+00     
O    4.97529705e-01      -2.13218521e+00     -2.95505602e+00     
H    1.28002931e-01      -2.03422861e+00     -3.88389665e+00     
O    1.00668966e+00      2.05380369e+00      -1.52238318e+00     
H    5.22815780e-01      2.07470537e+00      -2.35318295e+00     
H    1.33185578e+00      2.94736365e+00      -1.38459598e+00     
O    1.07029506e+00      -6.64037888e-01     2.36761922e+00      
H    1.17303237e+00      -1.61167926e+00     2.53992370e+00      
H    1.23110351e+00      -2.04854109e-01     3.19319277e+00      
O    -2.71903735e+00     -4.28360319e-01     -4.90846323e-01     
H    -2.88282652e+00     -2.23596156e-01     -1.41634042e+00     
H    -3.55349346e+00     -2.78768527e-01     -3.83807320e-02     
O    -4.32506877e-01     -2.04949314e+00     -5.42135830e+00     
H    -7.08601371e-01     -1.22228201e+00     -5.82160344e+00     
H    -8.99485101e-02     -2.58549633e+00     -6.14376509e+00     
O    1.17408709e+00      -3.42749263e+00     2.24704660e+00      
H    5.50008047e-01      -4.00372511e+00     2.69291617e+00      
H    2.00008485e+00      -3.91512153e+00     2.22625267e+00      
26
1186.682118
N    -5.34754094e-03     -6.15836157e-02     -4.35793299e-02     
H    -1.04510851e+00     -8.56091893e-02     -1.48333265e-01     
H    3.13038842e-01      8.07949091e-01      -5.31687254e-01     
H    2.88930468e-01      -8.02281394e-02     9.58401617e-01      
C    5.23364052e-01      -1.17428149e+00     -8.15704672e-01     
H    1.61117583e+00      -1.16324604e+00     -8.40838442e-01     
H    1.90483711e-01      -2.13854450e+00     -4.34162049e-01     
C    4.18840559e-02      -1.08966457e+00     -2.24174085e+00     
O    -6.58261613e-01     -1.89504990e-01     -2.67244171e+00     
O    4.96402963e-01      -2.12951630e+00     -2.95303280e+00     
H    1.31569420e-01      -2.04029602e+00     -3.88400449e+00     
O    1.00653383e+00      2.05364452e+00      -1.52263244e+00     
H    5.23660564e-01      2.07549521e+00      -2.35395830e+00     
H    1.33177208e+00      2.94682210e+00      -1.38270325e+00     
O    1.07024254e+00      -6.63614391e-01     2.36777410e+00      
H    1.17183878e+00      -1.61182768e+00     2.53815525e+00      
H    1.23181231e+00      -2.06437403e-01     3.19417502e+00      
O    -2.71895494e+00     -4.28339884e-01     -4.91138385e-01     
H    -2.88388052e+00     -2.24187337e-01     -1.41653933e+00     
H    -3.55234155e+00     -2.78451922e-01     -3.68987007e-02     
O    -4.32608982e-01     -2.04933723e+00     -5.42136600e+00     
H    -7.08775789e-01     -1.22242105e+00     -5.82213222e+00     
H    -8.94144275e-02     -2.58581649e+00     -6.14308337e+00     
O    1.17409425e+00      -3.42748296e+00     2.24707231e+00      
H    5.50139559e-01      -4.00402668e+00     2.69284865e+00      
H    1.99998136e+00      -3.91540268e+00     2.22625567e+00      
26
1186.682118
N    -6.41000325e-03     -6.04386046e-02     -4.48172885e-02     
H    -1.04615668e+00     -8.33703798e-02     -1.38972329e-01     
H    3.14124961e-01      8.12956268e-01      -5.21708877e-01     
H    2.94765000e-01      -9.19183035e-02     9.54007253e-01      
C    5.24465840e-01      -1.17661467e+00     -8.16668074e-01     
H    1.61198598e+00      -1.16118259e+00     -8.33254837e-01     
H    1.91514823e-01      -2.13546991e+00     -4.23818415e-01     
C    4.19802453e-02      -1.09024532e+00     -2.24338983e+00     
O    -6.58178816e-01     -1.89645259e-01     -2.67234689e+00     
O    4.95839592e-01      -2.12818185e+00     -2.95202119e+00     
H    1.33352665e-01      -2.04332973e+00     -3.88405841e+00     
O    1.00645592e+00      2.05356493e+00      -1.52275708e+00     
H    5.24082956e-01      2.07589012e+00      -2.35434597e+00     
H    1.33173023e+00      2.94655132e+00      -1.38175689e+00     
O    1.07021628e+00      -6.63402643e-01     2.36785154e+00      
H    1.17124199e+00      -1.61190189e+00     2.53727103e+00      
H    1.23216671e+00      -2.07229050e-01     3.19466615e+00      
O    -2.71891374e+00     -4.28329666e-01     -4.91284416e-01     
H    -2.88440753e+00     -2.24482928e-01     -1.41663878e+00     
H    -3.55176560e+00     -2.78293620e-01     -3.61576851e-02     
O    -4.32660034e-01     -2.04925927e+00     -5.42136986e+00     
H    -7.08862998e-01     -1.22249057e+00     -5.82239661e+00     
H    -8.91473862e-02     -2.58597658e+00     -6.14274250e+00     
O    1.17409783e+00      -3.42747813e+00     2.24708517e+00      
H    5.50205316e-01      -4.00417747e+00     2.69281489e+00      
H    1.99992962e+00      -3.91554326e+00     2.22625718e+00      
26
1186.682118
N    -7.47246556e-03     -5.92935934e-02     -4.60552470e-02     
H    -1.04720484e+00     -8.11315703e-02     -1.29611393e-01     
H    3.15211080e-01      8.17963446e-01      -5.11730501e-01     
H    3.00599533e-01      -1.03608468e-01     9.49612888e-01      
C    5.25567628e-01      -1.17894785e+00     -8.17631475e-01     
H    1.61279614e+00      -1.15911914e+00     -8.25671232e-01     
H    1.92545935e-01      -2.13239532e+00     -4.13474781e-01     
C    4.20764346e-02      -1.09082606e+00     -2.24503882e+00     
O    -6.58096019e-01     -1.89785527e-01     -2.67225207e+00     
O    4.95276221e-01      -2.12684740e+00     -2.95100958e+00     
H    1.35135909e-01      -2.04636343e+00     -3.88411232e+00     
O    1.00637801e+00      2.05348535e+00      -1.52288171e+00     
H    5.24505349e-01      2.07628504e+00      -2.35473364e+00     
H    1.33168838e+00      2.94628054e+00      -1.38081052e+00     
O    1.07019002e+00      -6.63190894e-01     2.36792898e+00      
H    1.17064520e+00      -1.61197610e+00     2.53638680e+00      
H    1.23252111e+00      -2.08020698e-01     3.19515728e+00      
O    -2.71887254e+00     -4.28319449e-01     -4.91430447e-01     
H    -2.88493453e+00     -2.24778519e-01     -1.41673823e+00     
H    -3.55118964e+00     -2.78135318e-01     -3.54166694e-02     
O    -4.32711086e-01     -2.04918132e+00     -5.42137371e+00     
H    -7.08950207e-01     -1.22256010e+00     -5.82266099e+00     
H    -8.88803449e-02     -2.58613666e+00     -6.14240164e+00     
O    1.17410142e+00      -3.42747329e+00     2.24709803e+00      
H    5.50271072e-01      -4.00432826e+00     2.69278112e+00      
H    1.99987787e+00      -3.91568384e+00     2.22625868e+00      
26
1186.682118
N    -8.53492787e-03     -5.81485823e-02     -4.72932056e-02     
H    -1.04825301e+00     -7.88927608e-02     -1.20250457e-01     
H    3.16297199e-01      8.22970623e-01      -5.01752125e-01     
H    3.06434065e-01      -1.15298632e-01     9.45218523e-01      
C    5.26669416e-01      -1.18128103e+00     -8.18594876e-01     
H    1.61360630e+00      -1.15705569e+00     -8.18087627e-01     
H    1.93577047e-01      -2.12932073e+00     -4.03131147e-01     
C    4.21726240e-02      -1.09140681e+00     -2.24668780e+00     
O    -6.58013222e-01     -1.89925795e-01     -2.67215725e+00     
O    4.94712850e-01      -2.12551294e+00     -2.94999796e+00     
H    1.36919154e-01      -2.04939714e+00     -3.88416624e+00     
O    1.00630009e+00      2.05340576e+00      -1.52300634e+00     
H    5.24927741e-01      2.07667995e+00      -2.35512132e+00     
H    1.33164653e+00      2.94600976e+00      -1.37986416e+00     
O    1.07016376e+00      -6.62979146e-01     2.36800641e+00      
H    1.17004840e+00      -1.61205031e+00     2.53550258e+00      
H    1.23287551e+00      -2.08812345e-01     3.19564840e+00      
O    -2.71883133e+00     -4.28309231e-01     -4.91576479e-01     
H    -2.88546153e+00     -2.25074110e-01     -1.41683769e+00     
H    -3.55061369e+00     -2.77977016e-01     -3.46756538e-02     
O    -4.32762139e-01     -2.04910336e+00     -5.42137756e+00     
H    -7.09037417e-01     -1.22262962e+00     -5.82292538e+00     
H    -8.86133036e-02     -2.58629675e+00     -6.14206077e+00     
O    1.17410500e+00      -3.42746846e+00     2.24711089e+00      
H    5.50336828e-01      -4.00447905e+00     2.69274736e+00      
H    1.99982613e+00      -3.91582441e+00     2.22626019e+00      
26
1186.682118
N    -9.59739018e-03     -5.70035712e-02     -4.85311642e-02     
H    -1.04930118e+00     -7.66539512e-02     -1.10889521e-01     
H    3.17383318e-01      8.27977800e-01      -4.91773749e-01     
H    3.12268598e-01      -1.26988796e-01     9.40824158e-01      
C    5.27771204e-01      -1.18361420e+00     -8.19558277e-01     
H    1.61441646e+00      -1.15499223e+00     -8.10504021e-01     
H    1.94608159e-01      -2.12624614e+00     -3.92787514e-01     
C    4.22688133e-02      -1.09198756e+00     -2.24833679e+00     
O    -6.57930424e-01     -1.90066063e-01     -2.67206242e+00     
O    4.94149480e-01      -2.12417849e+00     -2.94898635e+00     
H    1.38702399e-01      -2.05243084e+00     -3.88422016e+00     
O    1.00622218e+00      2.05332617e+00      -1.52313097e+00     
H    5.25350133e-01      2.07707487e+00      -2.35550899e+00     
H    1.33160469e+00      2.94573899e+00      -1.37891779e+00     
O    1.07013750e+00      -6.62767398e-01     2.36808385e+00      
H    1.16945161e+00      -1.61212451e+00     2.53461835e+00      
H    1.23322991e+00      -2.09603992e-01     3.19613953e+00      
O    -2.71879013e+00     -4.28299013e-01     -4.91722510e-01     
H    -2.88598853e+00     -2.25369700e-01     -1.41693714e+00     
H    -3.55003773e+00     -2.77818714e-01     -3.39346381e-02     
O    -4.32813191e-01     -2.04902540e+00     -5.42138141e+00     
H    -7.09124626e-01     -1.22269914e+00     -5.82318977e+00     
H    -8.83462623e-02     -2.58645683e+00     -6.14171991e+00     
O    1.17410858e+00      -3.42746362e+00     2.24712374e+00      
H    5.50402584e-01      -4.00462984e+00     2.69271360e+00      
H    1.99977438e+00      -3.91596499e+00     2.22626169e+00      
26
1186.682118
N    -1.01286213e-02     -5.64310656e-02     -4.91501435e-02     
H    -1.04982527e+00     -7.55345465e-02     -1.06209053e-01     
H    3.17926377e-01      8.30481389e-01      -4.86784560e-01     
H    3.15185864e-01      -1.32833878e-01     9.38626975e-01      
C    5.28322098e-01      -1.18478079e+00     -8.20039978e-01     
H    1.61482154e+00      -1.15396051e+00     -8.06712219e-01     
H    1.95123715e-01      -2.12470885e+00     -3.87615697e-01     
C    4.23169080e-02      -1.09227793e+00     -2.24916128e+00     
O    -6.57889026e-01     -1.90136198e-01     -2.67201501e+00     
O    4.93867794e-01      -2.12351126e+00     -2.94848055e+00     
H    1.39594021e-01      -2.05394769e+00     -3.88424712e+00     
O    1.00618322e+00      2.05328638e+00      -1.52319328e+00     
H    5.25561329e-01      2.07727233e+00      -2.35570283e+00     
H    1.33158376e+00      2.94560360e+00      -1.37844461e+00     
O    1.07012437e+00      -6.62661523e-01     2.36812257e+00      
H    1.16915321e+00      -1.61216162e+00     2.53417624e+00      
H    1.23340711e+00      -2.09999815e-01     3.19638509e+00      
O    -2.71876953e+00     -4.28293904e-01     -4.91795525e-01     
H    -2.88625203e+00     -2.25517496e-01     -1.41698687e+00     
H    -3.54974975e+00     -2.77739563e-01     -3.35641303e-02     
O    -4.32838717e-01     -2.04898643e+00     -5.42138334e+00     
H    -7.09168230e-01     -1.22273391e+00     -5.82332196e+00     
H    -8.82127416e-02     -2.58653687e+00     -6.14154948e+00     
O    1.17411037e+00      -3.42746120e+00     2.24713017e+00      
H    5.50435462e-01      -4.00470524e+00     2.69269671e+00      
H    1.99974851e+00      -3.91603528e+00     2.22626244e+00      
26
1186.682118
N    -1.06598525e-02     -5.58585600e-02     -4.97691228e-02     
H    -1.05034935e+00     -7.44151417e-02     -1.01528585e-01     
H    3.18469437e-01      8.32984978e-01      -4.81795372e-01     
H    3.18103130e-01      -1.38678960e-01     9.36429793e-01      
C    5.28872992e-01      -1.18594738e+00     -8.20521679e-01     
H    1.61522662e+00      -1.15292878e+00     -8.02920416e-01     
H    1.95639271e-01      -2.12317155e+00     -3.82443880e-01     
C    4.23650027e-02      -1.09256830e+00     -2.24998577e+00     
O    -6.57847627e-01     -1.90206332e-01     -2.67196760e+00     
O    4.93586109e-01      -2.12284403e+00     -2.94797474e+00     
H    1.40485643e-01      -2.05546455e+00     -3.88427408e+00     
O    1.00614426e+00      2.05324659e+00      -1.52325560e+00     
H    5.25772525e-01      2.07746978e+00      -2.35589667e+00     
H    1.33156284e+00      2.94546821e+00      -1.37797143e+00     
O    1.07011124e+00      -6.62555649e-01     2.36816129e+00      
H    1.16885481e+00      -1.61219872e+00     2.53373413e+00      
H    1.23358431e+00      -2.10395639e-01     3.19663065e+00      
O    -2.71874892e+00     -4.28288796e-01     -4.91868541e-01     
H    -2.88651553e+00     -2.25665291e-01     -1.41703660e+00     
H    -3.54946178e+00     -2.77660412e-01     -3.31936225e-02     
O    -4.32864244e-01     -2.04894745e+00     -5.42138527e+00     
H    -7.09211835e-01     -1.22276867e+00     -5.82345415e+00     
H    -8.80792210e-02     -2.58661692e+00     -6.14137904e+00     
O    1.17411216e+00      -3.42745879e+00     2.24713660e+00      
H    5.50468340e-01      -4.00478063e+00     2.69267983e+00      
H    1.99972264e+00      -3.91610556e+00     2.22626320e+00      
26
1186.682118
N    -1.27847771e-02     -5.35685378e-02     -5.22450400e-02     
H    -1.05244569e+00     -6.99375227e-02     -8.28067134e-02     
H    3.20641675e-01      8.42999332e-01      -4.61838620e-01     
H    3.29772196e-01      -1.62059288e-01     9.27641063e-01      
C    5.31076568e-01      -1.19061374e+00     -8.22448481e-01     
H    1.61684694e+00      -1.14880188e+00     -7.87753206e-01     
H    1.97701495e-01      -2.11702237e+00     -3.61756612e-01     
C    4.25573813e-02      -1.09372980e+00     -2.25328375e+00     
O    -6.57682033e-01     -1.90486868e-01     -2.67177796e+00     
O    4.92459367e-01      -2.12017513e+00     -2.94595152e+00     
H    1.44052133e-01      -2.06153195e+00     -3.88438192e+00     
O    1.00598844e+00      2.05308741e+00      -1.52350486e+00     
H    5.26617309e-01      2.07825962e+00      -2.35667201e+00     
H    1.33147914e+00      2.94492665e+00      -1.37607869e+00     
O    1.07005872e+00      -6.62132153e-01     2.36831617e+00      
H    1.16766123e+00      -1.61234714e+00     2.53196567e+00      
H    1.23429311e+00      -2.11978933e-01     3.19761291e+00      
O    -2.71866652e+00     -4.28268360e-01     -4.92160603e-01     
H    -2.88756953e+00     -2.26256473e-01     -1.41723550e+00     
H    -3.54830986e+00     -2.77343808e-01     -3.17115911e-02     
O    -4.32966348e-01     -2.04879153e+00     -5.42139297e+00     
H    -7.09386253e-01     -1.22290771e+00     -5.82398293e+00     
H    -8.75451384e-02     -2.58693708e+00     -6.14069732e+00     
O    1.17411932e+00      -3.42744911e+00     2.24716232e+00      
H    5.50599852e-01      -4.00508221e+00     2.69261231e+00      
H    1.99961914e+00      -3.91638672e+00     2.22626620e+00      
26
1186.682118
N    -1.33160083e-02     -5.29960322e-02     -5.28640193e-02     
H    -1.05296977e+00     -6.88181179e-02     -7.81262455e-02     
H    3.21184735e-01      8.45502921e-01      -4.56849432e-01     
H    3.32689462e-01      -1.67904370e-01     9.25443881e-01      
C    5.31627462e-01      -1.19178033e+00     -8.22930182e-01     
H    1.61725202e+00      -1.14777015e+00     -7.83961403e-01     
H    1.98217051e-01      -2.11548507e+00     -3.56584795e-01     
C    4.26054760e-02      -1.09402017e+00     -2.25410824e+00     
O    -6.57640634e-01     -1.90557002e-01     -2.67173055e+00     
O    4.92177682e-01      -2.11950790e+00     -2.94544571e+00     
H    1.44943755e-01      -2.06304881e+00     -3.88440888e+00     
O    1.00594948e+00      2.05304762e+00      -1.52356718e+00     
H    5.26828505e-01      2.07845707e+00      -2.35686585e+00     
H    1.33145822e+00      2.94479126e+00      -1.37560551e+00     
O    1.07004559e+00      -6.62026279e-01     2.36835489e+00      
H    1.16736283e+00      -1.61238424e+00     2.53152356e+00      
H    1.23447031e+00      -2.12374757e-01     3.19785847e+00      
O    -2.71864591e+00     -4.28263252e-01     -4.92233619e-01     
H    -2.88783303e+00     -2.26404268e-01     -1.41728523e+00     
H    -3.54802189e+00     -2.77264657e-01     -3.13410833e-02     
O    -4.32991875e-01     -2.04875255e+00     -5.42139490e+00     
H    -7.09429858e-01     -1.22294247e+00     -5.82411512e+00     
H    -8.74116178e-02     -2.58701713e+00     -6.14052688e+00     
O    1.17412111e+00      -3.42744670e+00     2.24716875e+00      
H    5.50632730e-01      -4.00515760e+00     2.69259543e+00      
H    1.99959327e+00      -3.91645700e+00     2.22626696e+00      
26
1186.682118
N    -1.38472394e-02     -5.24235266e-02     -5.34829986e-02     
H    -1.05349386e+00     -6.76987132e-02     -7.34457775e-02     
H    3.21727794e-01      8.48006510e-01      -4.51860243e-01     
H    3.35606728e-01      -1.73749452e-01     9.23246698e-01      
C    5.32178356e-01      -1.19294692e+00     -8.23411883e-01     
H    1.61765710e+00      -1.14673843e+00     -7.80169601e-01     
H    1.98732607e-01      -2.11394778e+00     -3.51412978e-01     
C    4.26535707e-02      -1.09431054e+00     -2.25493273e+00     
O    -6.57599236e-01     -1.90627137e-01     -2.67168314e+00     
O    4.91895996e-01      -2.11884067e+00     -2.94493991e+00     
H    1.45835377e-01      -2.06456566e+00     -3.88443584e+00     
O    1.00591052e+00      2.05300783e+00      -1.52362949e+00     
H    5.27039701e-01      2.07865453e+00      -2.35705969e+00     
H    1.33143729e+00      2.94465587e+00      -1.37513233e+00     
O    1.07003246e+00      -6.61920404e-01     2.36839361e+00      
H    1.16706443e+00      -1.61242135e+00     2.53108145e+00      
H    1.23464751e+00      -2.12770580e-01     3.19810403e+00      
O    -2.71862531e+00     -4.28258143e-01     -4.92306634e-01     
H    -2.88809653e+00     -2.26552064e-01     -1.41733496e+00     
H    -3.54773391e+00     -2.77185506e-01     -3.09705755e-02     
O    -4.33017401e-01     -2.04871358e+00     -5.42139683e+00     
H    -7.09473462e-01     -1.22297724e+00     -5.82424731e+00     
H    -8.72780971e-02     -2.58709717e+00     -6.14035645e+00     
O    1.17412290e+00      -3.42744428e+00     2.24717518e+00      
H    5.50665608e-01      -4.00523300e+00     2.69257854e+00      
H    1.99956740e+00      -3.91652729e+00     2.22626771e+00      
26
1186.682118
N    -1.49097017e-02     -5.12785155e-02     -5.47209572e-02     
H    -1.05454203e+00     -6.54599036e-02     -6.40848415e-02     
H    3.22813913e-01      8.53013687e-01      -4.41881867e-01     
H    3.41441261e-01      -1.85439616e-01     9.18852333e-01      
C    5.33280144e-01      -1.19528009e+00     -8.24375284e-01     
H    1.61846726e+00      -1.14467497e+00     -7.72585995e-01     
H    1.99763719e-01      -2.11087319e+00     -3.41069345e-01     
C    4.27497600e-02      -1.09489129e+00     -2.25658172e+00     
O    -6.57516438e-01     -1.90767405e-01     -2.67158831e+00     
O    4.91332626e-01      -2.11750622e+00     -2.94392830e+00     
H    1.47618622e-01      -2.06759936e+00     -3.88448976e+00     
O    1.00583261e+00      2.05292824e+00      -1.52375412e+00     
H    5.27462093e-01      2.07904945e+00      -2.35744736e+00     
H    1.33139545e+00      2.94438510e+00      -1.37418596e+00     
O    1.07000620e+00      -6.61708656e-01     2.36847105e+00      
H    1.16646764e+00      -1.61249555e+00     2.53019722e+00      
H    1.23500191e+00      -2.13562227e-01     3.19859516e+00      
O    -2.71858411e+00     -4.28247925e-01     -4.92452665e-01     
H    -2.88862353e+00     -2.26847654e-01     -1.41743441e+00     
H    -3.54715795e+00     -2.77027204e-01     -3.02295598e-02     
O    -4.33068453e-01     -2.04863562e+00     -5.42140068e+00     
H    -7.09560671e-01     -1.22304676e+00     -5.82451170e+00     
H    -8.70110558e-02     -2.58725725e+00     -6.14001559e+00     
O    1.17412648e+00      -3.42743944e+00     2.24718803e+00      
H    5.50731364e-01      -4.00538379e+00     2.69254478e+00      
H    1.99951565e+00      -3.91666787e+00     2.22626921e+00      
26
1186.682118
N    -1.59721640e-02     -5.01335044e-02     -5.59589158e-02     
H    -1.05559020e+00     -6.32210941e-02     -5.47239056e-02     
H    3.23900032e-01      8.58020864e-01      -4.31903491e-01     
H    3.47275793e-01      -1.97129780e-01     9.14457968e-01      
C    5.34381932e-01      -1.19761327e+00     -8.25338685e-01     
H    1.61927742e+00      -1.14261152e+00     -7.65002390e-01     
H    2.00794831e-01      -2.10779860e+00     -3.30725711e-01     
C    4.28459494e-02      -1.09547204e+00     -2.25823070e+00     
O    -6.57433641e-01     -1.90907673e-01     -2.67149349e+00     
O    4.90769255e-01      -2.11617176e+00     -2.94291668e+00     
H    1.49401867e-01      -2.07063307e+00     -3.88454368e+00     
O    1.00575469e+00      2.05284865e+00      -1.52387875e+00     
H    5.27884485e-01      2.07944436e+00      -2.35783504e+00     
H    1.33135360e+00      2.94411432e+00      -1.37323960e+00     
O    1.06997994e+00      -6.61496908e-01     2.36854848e+00      
H    1.16587084e+00      -1.61256976e+00     2.52931300e+00      
H    1.23535631e+00      -2.14353874e-01     3.19908628e+00      
O    -2.71854290e+00     -4.28237707e-01     -4.92598697e-01     
H    -2.88915053e+00     -2.27143245e-01     -1.41753387e+00     
H    -3.54658200e+00     -2.76868902e-01     -2.94885442e-02     
O    -4.33119506e-01     -2.04855766e+00     -5.42140453e+00     
H    -7.09647881e-01     -1.22311628e+00     -5.82477609e+00     
H    -8.67440145e-02     -2.58741734e+00     -6.13967472e+00     
O    1.17413006e+00      -3.42743461e+00     2.24720089e+00      
H    5.50797120e-01      -4.00553458e+00     2.69251102e+00      
H    1.99946391e+00      -3.91680844e+00     2.22627072e+00      
26
1186.682118
N    -1.70346263e-02     -4.89884932e-02     -5.71968743e-02     
H    -1.05663836e+00     -6.09822846e-02     -4.53629696e-02     
H    3.24986151e-01      8.63028042e-01      -4.21925115e-01     
H    3.53110326e-01      -2.08819945e-01     9.10063603e-01      
C    5.35483720e-01      -1.19994645e+00     -8.26302086e-01     
H    1.62008758e+00      -1.14054807e+00     -7.57418785e-01     
H    2.01825943e-01      -2.10472401e+00     -3.20382077e-01     
C    4.29421387e-02      -1.09605278e+00     -2.25987969e+00     
O    -6.57350844e-01     -1.91047941e-01     -2.67139867e+00     
O    4.90205884e-01      -2.11483731e+00     -2.94190507e+00     
H    1.51185111e-01      -2.07366677e+00     -3.88459759e+00     
O    1.00567678e+00      2.05276907e+00      -1.52400338e+00     
H    5.28306878e-01      2.07983928e+00      -2.35822271e+00     
H    1.33131175e+00      2.94384354e+00      -1.37229323e+00     
O    1.06995368e+00      -6.61285159e-01     2.36862592e+00      
H    1.16527405e+00      -1.61264397e+00     2.52842877e+00      
H    1.23571071e+00      -2.15145522e-01     3.19957741e+00      
O    -2.71850170e+00     -4.28227490e-01     -4.92744728e-01     
H    -2.88967753e+00     -2.27438836e-01     -1.41763332e+00     
H    -3.54600604e+00     -2.76710600e-01     -2.87475285e-02     
O    -4.33170558e-01     -2.04847971e+00     -5.42140838e+00     
H    -7.09735090e-01     -1.22318581e+00     -5.82504047e+00     
H    -8.64769732e-02     -2.58757742e+00     -6.13933386e+00     
O    1.17413365e+00      -3.42742977e+00     2.24721375e+00      
H    5.50862876e-01      -4.00568537e+00     2.69247725e+00      
H    1.99941216e+00      -3.91694902e+00     2.22627222e+00      
26
1186.682118
N    -1.80970887e-02     -4.78434821e-02     -5.84348329e-02     
H    -1.05768653e+00     -5.87434751e-02     -3.60020336e-02     
H    3.26072270e-01      8.68035219e-01      -4.11946738e-01     
H    3.58944858e-01      -2.20510109e-01     9.05669239e-01      
C    5.36585508e-01      -1.20227963e+00     -8.27265488e-01     
H    1.62089773e+00      -1.13848462e+00     -7.49835180e-01     
H    2.02857055e-01      -2.10164942e+00     -3.10038443e-01     
C    4.30383281e-02      -1.09663353e+00     -2.26152867e+00     
O    -6.57268047e-01     -1.91188210e-01     -2.67130385e+00     
O    4.89642513e-01      -2.11350286e+00     -2.94089346e+00     
H    1.52968356e-01      -2.07670048e+00     -3.88465151e+00     
O    1.00559887e+00      2.05268948e+00      -1.52412802e+00     
H    5.28729270e-01      2.08023419e+00      -2.35861038e+00     
H    1.33126990e+00      2.94357276e+00      -1.37134687e+00     
O    1.06992742e+00      -6.61073411e-01     2.36870336e+00      
H    1.16467726e+00      -1.61271818e+00     2.52754455e+00      
H    1.23606511e+00      -2.15937169e-01     3.20006854e+00      
O    -2.71846050e+00     -4.28217272e-01     -4.92890759e-01     
H    -2.89020454e+00     -2.27734427e-01     -1.41773277e+00     
H    -3.54543009e+00     -2.76552298e-01     -2.80065129e-02     
O    -4.33221610e-01     -2.04840175e+00     -5.42141224e+00     
H    -7.09822299e-01     -1.22325533e+00     -5.82530486e+00     
H    -8.62099319e-02     -2.58773751e+00     -6.13899299e+00     
O    1.17413723e+00      -3.42742494e+00     2.24722661e+00      
H    5.50928633e-01      -4.00583616e+00     2.69244349e+00      
H    1.99936042e+00      -3.91708960e+00     2.22627373e+00      
26
1186.682118
N    -2.02220133e-02     -4.55534599e-02     -6.09107501e-02     
H    -1.05978287e+00     -5.42658560e-02     -1.72801617e-02     
H    3.28244508e-01      8.78049574e-01      -3.91989986e-01     
H    3.70613923e-01      -2.43890437e-01     8.96880509e-01      
C    5.38789083e-01      -1.20694598e+00     -8.29192290e-01     
H    1.62251805e+00      -1.13435772e+00     -7.34667969e-01     
H    2.04919280e-01      -2.09550023e+00     -2.89351176e-01     
C    4.32307067e-02      -1.09779502e+00     -2.26482665e+00     
O    -6.57102452e-01     -1.91468746e-01     -2.67111420e+00     
O    4.88515771e-01      -2.11083395e+00     -2.93887024e+00     
H    1.56534845e-01      -2.08276789e+00     -3.88475935e+00     
O    1.00544304e+00      2.05253031e+00      -1.52437728e+00     
H    5.29574054e-01      2.08102403e+00      -2.35938573e+00     
H    1.33118620e+00      2.94303121e+00      -1.36945414e+00     
O    1.06987490e+00      -6.60649914e-01     2.36885824e+00      
H    1.16348367e+00      -1.61286660e+00     2.52577610e+00      
H    1.23677391e+00      -2.17520463e-01     3.20105079e+00      
O    -2.71837809e+00     -4.28196837e-01     -4.93182821e-01     
H    -2.89125854e+00     -2.28325608e-01     -1.41793168e+00     
H    -3.54427818e+00     -2.76235693e-01     -2.65244816e-02     
O    -4.33323715e-01     -2.04824584e+00     -5.42141994e+00     
H    -7.09996717e-01     -1.22339437e+00     -5.82583364e+00     
H    -8.56758493e-02     -2.58805767e+00     -6.13831127e+00     
O    1.17414439e+00      -3.42741527e+00     2.24725232e+00      
H    5.51060145e-01      -4.00613773e+00     2.69237597e+00      
H    1.99925693e+00      -3.91737075e+00     2.22627673e+00      
