26
1676.254230
N    -1.15908900e-02     -5.40651135e-02     -5.02825733e-02     
H    -1.05150613e+00     -6.87308395e-02     -9.32266766e-02     
H    3.14565628e-01      8.37947256e-01      -4.78535041e-01     
H    3.25227852e-01      -1.61491046e-01     9.29021309e-01      
C    5.30469976e-01      -1.18850610e+00     -8.20836780e-01     
H    1.61647961e+00      -1.14957222e+00     -7.97278670e-01     
H    1.94248125e-01      -2.12080314e+00     -3.74155845e-01     
C    4.26675126e-02      -1.09356446e+00     -2.25172691e+00     
O    -6.57942586e-01     -1.90125525e-01     -2.67198400e+00     
O    4.93005767e-01      -2.12145459e+00     -2.94687406e+00     
H    1.42218302e-01      -2.05817468e+00     -3.88434873e+00     
O    1.00612039e+00      2.05312017e+00      -1.52328357e+00     
H    5.26175811e-01      2.07860197e+00      -2.35618020e+00     
H    1.33125095e+00      2.94555000e+00      -1.37814339e+00     
O    1.06813139e+00      -6.59325508e-01     2.36137920e+00      
H    1.18655870e+00      -1.59644904e+00     2.61314703e+00      
H    1.24594204e+00      -2.73227235e-01     3.22879496e+00      
O    -2.71871966e+00     -4.28286939e-01     -4.92020507e-01     
H    -2.88685479e+00     -2.25911100e-01     -1.41713580e+00     
H    -3.54881730e+00     -2.77644274e-01     -3.22457804e-02     
O    -4.32914942e-01     -2.04882273e+00     -5.42160107e+00     
H    -7.09852272e-01     -1.22215520e+00     -5.82190191e+00     
H    -8.73626255e-02     -2.58825442e+00     -6.13972602e+00     
O    1.17600639e+00      -3.43841324e+00     2.25082868e+00      
H    4.67723481e-01      -3.92227359e+00     2.68271751e+00      
H    2.05138899e+00      -3.82567773e+00     2.17277107e+00      
26
1676.254230
N    -1.16237462e-02     -5.42272224e-02     -5.04637003e-02     
H    -1.05147898e+00     -6.95922126e-02     -9.29619198e-02     
H    3.15813110e-01      8.37958481e-01      -4.76855530e-01     
H    3.24905305e-01      -1.58710565e-01     9.29774839e-01      
C    5.30346177e-01      -1.18844972e+00     -8.20998855e-01     
H    1.61636890e+00      -1.14989550e+00     -7.96793205e-01     
H    1.94853689e-01      -2.12062659e+00     -3.73641945e-01     
C    4.26159324e-02      -1.09346061e+00     -2.25170387e+00     
O    -6.57898147e-01     -1.90180794e-01     -2.67195619e+00     
O    4.93010010e-01      -2.12146834e+00     -2.94689633e+00     
H    1.42230948e-01      -2.05825557e+00     -3.88434355e+00     
O    1.00610688e+00      2.05313188e+00      -1.52330773e+00     
H    5.26180588e-01      2.07841765e+00      -2.35620623e+00     
H    1.33131846e+00      2.94546186e+00      -1.37786381e+00     
O    1.06861979e+00      -6.60080107e-01     2.36309409e+00      
H    1.18198353e+00      -1.60040501e+00     2.59307275e+00      
H    1.24294121e+00      -2.57717248e-01     3.22087666e+00      
O    -2.71871667e+00     -4.28284849e-01     -4.92019024e-01     
H    -2.88690173e+00     -2.25923546e-01     -1.41713586e+00     
H    -3.54883443e+00     -2.77608733e-01     -3.22974870e-02     
O    -4.32915031e-01     -2.04883442e+00     -5.42154808e+00     
H    -7.09713965e-01     -1.22232595e+00     -5.82235607e+00     
H    -8.74750140e-02     -2.58788506e+00     -6.14005406e+00     
O    1.17553373e+00      -3.43567342e+00     2.24990888e+00      
H    4.88426135e-01      -3.94293805e+00     2.68519965e+00      
H    2.03845946e+00      -3.84831983e+00     2.18614448e+00      
26
1676.254230
N    -1.16401743e-02     -5.43082768e-02     -5.05542638e-02     
H    -1.05146540e+00     -7.00228992e-02     -9.28295414e-02     
H    3.16436851e-01      8.37964093e-01      -4.76015774e-01     
H    3.24744031e-01      -1.57320325e-01     9.30151603e-01      
C    5.30284278e-01      -1.18842152e+00     -8.21079892e-01     
H    1.61631355e+00      -1.15005714e+00     -7.96550473e-01     
H    1.95156472e-01      -2.12053832e+00     -3.73384995e-01     
C    4.25901424e-02      -1.09340868e+00     -2.25169235e+00     
O    -6.57875927e-01     -1.90208428e-01     -2.67194229e+00     
O    4.93012131e-01      -2.12147521e+00     -2.94690746e+00     
H    1.42237272e-01      -2.05829602e+00     -3.88434096e+00     
O    1.00610012e+00      2.05313773e+00      -1.52331982e+00     
H    5.26182976e-01      2.07832549e+00      -2.35621925e+00     
H    1.33135222e+00      2.94541779e+00      -1.37772402e+00     
O    1.06886399e+00      -6.60457406e-01     2.36395153e+00      
H    1.17969595e+00      -1.60238300e+00     2.58303561e+00      
H    1.24144079e+00      -2.49962254e-01     3.21691752e+00      
O    -2.71871518e+00     -4.28283804e-01     -4.92018282e-01     
H    -2.88692519e+00     -2.25929769e-01     -1.41713589e+00     
H    -3.54884299e+00     -2.77590963e-01     -3.23233403e-02     
O    -4.32915075e-01     -2.04884026e+00     -5.42152159e+00     
H    -7.09644811e-01     -1.22241132e+00     -5.82258315e+00     
H    -8.75312083e-02     -2.58770039e+00     -6.14021808e+00     
O    1.17529740e+00      -3.43430351e+00     2.24944897e+00      
H    4.98777462e-01      -3.95327028e+00     2.68644072e+00      
H    2.03199470e+00      -3.85964088e+00     2.19283118e+00      
26
1676.254230
N    -1.16566024e-02     -5.43893312e-02     -5.06448274e-02     
H    -1.05145183e+00     -7.04535858e-02     -9.26971630e-02     
H    3.17060592e-01      8.37969705e-01      -4.75176019e-01     
H    3.24582758e-01      -1.55930085e-01     9.30528368e-01      
C    5.30222378e-01      -1.18839333e+00     -8.21160930e-01     
H    1.61625820e+00      -1.15021878e+00     -7.96307740e-01     
H    1.95459254e-01      -2.12045005e+00     -3.73128045e-01     
C    4.25643523e-02      -1.09335675e+00     -2.25168083e+00     
O    -6.57853708e-01     -1.90236062e-01     -2.67192839e+00     
O    4.93014253e-01      -2.12148209e+00     -2.94691859e+00     
H    1.42243595e-01      -2.05833647e+00     -3.88433837e+00     
O    1.00609337e+00      2.05314359e+00      -1.52333190e+00     
H    5.26185364e-01      2.07823333e+00      -2.35623227e+00     
H    1.33138597e+00      2.94537372e+00      -1.37758422e+00     
O    1.06910819e+00      -6.60834705e-01     2.36480897e+00      
H    1.17740836e+00      -1.60436099e+00     2.57299847e+00      
H    1.23994037e+00      -2.42207261e-01     3.21295837e+00      
O    -2.71871369e+00     -4.28282759e-01     -4.92017540e-01     
H    -2.88694866e+00     -2.25935991e-01     -1.41713593e+00     
H    -3.54885156e+00     -2.77573192e-01     -3.23491936e-02     
O    -4.32915119e-01     -2.04884611e+00     -5.42149509e+00     
H    -7.09575658e-01     -1.22249670e+00     -5.82281023e+00     
H    -8.75874026e-02     -2.58751571e+00     -6.14038210e+00     
O    1.17506107e+00      -3.43293360e+00     2.24898907e+00      
H    5.09128789e-01      -3.96360250e+00     2.68768179e+00      
H    2.02552994e+00      -3.87096194e+00     2.19951789e+00      
26
1676.254230
N    -1.16730305e-02     -5.44703856e-02     -5.07353909e-02     
H    -1.05143825e+00     -7.08842724e-02     -9.25647846e-02     
H    3.17684333e-01      8.37975318e-01      -4.74336263e-01     
H    3.24421484e-01      -1.54539845e-01     9.30905133e-01      
C    5.30160479e-01      -1.18836514e+00     -8.21241967e-01     
H    1.61620284e+00      -1.15038041e+00     -7.96065008e-01     
H    1.95762036e-01      -2.12036178e+00     -3.72871095e-01     
C    4.25385622e-02      -1.09330483e+00     -2.25166931e+00     
O    -6.57831488e-01     -1.90263697e-01     -2.67191449e+00     
O    4.93016374e-01      -2.12148896e+00     -2.94692973e+00     
H    1.42249918e-01      -2.05837691e+00     -3.88433578e+00     
O    1.00608661e+00      2.05314944e+00      -1.52334398e+00     
H    5.26187752e-01      2.07814117e+00      -2.35624529e+00     
H    1.33141973e+00      2.94532964e+00      -1.37744443e+00     
O    1.06935239e+00      -6.61212004e-01     2.36566641e+00      
H    1.17512078e+00      -1.60633897e+00     2.56296133e+00      
H    1.23843996e+00      -2.34452267e-01     3.20899922e+00      
O    -2.71871220e+00     -4.28281713e-01     -4.92016798e-01     
H    -2.88697213e+00     -2.25942214e-01     -1.41713596e+00     
H    -3.54886012e+00     -2.77555422e-01     -3.23750469e-02     
O    -4.32915163e-01     -2.04885195e+00     -5.42146860e+00     
H    -7.09506504e-01     -1.22258207e+00     -5.82303731e+00     
H    -8.76435969e-02     -2.58733103e+00     -6.14054612e+00     
O    1.17482473e+00      -3.43156369e+00     2.24852917e+00      
H    5.19480115e-01      -3.97393473e+00     2.68892286e+00      
H    2.01906518e+00      -3.88228299e+00     2.20620459e+00      
26
1676.254230
N    -1.16894586e-02     -5.45514401e-02     -5.08259544e-02     
H    -1.05142467e+00     -7.13149590e-02     -9.24324062e-02     
H    3.18308074e-01      8.37980930e-01      -4.73496507e-01     
H    3.24260210e-01      -1.53149604e-01     9.31281898e-01      
C    5.30098579e-01      -1.18833695e+00     -8.21323005e-01     
H    1.61614749e+00      -1.15054205e+00     -7.95822276e-01     
H    1.96064818e-01      -2.12027350e+00     -3.72614146e-01     
C    4.25127721e-02      -1.09325290e+00     -2.25165780e+00     
O    -6.57809269e-01     -1.90291331e-01     -2.67190058e+00     
O    4.93018495e-01      -2.12149583e+00     -2.94694086e+00     
H    1.42256241e-01      -2.05841736e+00     -3.88433318e+00     
O    1.00607986e+00      2.05315529e+00      -1.52335606e+00     
H    5.26190141e-01      2.07804902e+00      -2.35625830e+00     
H    1.33145348e+00      2.94528557e+00      -1.37730464e+00     
O    1.06959658e+00      -6.61589303e-01     2.36652385e+00      
H    1.17283319e+00      -1.60831696e+00     2.55292418e+00      
H    1.23693954e+00      -2.26697273e-01     3.20504007e+00      
O    -2.71871070e+00     -4.28280668e-01     -4.92016056e-01     
H    -2.88699560e+00     -2.25948437e-01     -1.41713599e+00     
H    -3.54886869e+00     -2.77537651e-01     -3.24009002e-02     
O    -4.32915208e-01     -2.04885780e+00     -5.42144211e+00     
H    -7.09437351e-01     -1.22266744e+00     -5.82326438e+00     
H    -8.76997911e-02     -2.58714635e+00     -6.14071014e+00     
O    1.17458840e+00      -3.43019377e+00     2.24806927e+00      
H    5.29831442e-01      -3.98426696e+00     2.69016393e+00      
H    2.01260041e+00      -3.89360404e+00     2.21289129e+00      
26
1676.254230
N    -1.16976726e-02     -5.45919673e-02     -5.08712361e-02     
H    -1.05141789e+00     -7.15303023e-02     -9.23662170e-02     
H    3.18619944e-01      8.37983736e-01      -4.73076629e-01     
H    3.24179573e-01      -1.52454484e-01     9.31470281e-01      
C    5.30067629e-01      -1.18832285e+00     -8.21363524e-01     
H    1.61611981e+00      -1.15062287e+00     -7.95700910e-01     
H    1.96216210e-01      -2.12022937e+00     -3.72485671e-01     
C    4.24998771e-02      -1.09322694e+00     -2.25165204e+00     
O    -6.57798159e-01     -1.90305148e-01     -2.67189363e+00     
O    4.93019556e-01      -2.12149927e+00     -2.94694643e+00     
H    1.42259403e-01      -2.05843758e+00     -3.88433189e+00     
O    1.00607648e+00      2.05315822e+00      -1.52336211e+00     
H    5.26191335e-01      2.07800294e+00      -2.35626481e+00     
H    1.33147036e+00      2.94526354e+00      -1.37723475e+00     
O    1.06971868e+00      -6.61777952e-01     2.36695257e+00      
H    1.17168940e+00      -1.60930595e+00     2.54790561e+00      
H    1.23618933e+00      -2.22819776e-01     3.20306050e+00      
O    -2.71870996e+00     -4.28280146e-01     -4.92015685e-01     
H    -2.88700733e+00     -2.25951548e-01     -1.41713600e+00     
H    -3.54887297e+00     -2.77528766e-01     -3.24138268e-02     
O    -4.32915230e-01     -2.04886072e+00     -5.42142886e+00     
H    -7.09402774e-01     -1.22271013e+00     -5.82337792e+00     
H    -8.77278883e-02     -2.58705402e+00     -6.14079215e+00     
O    1.17447024e+00      -3.42950882e+00     2.24783931e+00      
H    5.35007106e-01      -3.98943308e+00     2.69078446e+00      
H    2.00936803e+00      -3.89926456e+00     2.21623464e+00      
26
1676.254230
N    -1.17058867e-02     -5.46324945e-02     -5.09165179e-02     
H    -1.05141110e+00     -7.17456456e-02     -9.23000278e-02     
H    3.18931815e-01      8.37986543e-01      -4.72656752e-01     
H    3.24098937e-01      -1.51759364e-01     9.31658663e-01      
C    5.30036680e-01      -1.18830875e+00     -8.21404042e-01     
H    1.61609213e+00      -1.15070369e+00     -7.95579543e-01     
H    1.96367601e-01      -2.12018523e+00     -3.72357196e-01     
C    4.24869821e-02      -1.09320098e+00     -2.25164628e+00     
O    -6.57787049e-01     -1.90318966e-01     -2.67188668e+00     
O    4.93020617e-01      -2.12150271e+00     -2.94695200e+00     
H    1.42262565e-01      -2.05845780e+00     -3.88433059e+00     
O    1.00607310e+00      2.05316115e+00      -1.52336815e+00     
H    5.26192529e-01      2.07795686e+00      -2.35627132e+00     
H    1.33148724e+00      2.94524150e+00      -1.37716485e+00     
O    1.06984078e+00      -6.61966602e-01     2.36738129e+00      
H    1.17054561e+00      -1.61029494e+00     2.54288704e+00      
H    1.23543913e+00      -2.18942280e-01     3.20108093e+00      
O    -2.71870921e+00     -4.28279623e-01     -4.92015314e-01     
H    -2.88701906e+00     -2.25954659e-01     -1.41713602e+00     
H    -3.54887725e+00     -2.77519881e-01     -3.24267535e-02     
O    -4.32915252e-01     -2.04886364e+00     -5.42141561e+00     
H    -7.09368197e-01     -1.22275282e+00     -5.82349146e+00     
H    -8.77559854e-02     -2.58696168e+00     -6.14087416e+00     
O    1.17435207e+00      -3.42882386e+00     2.24760936e+00      
H    5.40182769e-01      -3.99459919e+00     2.69140500e+00      
H    2.00613565e+00      -3.90492509e+00     2.21957800e+00      
26
1676.254230
N    -1.17387429e-02     -5.47946033e-02     -5.10976449e-02     
H    -1.05138394e+00     -7.26070188e-02     -9.20352710e-02     
H    3.20179297e-01      8.37997767e-01      -4.70977240e-01     
H    3.23776389e-01      -1.48978884e-01     9.32412193e-01      
C    5.29912880e-01      -1.18825237e+00     -8.21566118e-01     
H    1.61598143e+00      -1.15102697e+00     -7.95094079e-01     
H    1.96973165e-01      -2.12000869e+00     -3.71843296e-01     
C    4.24354019e-02      -1.09309712e+00     -2.25162324e+00     
O    -6.57742611e-01     -1.90374234e-01     -2.67185888e+00     
O    4.93024859e-01      -2.12151645e+00     -2.94697426e+00     
H    1.42275211e-01      -2.05853870e+00     -3.88432541e+00     
O    1.00605960e+00      2.05317285e+00      -1.52339231e+00     
H    5.26197305e-01      2.07777254e+00      -2.35629736e+00     
H    1.33155474e+00      2.94515336e+00      -1.37688527e+00     
O    1.07032918e+00      -6.62721200e-01     2.36909617e+00      
H    1.16597043e+00      -1.61425092e+00     2.52281276e+00      
H    1.23243829e+00      -2.03432292e-01     3.19316263e+00      
O    -2.71870623e+00     -4.28277533e-01     -4.92013830e-01     
H    -2.88706600e+00     -2.25967105e-01     -1.41713608e+00     
H    -3.54889439e+00     -2.77484339e-01     -3.24784601e-02     
O    -4.32915340e-01     -2.04887534e+00     -5.42136263e+00     
H    -7.09229891e-01     -1.22292356e+00     -5.82394562e+00     
H    -8.78683740e-02     -2.58659232e+00     -6.14120220e+00     
O    1.17387941e+00      -3.42608404e+00     2.24668956e+00      
H    5.60885423e-01      -4.01526365e+00     2.69388714e+00      
H    1.99320613e+00      -3.92756719e+00     2.23295140e+00      
26
1676.254230
N    -1.17469570e-02     -5.48351305e-02     -5.11429267e-02     
H    -1.05137715e+00     -7.28223621e-02     -9.19690818e-02     
H    3.20491168e-01      8.38000574e-01      -4.70557363e-01     
H    3.23695753e-01      -1.48283764e-01     9.32600575e-01      
C    5.29881931e-01      -1.18823827e+00     -8.21606636e-01     
H    1.61595375e+00      -1.15110779e+00     -7.94972712e-01     
H    1.97124556e-01      -2.11996455e+00     -3.71714821e-01     
C    4.24225069e-02      -1.09307116e+00     -2.25161748e+00     
O    -6.57731501e-01     -1.90388052e-01     -2.67185193e+00     
O    4.93025920e-01      -2.12151989e+00     -2.94697983e+00     
H    1.42278373e-01      -2.05855892e+00     -3.88432411e+00     
O    1.00605622e+00      2.05317578e+00      -1.52339835e+00     
H    5.26198499e-01      2.07772646e+00      -2.35630387e+00     
H    1.33157162e+00      2.94513132e+00      -1.37681537e+00     
O    1.07045128e+00      -6.62909850e-01     2.36952489e+00      
H    1.16482664e+00      -1.61523991e+00     2.51779419e+00      
H    1.23168809e+00      -1.99554796e-01     3.19118306e+00      
O    -2.71870548e+00     -4.28277010e-01     -4.92013459e-01     
H    -2.88707773e+00     -2.25970216e-01     -1.41713610e+00     
H    -3.54889867e+00     -2.77475454e-01     -3.24913868e-02     
O    -4.32915362e-01     -2.04887826e+00     -5.42134938e+00     
H    -7.09195314e-01     -1.22296625e+00     -5.82405916e+00     
H    -8.78964711e-02     -2.58649998e+00     -6.14128421e+00     
O    1.17376124e+00      -3.42539908e+00     2.24645961e+00      
H    5.66061086e-01      -4.02042976e+00     2.69450768e+00      
H    1.98997375e+00      -3.93322772e+00     2.23629476e+00      
26
1676.254230
N    -1.17551710e-02     -5.48756577e-02     -5.11882084e-02     
H    -1.05137037e+00     -7.30377054e-02     -9.19028926e-02     
H    3.20803038e-01      8.38003380e-01      -4.70137485e-01     
H    3.23615116e-01      -1.47588644e-01     9.32788958e-01      
C    5.29850981e-01      -1.18822417e+00     -8.21647155e-01     
H    1.61592607e+00      -1.15118861e+00     -7.94851346e-01     
H    1.97275948e-01      -2.11992042e+00     -3.71586346e-01     
C    4.24096119e-02      -1.09304520e+00     -2.25161172e+00     
O    -6.57720391e-01     -1.90401869e-01     -2.67184498e+00     
O    4.93026981e-01      -2.12152333e+00     -2.94698540e+00     
H    1.42281535e-01      -2.05857914e+00     -3.88432282e+00     
O    1.00605284e+00      2.05317871e+00      -1.52340440e+00     
H    5.26199693e-01      2.07768038e+00      -2.35631038e+00     
H    1.33158850e+00      2.94510929e+00      -1.37674548e+00     
O    1.07057338e+00      -6.63098499e-01     2.36995361e+00      
H    1.16368285e+00      -1.61622890e+00     2.51277562e+00      
H    1.23093788e+00      -1.95677299e-01     3.18920349e+00      
O    -2.71870474e+00     -4.28276488e-01     -4.92013088e-01     
H    -2.88708946e+00     -2.25973327e-01     -1.41713611e+00     
H    -3.54890295e+00     -2.77466569e-01     -3.25043134e-02     
O    -4.32915384e-01     -2.04888118e+00     -5.42133613e+00     
H    -7.09160737e-01     -1.22300894e+00     -5.82417270e+00     
H    -8.79245683e-02     -2.58640765e+00     -6.14136622e+00     
O    1.17364308e+00      -3.42471413e+00     2.24622965e+00      
H    5.71236750e-01      -4.02559588e+00     2.69512821e+00      
H    1.98674137e+00      -3.93888824e+00     2.23963811e+00      
26
1676.254230
N    -1.17715991e-02     -5.49567122e-02     -5.12787719e-02     
H    -1.05135679e+00     -7.34683920e-02     -9.17705142e-02     
H    3.21426779e-01      8.38008992e-01      -4.69297729e-01     
H    3.23453842e-01      -1.46198403e-01     9.33165723e-01      
C    5.29789081e-01      -1.18819598e+00     -8.21728193e-01     
H    1.61587072e+00      -1.15135025e+00     -7.94608614e-01     
H    1.97578730e-01      -2.11983214e+00     -3.71329397e-01     
C    4.23838218e-02      -1.09299327e+00     -2.25160021e+00     
O    -6.57698172e-01     -1.90429503e-01     -2.67183107e+00     
O    4.93029102e-01      -2.12153020e+00     -2.94699653e+00     
H    1.42287858e-01      -2.05861959e+00     -3.88432022e+00     
O    1.00604609e+00      2.05318456e+00      -1.52341648e+00     
H    5.26202082e-01      2.07758823e+00      -2.35632339e+00     
H    1.33162225e+00      2.94506522e+00      -1.37660569e+00     
O    1.07081757e+00      -6.63475798e-01     2.37081105e+00      
H    1.16139526e+00      -1.61820689e+00     2.50273847e+00      
H    1.22943746e+00      -1.87922305e-01     3.18524434e+00      
O    -2.71870324e+00     -4.28275443e-01     -4.92012346e-01     
H    -2.88711293e+00     -2.25979550e-01     -1.41713614e+00     
H    -3.54891152e+00     -2.77448798e-01     -3.25301667e-02     
O    -4.32915429e-01     -2.04888703e+00     -5.42130964e+00     
H    -7.09091584e-01     -1.22309431e+00     -5.82439977e+00     
H    -8.79807625e-02     -2.58622297e+00     -6.14153024e+00     
O    1.17340675e+00      -3.42334421e+00     2.24576975e+00      
H    5.81588077e-01      -4.03592811e+00     2.69636928e+00      
H    1.98027660e+00      -3.95020929e+00     2.24632481e+00      
26
1676.254230
N    -1.17880272e-02     -5.50377666e-02     -5.13693354e-02     
H    -1.05134321e+00     -7.38990786e-02     -9.16381358e-02     
H    3.22050520e-01      8.38014605e-01      -4.68457973e-01     
H    3.23292568e-01      -1.44808163e-01     9.33542488e-01      
C    5.29727182e-01      -1.18816779e+00     -8.21809230e-01     
H    1.61581536e+00      -1.15151188e+00     -7.94365882e-01     
H    1.97881512e-01      -2.11974387e+00     -3.71072447e-01     
C    4.23580317e-02      -1.09294135e+00     -2.25158869e+00     
O    -6.57675952e-01     -1.90457138e-01     -2.67181717e+00     
O    4.93031223e-01      -2.12153707e+00     -2.94700767e+00     
H    1.42294181e-01      -2.05866003e+00     -3.88431763e+00     
O    1.00603933e+00      2.05319041e+00      -1.52342856e+00     
H    5.26204470e-01      2.07749607e+00      -2.35633641e+00     
H    1.33165601e+00      2.94502114e+00      -1.37646590e+00     
O    1.07106177e+00      -6.63853097e-01     2.37166849e+00      
H    1.15910768e+00      -1.62018487e+00     2.49270133e+00      
H    1.22793705e+00      -1.80167311e-01     3.18128519e+00      
O    -2.71870175e+00     -4.28274397e-01     -4.92011604e-01     
H    -2.88713640e+00     -2.25985773e-01     -1.41713617e+00     
H    -3.54892008e+00     -2.77431028e-01     -3.25560200e-02     
O    -4.32915473e-01     -2.04889287e+00     -5.42128315e+00     
H    -7.09022430e-01     -1.22317968e+00     -5.82462685e+00     
H    -8.80369568e-02     -2.58603829e+00     -6.14169426e+00     
O    1.17317041e+00      -3.42197430e+00     2.24530985e+00      
H    5.91939403e-01      -4.04626034e+00     2.69761035e+00      
H    1.97381184e+00      -3.96153034e+00     2.25301151e+00      
26
1676.254230
N    -1.18044553e-02     -5.51188210e-02     -5.14598990e-02     
H    -1.05132964e+00     -7.43297652e-02     -9.15057574e-02     
H    3.22674261e-01      8.38020217e-01      -4.67618218e-01     
H    3.23131295e-01      -1.43417923e-01     9.33919253e-01      
C    5.29665282e-01      -1.18813960e+00     -8.21890268e-01     
H    1.61576001e+00      -1.15167352e+00     -7.94123149e-01     
H    1.98184294e-01      -2.11965560e+00     -3.70815497e-01     
C    4.23322416e-02      -1.09288942e+00     -2.25157717e+00     
O    -6.57653733e-01     -1.90484772e-01     -2.67180327e+00     
O    4.93033345e-01      -2.12154395e+00     -2.94701880e+00     
H    1.42300504e-01      -2.05870048e+00     -3.88431504e+00     
O    1.00603258e+00      2.05319627e+00      -1.52344064e+00     
H    5.26206858e-01      2.07740391e+00      -2.35634943e+00     
H    1.33168976e+00      2.94497707e+00      -1.37632610e+00     
O    1.07130597e+00      -6.64230396e-01     2.37252593e+00      
H    1.15682009e+00      -1.62216286e+00     2.48266419e+00      
H    1.22643663e+00      -1.72412318e-01     3.17732604e+00      
O    -2.71870026e+00     -4.28273352e-01     -4.92010862e-01     
H    -2.88715987e+00     -2.25991995e-01     -1.41713621e+00     
H    -3.54892865e+00     -2.77413257e-01     -3.25818733e-02     
O    -4.32915517e-01     -2.04889872e+00     -5.42125665e+00     
H    -7.08953277e-01     -1.22326506e+00     -5.82485393e+00     
H    -8.80931511e-02     -2.58585361e+00     -6.14185828e+00     
O    1.17293408e+00      -3.42060439e+00     2.24484995e+00      
H    6.02290730e-01      -4.05659256e+00     2.69885142e+00      
H    1.96734708e+00      -3.97285140e+00     2.25969822e+00      
26
1676.254230
N    -1.18208834e-02     -5.51998754e-02     -5.15504625e-02     
H    -1.05131606e+00     -7.47604518e-02     -9.13733790e-02     
H    3.23298002e-01      8.38025829e-01      -4.66778462e-01     
H    3.22970021e-01      -1.42027683e-01     9.34296017e-01      
C    5.29603383e-01      -1.18811140e+00     -8.21971305e-01     
H    1.61570466e+00      -1.15183516e+00     -7.93880417e-01     
H    1.98487077e-01      -2.11956733e+00     -3.70558547e-01     
C    4.23064516e-02      -1.09283749e+00     -2.25156565e+00     
O    -6.57631513e-01     -1.90512406e-01     -2.67178937e+00     
O    4.93035466e-01      -2.12155082e+00     -2.94702993e+00     
H    1.42306828e-01      -2.05874093e+00     -3.88431245e+00     
O    1.00602582e+00      2.05320212e+00      -1.52345273e+00     
H    5.26209246e-01      2.07731175e+00      -2.35636245e+00     
H    1.33172352e+00      2.94493300e+00      -1.37618631e+00     
O    1.07155017e+00      -6.64607695e-01     2.37338337e+00      
H    1.15453251e+00      -1.62414085e+00     2.47262705e+00      
H    1.22493621e+00      -1.64657324e-01     3.17336690e+00      
O    -2.71869877e+00     -4.28272307e-01     -4.92010120e-01     
H    -2.88718333e+00     -2.25998218e-01     -1.41713624e+00     
H    -3.54893721e+00     -2.77395487e-01     -3.26077266e-02     
O    -4.32915561e-01     -2.04890456e+00     -5.42123016e+00     
H    -7.08884123e-01     -1.22335043e+00     -5.82508101e+00     
H    -8.81493454e-02     -2.58566894e+00     -6.14202230e+00     
O    1.17269775e+00      -3.41923448e+00     2.24439004e+00      
H    6.12642057e-01      -4.06692479e+00     2.70009249e+00      
H    1.96088232e+00      -3.98417245e+00     2.26638492e+00      
26
1676.254230
N    -1.18537396e-02     -5.53619843e-02     -5.17315895e-02     
H    -1.05128891e+00     -7.56218249e-02     -9.11086222e-02     
H    3.24545484e-01      8.38037054e-01      -4.65098951e-01     
H    3.22647474e-01      -1.39247202e-01     9.35049547e-01      
C    5.29479584e-01      -1.18805502e+00     -8.22133380e-01     
H    1.61559395e+00      -1.15215844e+00     -7.93394952e-01     
H    1.99092641e-01      -2.11939078e+00     -3.70044647e-01     
C    4.22548714e-02      -1.09273364e+00     -2.25154261e+00     
O    -6.57587074e-01     -1.90567675e-01     -2.67176156e+00     
O    4.93039709e-01      -2.12156457e+00     -2.94705220e+00     
H    1.42319474e-01      -2.05882182e+00     -3.88430727e+00     
O    1.00601231e+00      2.05321383e+00      -1.52347689e+00     
H    5.26214023e-01      2.07712743e+00      -2.35638848e+00     
H    1.33179103e+00      2.94484486e+00      -1.37590673e+00     
O    1.07203857e+00      -6.65362294e-01     2.37509826e+00      
H    1.14995734e+00      -1.62809682e+00     2.45255277e+00      
H    1.22193538e+00      -1.49147337e-01     3.16544860e+00      
O    -2.71869578e+00     -4.28270217e-01     -4.92008637e-01     
H    -2.88723027e+00     -2.26010664e-01     -1.41713630e+00     
H    -3.54895434e+00     -2.77359946e-01     -3.26594332e-02     
O    -4.32915650e-01     -2.04891625e+00     -5.42117717e+00     
H    -7.08745816e-01     -1.22352118e+00     -5.82553517e+00     
H    -8.82617339e-02     -2.58529958e+00     -6.14235034e+00     
O    1.17222509e+00      -3.41649466e+00     2.24347024e+00      
H    6.33344711e-01      -4.08758925e+00     2.70257463e+00      
H    1.94795279e+00      -4.00681455e+00     2.27975833e+00      
