26
1644.329969
N    -1.12117960e-02     -5.42137100e-02     -5.10890136e-02     
H    -1.05144695e+00     -8.24186518e-02     -7.10271201e-02     
H    3.33329218e-01      8.30878886e-01      -4.79407970e-01     
H    3.05011712e-01      -1.49666181e-01     9.34604151e-01      
C    5.30092054e-01      -1.18780539e+00     -8.22324201e-01     
H    1.61596299e+00      -1.15100968e+00     -7.94321071e-01     
H    1.96328082e-01      -2.11843722e+00     -3.71687299e-01     
C    4.27941824e-02      -1.09360857e+00     -2.25120947e+00     
O    -6.58008332e-01     -1.90097392e-01     -2.67204339e+00     
O    4.92966979e-01      -2.12142969e+00     -2.94698505e+00     
H    1.42857760e-01      -2.05939966e+00     -3.88468640e+00     
O    1.00574699e+00      2.05601084e+00      -1.52539529e+00     
H    5.18953805e-01      2.04494429e+00      -2.35302236e+00     
H    1.34503751e+00      2.93561496e+00      -1.34863077e+00     
O    1.06736509e+00      -6.58645618e-01     2.35832458e+00      
H    1.19277486e+00      -1.58766609e+00     2.64352778e+00      
H    1.25118375e+00      -3.00967027e-01     3.24224116e+00      
O    -2.72181747e+00     -4.27273682e-01     -4.93519398e-01     
H    -2.85446170e+00     -2.33897776e-01     -1.42480779e+00     
H    -3.53360236e+00     -2.85762306e-01     -2.43971129e-03     
O    -4.32928300e-01     -2.04889033e+00     -5.42129814e+00     
H    -7.09017864e-01     -1.22311775e+00     -5.82455945e+00     
H    -8.79828833e-02     -2.58607113e+00     -6.14165321e+00     
O    1.17282388e+00      -3.42047744e+00     2.24417984e+00      
H    6.01226623e-01      -4.05353211e+00     2.70075888e+00      
H    1.96858837e+00      -3.97068259e+00     2.26064001e+00      
26
1644.329969
N    -1.13394257e-02     -5.43386697e-02     -5.10685306e-02     
H    -1.05143459e+00     -7.98580719e-02     -7.63122524e-02     
H    3.29885803e-01      8.32657203e-01      -4.77510226e-01     
H    3.09743200e-01      -1.49841917e-01     9.33961970e-01      
C    5.30062735e-01      -1.18792418e+00     -8.22114421e-01     
H    1.61598144e+00      -1.15097359e+00     -7.94575006e-01     
H    1.96413657e-01      -2.11885215e+00     -3.71790535e-01     
C    4.27109348e-02      -1.09349369e+00     -2.25131579e+00     
O    -6.57947456e-01     -1.90159694e-01     -2.67200073e+00     
O    4.92980919e-01      -2.12144966e+00     -2.94697957e+00     
H    1.42710542e-01      -2.05917431e+00     -3.88459680e+00     
O    1.00582683e+00      2.05529988e+00      -1.52489153e+00     
H    5.20764083e-01      2.05317440e+00      -2.35383786e+00     
H    1.34165838e+00      2.93801057e+00      -1.35572934e+00     
O    1.06804506e+00      -6.59570189e-01     2.36080311e+00      
H    1.18664565e+00      -1.59381780e+00     2.61585831e+00      
H    1.24687249e+00      -2.78522091e-01     3.23096132e+00      
O    -2.72104003e+00     -4.27524906e-01     -4.93143192e-01     
H    -2.86260690e+00     -2.31913553e-01     -1.42288986e+00     
H    -3.53742322e+00     -2.83697257e-01     -9.94293517e-03     
O    -4.32925049e-01     -2.04888512e+00     -5.42132088e+00     
H    -7.09088159e-01     -1.22304786e+00     -5.82434922e+00     
H    -8.79402074e-02     -2.58624760e+00     -6.14149945e+00     
O    1.17314684e+00      -3.42222157e+00     2.24492225e+00      
H    5.88553491e-01      -4.04138194e+00     2.69873068e+00      
H    1.97635900e+00      -3.95707348e+00     2.25204619e+00      
26
1644.329969
N    -1.14032406e-02     -5.44011496e-02     -5.10582890e-02     
H    -1.05142841e+00     -7.85777819e-02     -7.89548186e-02     
H    3.28164095e-01      8.33546362e-01      -4.76561355e-01     
H    3.12108943e-01      -1.49929785e-01     9.33640880e-01      
C    5.30048076e-01      -1.18798358e+00     -8.22009531e-01     
H    1.61599066e+00      -1.15095555e+00     -7.94701974e-01     
H    1.96456445e-01      -2.11905962e+00     -3.71842154e-01     
C    4.26693110e-02      -1.09343625e+00     -2.25136896e+00     
O    -6.57917019e-01     -1.90190845e-01     -2.67197941e+00     
O    4.92987889e-01      -2.12145965e+00     -2.94697683e+00     
H    1.42636933e-01      -2.05906163e+00     -3.88455200e+00     
O    1.00586675e+00      2.05494440e+00      -1.52463964e+00     
H    5.21669222e-01      2.05728945e+00      -2.35424560e+00     
H    1.33996881e+00      2.93920838e+00      -1.35927863e+00     
O    1.06838505e+00      -6.60032474e-01     2.36204238e+00      
H    1.18358104e+00      -1.59689365e+00     2.60202358e+00      
H    1.24471686e+00      -2.67299624e-01     3.22532140e+00      
O    -2.72065131e+00     -4.27650518e-01     -4.92955089e-01     
H    -2.86667951e+00     -2.30921441e-01     -1.42193089e+00     
H    -3.53933366e+00     -2.82664732e-01     -1.36945471e-02     
O    -4.32923423e-01     -2.04888251e+00     -5.42133226e+00     
H    -7.09123306e-01     -1.22301292e+00     -5.82424411e+00     
H    -8.79188694e-02     -2.58633583e+00     -6.14142257e+00     
O    1.17330833e+00      -3.42309363e+00     2.24529345e+00      
H    5.82216925e-01      -4.03530685e+00     2.69771658e+00      
H    1.98024432e+00      -3.95026892e+00     2.24774927e+00      
26
1644.329969
N    -1.14670554e-02     -5.44636294e-02     -5.10480475e-02     
H    -1.05142224e+00     -7.72974920e-02     -8.15973847e-02     
H    3.26442387e-01      8.34435520e-01      -4.75612483e-01     
H    3.14474687e-01      -1.50017653e-01     9.33319789e-01      
C    5.30033417e-01      -1.18804297e+00     -8.21904641e-01     
H    1.61599989e+00      -1.15093750e+00     -7.94828941e-01     
H    1.96499232e-01      -2.11926709e+00     -3.71893772e-01     
C    4.26276872e-02      -1.09337881e+00     -2.25142212e+00     
O    -6.57886581e-01     -1.90221996e-01     -2.67195808e+00     
O    4.92994858e-01      -2.12146963e+00     -2.94697409e+00     
H    1.42563324e-01      -2.05894896e+00     -3.88450720e+00     
O    1.00590667e+00      2.05458892e+00      -1.52438776e+00     
H    5.22574361e-01      2.06140450e+00      -2.35465335e+00     
H    1.33827925e+00      2.94040619e+00      -1.36282791e+00     
O    1.06872503e+00      -6.60494760e-01     2.36328165e+00      
H    1.18051644e+00      -1.59996951e+00     2.58818884e+00      
H    1.24256123e+00      -2.56077156e-01     3.21968147e+00      
O    -2.72026259e+00     -4.27776130e-01     -4.92766985e-01     
H    -2.87075211e+00     -2.29929329e-01     -1.42097192e+00     
H    -3.54124409e+00     -2.81632208e-01     -1.74461590e-02     
O    -4.32921798e-01     -2.04887991e+00     -5.42134363e+00     
H    -7.09158454e-01     -1.22297797e+00     -5.82413900e+00     
H    -8.78975315e-02     -2.58642406e+00     -6.14134569e+00     
O    1.17346981e+00      -3.42396570e+00     2.24566465e+00      
H    5.75880360e-01      -4.02923177e+00     2.69670248e+00      
H    1.98412963e+00      -3.94346437e+00     2.24345236e+00      
26
1644.329969
N    -1.15308703e-02     -5.45261093e-02     -5.10378060e-02     
H    -1.05141606e+00     -7.60172020e-02     -8.42399509e-02     
H    3.24720679e-01      8.35324679e-01      -4.74663611e-01     
H    3.16840431e-01      -1.50105520e-01     9.32998699e-01      
C    5.30018758e-01      -1.18810237e+00     -8.21799751e-01     
H    1.61600911e+00      -1.15091946e+00     -7.94955909e-01     
H    1.96542020e-01      -2.11947456e+00     -3.71945391e-01     
C    4.25860634e-02      -1.09332137e+00     -2.25147528e+00     
O    -6.57856143e-01     -1.90253147e-01     -2.67193676e+00     
O    4.93001828e-01      -2.12147962e+00     -2.94697135e+00     
H    1.42489715e-01      -2.05883628e+00     -3.88446240e+00     
O    1.00594659e+00      2.05423344e+00      -1.52413588e+00     
H    5.23479500e-01      2.06551955e+00      -2.35506110e+00     
H    1.33658968e+00      2.94160400e+00      -1.36637720e+00     
O    1.06906502e+00      -6.60957045e-01     2.36452092e+00      
H    1.17745183e+00      -1.60304536e+00     2.57435411e+00      
H    1.24040560e+00      -2.44854689e-01     3.21404155e+00      
O    -2.71987388e+00     -4.27901742e-01     -4.92578882e-01     
H    -2.87482472e+00     -2.28937217e-01     -1.42001295e+00     
H    -3.54315452e+00     -2.80599683e-01     -2.11977710e-02     
O    -4.32920172e-01     -2.04887730e+00     -5.42135500e+00     
H    -7.09193601e-01     -1.22294303e+00     -5.82403388e+00     
H    -8.78761935e-02     -2.58651230e+00     -6.14126882e+00     
O    1.17363129e+00      -3.42483776e+00     2.24603585e+00      
H    5.69543794e-01      -4.02315668e+00     2.69568837e+00      
H    1.98801495e+00      -3.93665981e+00     2.23915544e+00      
26
1644.329969
N    -1.15946851e-02     -5.45885892e-02     -5.10275645e-02     
H    -1.05140988e+00     -7.47369121e-02     -8.68825171e-02     
H    3.22998972e-01      8.36213838e-01      -4.73714739e-01     
H    3.19206175e-01      -1.50193388e-01     9.32677609e-01      
C    5.30004098e-01      -1.18816177e+00     -8.21694860e-01     
H    1.61601833e+00      -1.15090142e+00     -7.95082876e-01     
H    1.96584808e-01      -2.11968202e+00     -3.71997009e-01     
C    4.25444396e-02      -1.09326393e+00     -2.25152844e+00     
O    -6.57825705e-01     -1.90284298e-01     -2.67191543e+00     
O    4.93008798e-01      -2.12148961e+00     -2.94696861e+00     
H    1.42416106e-01      -2.05872360e+00     -3.88441760e+00     
O    1.00598651e+00      2.05387796e+00      -1.52388400e+00     
H    5.24384639e-01      2.06963460e+00      -2.35546885e+00     
H    1.33490012e+00      2.94280181e+00      -1.36992649e+00     
O    1.06940501e+00      -6.61419330e-01     2.36576019e+00      
H    1.17438723e+00      -1.60612122e+00     2.56051937e+00      
H    1.23824997e+00      -2.33632221e-01     3.20840163e+00      
O    -2.71948516e+00     -4.28027354e-01     -4.92390779e-01     
H    -2.87889732e+00     -2.27945106e-01     -1.41905399e+00     
H    -3.54506495e+00     -2.79567159e-01     -2.49493829e-02     
O    -4.32918547e-01     -2.04887470e+00     -5.42136637e+00     
H    -7.09228749e-01     -1.22290808e+00     -5.82392877e+00     
H    -8.78548556e-02     -2.58660053e+00     -6.14119194e+00     
O    1.17379277e+00      -3.42570982e+00     2.24640706e+00      
H    5.63207228e-01      -4.01708159e+00     2.69467427e+00      
H    1.99190026e+00      -3.92985525e+00     2.23485853e+00      
26
1644.329969
N    -1.16265925e-02     -5.46198291e-02     -5.10224437e-02     
H    -1.05140679e+00     -7.40967671e-02     -8.82038002e-02     
H    3.22138118e-01      8.36658417e-01      -4.73240304e-01     
H    3.20389047e-01      -1.50237322e-01     9.32517063e-01      
C    5.29996769e-01      -1.18819147e+00     -8.21642415e-01     
H    1.61602294e+00      -1.15089239e+00     -7.95146360e-01     
H    1.96606202e-01      -2.11978576e+00     -3.72022818e-01     
C    4.25236277e-02      -1.09323521e+00     -2.25155502e+00     
O    -6.57810487e-01     -1.90299873e-01     -2.67190477e+00     
O    4.93012283e-01      -2.12149460e+00     -2.94696724e+00     
H    1.42379301e-01      -2.05866727e+00     -3.88439520e+00     
O    1.00600647e+00      2.05370022e+00      -1.52375805e+00     
H    5.24837208e-01      2.07169212e+00      -2.35567272e+00     
H    1.33405534e+00      2.94340072e+00      -1.37170113e+00     
O    1.06957500e+00      -6.61650473e-01     2.36637983e+00      
H    1.17285493e+00      -1.60765915e+00     2.55360200e+00      
H    1.23717216e+00      -2.28020987e-01     3.20558166e+00      
O    -2.71929080e+00     -4.28090160e-01     -4.92296727e-01     
H    -2.88093362e+00     -2.27449050e-01     -1.41857450e+00     
H    -3.54602017e+00     -2.79050897e-01     -2.68251889e-02     
O    -4.32917734e-01     -2.04887340e+00     -5.42137206e+00     
H    -7.09246323e-01     -1.22289061e+00     -5.82387621e+00     
H    -8.78441866e-02     -2.58664465e+00     -6.14115350e+00     
O    1.17387352e+00      -3.42614586e+00     2.24659266e+00      
H    5.60038945e-01      -4.01404405e+00     2.69416722e+00      
H    1.99384292e+00      -3.92645297e+00     2.23271007e+00      
26
1644.329969
N    -1.16585000e-02     -5.46510690e-02     -5.10173229e-02     
H    -1.05140370e+00     -7.34566221e-02     -8.95250832e-02     
H    3.21277264e-01      8.37102996e-01      -4.72765868e-01     
H    3.21571919e-01      -1.50281256e-01     9.32356518e-01      
C    5.29989439e-01      -1.18822116e+00     -8.21589970e-01     
H    1.61602756e+00      -1.15088337e+00     -7.95209844e-01     
H    1.96627595e-01      -2.11988949e+00     -3.72048628e-01     
C    4.25028158e-02      -1.09320649e+00     -2.25158160e+00     
O    -6.57795268e-01     -1.90315449e-01     -2.67189411e+00     
O    4.93015768e-01      -2.12149959e+00     -2.94696587e+00     
H    1.42342497e-01      -2.05861093e+00     -3.88437280e+00     
O    1.00602643e+00      2.05352248e+00      -1.52363211e+00     
H    5.25289778e-01      2.07374965e+00      -2.35587659e+00     
H    1.33321055e+00      2.94399962e+00      -1.37347577e+00     
O    1.06974499e+00      -6.61881616e-01     2.36699946e+00      
H    1.17132262e+00      -1.60919707e+00     2.54668464e+00      
H    1.23609434e+00      -2.22409754e-01     3.20276170e+00      
O    -2.71909644e+00     -4.28152966e-01     -4.92202675e-01     
H    -2.88296993e+00     -2.26952994e-01     -1.41809502e+00     
H    -3.54697539e+00     -2.78534634e-01     -2.87009949e-02     
O    -4.32916921e-01     -2.04887209e+00     -5.42137775e+00     
H    -7.09263896e-01     -1.22287314e+00     -5.82382365e+00     
H    -8.78335176e-02     -2.58668877e+00     -6.14111506e+00     
O    1.17395426e+00      -3.42658189e+00     2.24677826e+00      
H    5.56870662e-01      -4.01100651e+00     2.69366017e+00      
H    1.99578558e+00      -3.92305070e+00     2.23056161e+00      
26
1644.329969
N    -1.17861296e-02     -5.47760288e-02     -5.09968399e-02     
H    -1.05139134e+00     -7.08960423e-02     -9.48102156e-02     
H    3.17833848e-01      8.38881314e-01      -4.70868124e-01     
H    3.26303407e-01      -1.50456992e-01     9.31714338e-01      
C    5.29960121e-01      -1.18833996e+00     -8.21380190e-01     
H    1.61604600e+00      -1.15084729e+00     -7.95463778e-01     
H    1.96713171e-01      -2.12030443e+00     -3.72151864e-01     
C    4.24195682e-02      -1.09309161e+00     -2.25168792e+00     
O    -6.57734392e-01     -1.90377751e-01     -2.67185145e+00     
O    4.93029708e-01      -2.12151957e+00     -2.94696039e+00     
H    1.42195279e-01      -2.05838557e+00     -3.88428320e+00     
O    1.00610627e+00      2.05281152e+00      -1.52312835e+00     
H    5.27100056e-01      2.08197975e+00      -2.35669209e+00     
H    1.32983143e+00      2.94639524e+00      -1.38057435e+00     
O    1.07042497e+00      -6.62806186e-01     2.36947800e+00      
H    1.16519342e+00      -1.61534879e+00     2.51901516e+00      
H    1.23178308e+00      -1.99964818e-01     3.19148186e+00      
O    -2.71831900e+00     -4.28404190e-01     -4.91826469e-01     
H    -2.89111513e+00     -2.24968770e-01     -1.41617708e+00     
H    -3.55079625e+00     -2.76469586e-01     -3.62042187e-02     
O    -4.32913671e-01     -2.04886689e+00     -5.42140049e+00     
H    -7.09334192e-01     -1.22280324e+00     -5.82361343e+00     
H    -8.77908418e-02     -2.58686523e+00     -6.14096130e+00     
O    1.17427722e+00      -3.42832601e+00     2.24752066e+00      
H    5.44197530e-01      -3.99885633e+00     2.69163197e+00      
H    2.00355620e+00      -3.90944158e+00     2.22196779e+00      
26
1644.329969
N    -1.18180371e-02     -5.48072687e-02     -5.09917191e-02     
H    -1.05138825e+00     -7.02558973e-02     -9.61314986e-02     
H    3.16972994e-01      8.39325893e-01      -4.70393688e-01     
H    3.27486279e-01      -1.50500926e-01     9.31553793e-01      
C    5.29952791e-01      -1.18836965e+00     -8.21327745e-01     
H    1.61605062e+00      -1.15083827e+00     -7.95527262e-01     
H    1.96734564e-01      -2.12040816e+00     -3.72177674e-01     
C    4.23987563e-02      -1.09306289e+00     -2.25171450e+00     
O    -6.57719173e-01     -1.90393327e-01     -2.67184079e+00     
O    4.93033193e-01      -2.12152456e+00     -2.94695902e+00     
H    1.42158475e-01      -2.05832923e+00     -3.88426080e+00     
O    1.00612623e+00      2.05263378e+00      -1.52300241e+00     
H    5.27552626e-01      2.08403728e+00      -2.35689596e+00     
H    1.32898664e+00      2.94699414e+00      -1.38234899e+00     
O    1.07059496e+00      -6.63037329e-01     2.37009763e+00      
H    1.16366111e+00      -1.61688671e+00     2.51209780e+00      
H    1.23070526e+00      -1.94353585e-01     3.18866190e+00      
O    -2.71812464e+00     -4.28466996e-01     -4.91732417e-01     
H    -2.89315144e+00     -2.24472714e-01     -1.41569760e+00     
H    -3.55175147e+00     -2.75953323e-01     -3.80800247e-02     
O    -4.32912858e-01     -2.04886558e+00     -5.42140618e+00     
H    -7.09351765e-01     -1.22278577e+00     -5.82356087e+00     
H    -8.77801728e-02     -2.58690935e+00     -6.14092286e+00     
O    1.17435796e+00      -3.42876204e+00     2.24770626e+00      
H    5.41029247e-01      -3.99581879e+00     2.69112492e+00      
H    2.00549886e+00      -3.90603931e+00     2.21981933e+00      
26
1644.329969
N    -1.18499445e-02     -5.48385086e-02     -5.09865983e-02     
H    -1.05138516e+00     -6.96157523e-02     -9.74527817e-02     
H    3.16112140e-01      8.39770472e-01      -4.69919253e-01     
H    3.28669151e-01      -1.50544860e-01     9.31393247e-01      
C    5.29945462e-01      -1.18839935e+00     -8.21275300e-01     
H    1.61605523e+00      -1.15082924e+00     -7.95590746e-01     
H    1.96755958e-01      -2.12051190e+00     -3.72203483e-01     
C    4.23779444e-02      -1.09303417e+00     -2.25174108e+00     
O    -6.57703955e-01     -1.90408902e-01     -2.67183013e+00     
O    4.93036678e-01      -2.12152955e+00     -2.94695765e+00     
H    1.42121670e-01      -2.05827290e+00     -3.88423840e+00     
O    1.00614619e+00      2.05245604e+00      -1.52287646e+00     
H    5.28005195e-01      2.08609480e+00      -2.35709983e+00     
H    1.32814186e+00      2.94759305e+00      -1.38412363e+00     
O    1.07076495e+00      -6.63268472e-01     2.37071727e+00      
H    1.16212881e+00      -1.61842464e+00     2.50518043e+00      
H    1.22962745e+00      -1.88742351e-01     3.18584193e+00      
O    -2.71793028e+00     -4.28529802e-01     -4.91638365e-01     
H    -2.89518774e+00     -2.23976658e-01     -1.41521811e+00     
H    -3.55270669e+00     -2.75437061e-01     -3.99558307e-02     
O    -4.32912045e-01     -2.04886428e+00     -5.42141187e+00     
H    -7.09369339e-01     -1.22276830e+00     -5.82350831e+00     
H    -8.77695038e-02     -2.58695347e+00     -6.14088442e+00     
O    1.17443871e+00      -3.42919808e+00     2.24789186e+00      
H    5.37860964e-01      -3.99278125e+00     2.69061787e+00      
H    2.00744152e+00      -3.90263703e+00     2.21767087e+00      
26
1644.329969
N    -1.19137593e-02     -5.49009885e-02     -5.09763568e-02     
H    -1.05137898e+00     -6.83354624e-02     -1.00095348e-01     
H    3.14390433e-01      8.40659631e-01      -4.68970381e-01     
H    3.31034895e-01      -1.50632728e-01     9.31072157e-01      
C    5.29930802e-01      -1.18845875e+00     -8.21170409e-01     
H    1.61606445e+00      -1.15081120e+00     -7.95717713e-01     
H    1.96798746e-01      -2.12071936e+00     -3.72255101e-01     
C    4.23363206e-02      -1.09297673e+00     -2.25179424e+00     
O    -6.57673517e-01     -1.90440053e-01     -2.67180880e+00     
O    4.93043648e-01      -2.12153954e+00     -2.94695491e+00     
H    1.42048061e-01      -2.05816022e+00     -3.88419360e+00     
O    1.00618611e+00      2.05210056e+00      -1.52262458e+00     
H    5.28910334e-01      2.09020985e+00      -2.35750758e+00     
H    1.32645230e+00      2.94879086e+00      -1.38767292e+00     
O    1.07110494e+00      -6.63730757e-01     2.37195654e+00      
H    1.15906421e+00      -1.62150050e+00     2.49134569e+00      
H    1.22747182e+00      -1.77519883e-01     3.18020201e+00      
O    -2.71754156e+00     -4.28655414e-01     -4.91450262e-01     
H    -2.89926034e+00     -2.22984547e-01     -1.41425915e+00     
H    -3.55461712e+00     -2.74404537e-01     -4.37074426e-02     
O    -4.32910420e-01     -2.04886168e+00     -5.42142324e+00     
H    -7.09404487e-01     -1.22273335e+00     -5.82340320e+00     
H    -8.77481659e-02     -2.58704170e+00     -6.14080754e+00     
O    1.17460019e+00      -3.43007014e+00     2.24826307e+00      
H    5.31524398e-01      -3.98670616e+00     2.68960377e+00      
H    2.01132683e+00      -3.89583247e+00     2.21337396e+00      
26
1644.329969
N    -1.19775742e-02     -5.49634684e-02     -5.09661153e-02     
H    -1.05137280e+00     -6.70551724e-02     -1.02737914e-01     
H    3.12668725e-01      8.41548790e-01      -4.68021509e-01     
H    3.33400639e-01      -1.50720595e-01     9.30751067e-01      
C    5.29916143e-01      -1.18851815e+00     -8.21065519e-01     
H    1.61607367e+00      -1.15079316e+00     -7.95844681e-01     
H    1.96841534e-01      -2.12092683e+00     -3.72306720e-01     
C    4.22946968e-02      -1.09291929e+00     -2.25184740e+00     
O    -6.57643079e-01     -1.90471204e-01     -2.67178748e+00     
O    4.93050618e-01      -2.12154953e+00     -2.94695217e+00     
H    1.41974452e-01      -2.05804754e+00     -3.88414880e+00     
O    1.00622603e+00      2.05174508e+00      -1.52237270e+00     
H    5.29815473e-01      2.09432490e+00      -2.35791533e+00     
H    1.32476273e+00      2.94998867e+00      -1.39122221e+00     
O    1.07144493e+00      -6.64193042e-01     2.37319581e+00      
H    1.15599960e+00      -1.62457635e+00     2.47751096e+00      
H    1.22531619e+00      -1.66297416e-01     3.17456209e+00      
O    -2.71715285e+00     -4.28781026e-01     -4.91262159e-01     
H    -2.90333295e+00     -2.21992435e-01     -1.41330018e+00     
H    -3.55652755e+00     -2.73372012e-01     -4.74590546e-02     
O    -4.32908794e-01     -2.04885907e+00     -5.42143461e+00     
H    -7.09439634e-01     -1.22269841e+00     -5.82329808e+00     
H    -8.77268279e-02     -2.58712994e+00     -6.14073067e+00     
O    1.17476167e+00      -3.43094220e+00     2.24863427e+00      
H    5.25187832e-01      -3.98063107e+00     2.68858966e+00      
H    2.01521215e+00      -3.88902791e+00     2.20907704e+00      
26
1644.329969
N    -1.20413890e-02     -5.50259482e-02     -5.09558738e-02     
H    -1.05136663e+00     -6.57748825e-02     -1.05380480e-01     
H    3.10947017e-01      8.42437948e-01      -4.67072637e-01     
H    3.35766383e-01      -1.50808463e-01     9.30429976e-01      
C    5.29901484e-01      -1.18857754e+00     -8.20960629e-01     
H    1.61608290e+00      -1.15077511e+00     -7.95971648e-01     
H    1.96884321e-01      -2.12113430e+00     -3.72358338e-01     
C    4.22530730e-02      -1.09286185e+00     -2.25190056e+00     
O    -6.57612641e-01     -1.90502355e-01     -2.67176615e+00     
O    4.93057587e-01      -2.12155951e+00     -2.94694943e+00     
H    1.41900843e-01      -2.05793487e+00     -3.88410400e+00     
O    1.00626595e+00      2.05138960e+00      -1.52212082e+00     
H    5.30720612e-01      2.09843995e+00      -2.35832308e+00     
H    1.32307317e+00      2.95118648e+00      -1.39477149e+00     
O    1.07178491e+00      -6.64655328e-01     2.37443508e+00      
H    1.15293500e+00      -1.62765221e+00     2.46367622e+00      
H    1.22316056e+00      -1.55074948e-01     3.16892216e+00      
O    -2.71676413e+00     -4.28906638e-01     -4.91074055e-01     
H    -2.90740555e+00     -2.21000323e-01     -1.41234121e+00     
H    -3.55843798e+00     -2.72339488e-01     -5.12106665e-02     
O    -4.32907169e-01     -2.04885647e+00     -5.42144598e+00     
H    -7.09474782e-01     -1.22266346e+00     -5.82319297e+00     
H    -8.77054900e-02     -2.58721817e+00     -6.14065379e+00     
O    1.17492315e+00      -3.43181427e+00     2.24900547e+00      
H    5.18851267e-01      -3.97455599e+00     2.68757556e+00      
H    2.01909746e+00      -3.88222336e+00     2.20478013e+00      
26
1644.329969
N    -1.21052039e-02     -5.50884281e-02     -5.09456322e-02     
H    -1.05136045e+00     -6.44945925e-02     -1.08023046e-01     
H    3.09225309e-01      8.43327107e-01      -4.66123766e-01     
H    3.38132126e-01      -1.50896331e-01     9.30108886e-01      
C    5.29886825e-01      -1.18863694e+00     -8.20855739e-01     
H    1.61609212e+00      -1.15075707e+00     -7.96098616e-01     
H    1.96927109e-01      -2.12134177e+00     -3.72409957e-01     
C    4.22114492e-02      -1.09280441e+00     -2.25195373e+00     
O    -6.57582204e-01     -1.90533506e-01     -2.67174483e+00     
O    4.93064557e-01      -2.12156950e+00     -2.94694669e+00     
H    1.41827234e-01      -2.05782219e+00     -3.88405920e+00     
O    1.00630587e+00      2.05103412e+00      -1.52186893e+00     
H    5.31625751e-01      2.10255500e+00      -2.35873082e+00     
H    1.32138360e+00      2.95238429e+00      -1.39832078e+00     
O    1.07212490e+00      -6.65117613e-01     2.37567435e+00      
H    1.14987039e+00      -1.63072806e+00     2.44984149e+00      
H    1.22100493e+00      -1.43852481e-01     3.16328224e+00      
O    -2.71637541e+00     -4.29032250e-01     -4.90885952e-01     
H    -2.91147816e+00     -2.20008211e-01     -1.41138224e+00     
H    -3.56034842e+00     -2.71306963e-01     -5.49622784e-02     
O    -4.32905543e-01     -2.04885386e+00     -5.42145736e+00     
H    -7.09509929e-01     -1.22262852e+00     -5.82308786e+00     
H    -8.76841520e-02     -2.58730640e+00     -6.14057691e+00     
O    1.17508464e+00      -3.43268633e+00     2.24937667e+00      
H    5.12514701e-01      -3.96848090e+00     2.68656146e+00      
H    2.02298278e+00      -3.87541880e+00     2.20048321e+00      
26
1644.329969
N    -1.22328336e-02     -5.52133878e-02     -5.09251492e-02     
H    -1.05134809e+00     -6.19340126e-02     -1.13308179e-01     
H    3.05781894e-01      8.45105424e-01      -4.64226022e-01     
H    3.42863614e-01      -1.51072067e-01     9.29466705e-01      
C    5.29857506e-01      -1.18875573e+00     -8.20645959e-01     
H    1.61611057e+00      -1.15072098e+00     -7.96352551e-01     
H    1.97012684e-01      -2.12175670e+00     -3.72513193e-01     
C    4.21282016e-02      -1.09268953e+00     -2.25206005e+00     
O    -6.57521328e-01     -1.90595808e-01     -2.67170217e+00     
O    4.93078497e-01      -2.12158947e+00     -2.94694121e+00     
H    1.41680016e-01      -2.05759684e+00     -3.88396960e+00     
O    1.00638571e+00      2.05032316e+00      -1.52136517e+00     
H    5.33436029e-01      2.11078511e+00      -2.35954632e+00     
H    1.31800447e+00      2.95477990e+00      -1.40541935e+00     
O    1.07280487e+00      -6.66042184e-01     2.37815288e+00      
H    1.14374118e+00      -1.63687977e+00     2.42217202e+00      
H    1.21669367e+00      -1.21407545e-01     3.15200240e+00      
O    -2.71559797e+00     -4.29283474e-01     -4.90509746e-01     
H    -2.91962336e+00     -2.18023988e-01     -1.40946431e+00     
H    -3.56416928e+00     -2.69241914e-01     -6.24655023e-02     
O    -4.32902292e-01     -2.04884865e+00     -5.42148010e+00     
H    -7.09580224e-01     -1.22255863e+00     -5.82287763e+00     
H    -8.76414761e-02     -2.58748287e+00     -6.14042315e+00     
O    1.17540760e+00      -3.43443046e+00     2.25011908e+00      
H    4.99841569e-01      -3.95633073e+00     2.68453326e+00      
H    2.03075341e+00      -3.86180969e+00     2.19188939e+00      
