26
1649.619424
N    -1.26612532e-02     -5.34349018e-02     -4.95188432e-02     
H    -1.05151117e+00     -8.63572447e-02     -1.04081113e-01     
H    3.26692017e-01      8.34900930e-01      -4.76584480e-01     
H    3.33551056e-01      -1.53756438e-01     9.30452647e-01      
C    5.29811757e-01      -1.18878633e+00     -8.22064275e-01     
H    1.61559871e+00      -1.14709516e+00     -7.94626662e-01     
H    1.94067389e-01      -2.11874957e+00     -3.70830114e-01     
C    4.24604730e-02      -1.09314453e+00     -2.25176826e+00     
O    -6.57745287e-01     -1.90506439e-01     -2.67168490e+00     
O    4.93095044e-01      -2.12133176e+00     -2.94642155e+00     
H    1.43480690e-01      -2.05905680e+00     -3.88670758e+00     
O    1.00573737e+00      2.05616788e+00      -1.52556127e+00     
H    5.18219043e-01      2.04242831e+00      -2.35264274e+00     
H    1.34606386e+00      2.93488599e+00      -1.34631007e+00     
O    1.07002540e+00      -6.62284531e-01     2.36819043e+00      
H    1.16840236e+00      -1.61204770e+00     2.53362810e+00      
H    1.23419402e+00      -2.12168413e-01     3.19765093e+00      
O    -2.71529808e+00     -4.29279198e-01     -4.90438233e-01     
H    -2.92310270e+00     -2.17696081e-01     -1.40863807e+00     
H    -3.56568539e+00     -2.68126158e-01     -6.56002267e-02     
O    -4.32532037e-01     -2.04553889e+00     -5.43446372e+00     
H    -7.45968462e-01     -1.18056848e+00     -5.70807185e+00     
H    -6.05216727e-02     -2.68179729e+00     -6.05490717e+00     
O    1.17406924e+00      -3.42719848e+00     2.24705254e+00      
H    5.52422933e-01      -4.00684663e+00     2.69289996e+00      
H    1.99849358e+00      -3.91830129e+00     2.22751797e+00      
26
1649.619424
N    -1.24265186e-02     -5.37545635e-02     -4.98909028e-02     
H    -1.05148276e+00     -8.28120166e-02     -1.01102747e-01     
H    3.24907902e-01      8.35673736e-01      -4.75392609e-01     
H    3.31147708e-01      -1.52909610e-01     9.30848342e-01      
C    5.29852512e-01      -1.18865989e+00     -8.21919476e-01     
H    1.61570823e+00      -1.14803770e+00     -7.94804199e-01     
H    1.94718137e-01      -2.11908641e+00     -3.71147647e-01     
C    4.24606527e-02      -1.09314566e+00     -2.25173489e+00     
O    -6.57750173e-01     -1.90466479e-01     -2.67173187e+00     
O    4.93076968e-01      -2.12137621e+00     -2.94655695e+00     
H    1.43177740e-01      -2.05891716e+00     -3.88611268e+00     
O    1.00581962e+00      2.05541766e+00      -1.52501601e+00     
H    5.20213012e-01      2.05128741e+00      -2.35355314e+00     
H    1.34242814e+00      2.93746385e+00      -1.35398881e+00     
O    1.07004029e+00      -6.62299373e-01     2.36820251e+00      
H    1.16836627e+00      -1.61210401e+00     2.53343355e+00      
H    1.23413019e+00      -2.11923131e-01     3.19751864e+00      
O    -2.71615049e+00     -4.29029043e-01     -4.90832318e-01     
H    -2.91408766e+00     -2.19762281e-01     -1.41076256e+00     
H    -3.56148550e+00     -2.70470146e-01     -5.73133217e-02     
O    -4.32627851e-01     -2.04637154e+00     -5.43119507e+00     
H    -7.36801108e-01     -1.19113590e+00     -5.73698352e+00     
H    -6.73442994e-02     -2.65804222e+00     -6.07643992e+00     
O    1.17408087e+00      -3.42726235e+00     2.24707677e+00      
H    5.51950724e-01      -4.00636783e+00     2.69283649e+00      
H    1.99878791e+00      -3.91778750e+00     2.22720465e+00      
26
1649.619424
N    -1.23091513e-02     -5.39143944e-02     -5.00769325e-02     
H    -1.05146855e+00     -8.10394025e-02     -9.96135638e-02     
H    3.24015844e-01      8.36060140e-01      -4.74796674e-01     
H    3.29946034e-01      -1.52486195e-01     9.31046190e-01      
C    5.29872890e-01      -1.18859667e+00     -8.21847077e-01     
H    1.61576299e+00      -1.14850897e+00     -7.94892968e-01     
H    1.95043512e-01      -2.11925484e+00     -3.71306414e-01     
C    4.24607426e-02      -1.09314623e+00     -2.25171820e+00     
O    -6.57752616e-01     -1.90446500e-01     -2.67175536e+00     
O    4.93067929e-01      -2.12139844e+00     -2.94662464e+00     
H    1.43026265e-01      -2.05884734e+00     -3.88581524e+00     
O    1.00586074e+00      2.05504255e+00      -1.52474338e+00     
H    5.21209996e-01      2.05571696e+00      -2.35400834e+00     
H    1.34061028e+00      2.93875278e+00      -1.35782819e+00     
O    1.07004774e+00      -6.62306795e-01     2.36820854e+00      
H    1.16834823e+00      -1.61213216e+00     2.53333628e+00      
H    1.23409828e+00      -2.11800490e-01     3.19745250e+00      
O    -2.71657669e+00     -4.28903965e-01     -4.91029360e-01     
H    -2.90958013e+00     -2.20795381e-01     -1.41182481e+00     
H    -3.55938555e+00     -2.71642140e-01     -5.31698692e-02     
O    -4.32675759e-01     -2.04678786e+00     -5.42956074e+00     
H    -7.32217430e-01     -1.19641962e+00     -5.75143936e+00     
H    -7.07556128e-02     -2.64616468e+00     -6.08720630e+00     
O    1.17408668e+00      -3.42729428e+00     2.24708888e+00      
H    5.51714619e-01      -4.00612843e+00     2.69280475e+00      
H    1.99893507e+00      -3.91753061e+00     2.22704800e+00      
26
1649.619424
N    -1.21917840e-02     -5.40742253e-02     -5.02629623e-02     
H    -1.05145435e+00     -7.92667885e-02     -9.81243810e-02     
H    3.23123787e-01      8.36446543e-01      -4.74200738e-01     
H    3.28744359e-01      -1.52062781e-01     9.31244037e-01      
C    5.29893268e-01      -1.18853345e+00     -8.21774678e-01     
H    1.61581774e+00      -1.14898024e+00     -7.94981736e-01     
H    1.95368886e-01      -2.11942326e+00     -3.71465180e-01     
C    4.24608325e-02      -1.09314679e+00     -2.25170151e+00     
O    -6.57755059e-01     -1.90426520e-01     -2.67177884e+00     
O    4.93058891e-01      -2.12142067e+00     -2.94669234e+00     
H    1.42874789e-01      -2.05877753e+00     -3.88551779e+00     
O    1.00590186e+00      2.05466744e+00      -1.52447075e+00     
H    5.22206980e-01      2.06014650e+00      -2.35446354e+00     
H    1.33879242e+00      2.94004171e+00      -1.36166756e+00     
O    1.07005519e+00      -6.62314216e-01     2.36821458e+00      
H    1.16833019e+00      -1.61216032e+00     2.53323900e+00      
H    1.23406636e+00      -2.11677850e-01     3.19738635e+00      
O    -2.71700290e+00     -4.28778888e-01     -4.91226403e-01     
H    -2.90507261e+00     -2.21828481e-01     -1.41288706e+00     
H    -3.55728561e+00     -2.72814134e-01     -4.90264167e-02     
O    -4.32723666e-01     -2.04720419e+00     -5.42792642e+00     
H    -7.27633753e-01     -1.20170333e+00     -5.76589519e+00     
H    -7.41669262e-02     -2.63428715e+00     -6.09797268e+00     
O    1.17409249e+00      -3.42732622e+00     2.24710100e+00      
H    5.51478515e-01      -4.00588902e+00     2.69277301e+00      
H    1.99908224e+00      -3.91727371e+00     2.22689134e+00      
26
1649.619424
N    -1.20744167e-02     -5.42340562e-02     -5.04489921e-02     
H    -1.05144014e+00     -7.74941744e-02     -9.66351981e-02     
H    3.22231729e-01      8.36832946e-01      -4.73604803e-01     
H    3.27542685e-01      -1.51639367e-01     9.31441885e-01      
C    5.29913646e-01      -1.18847022e+00     -8.21702278e-01     
H    1.61587250e+00      -1.14945152e+00     -7.95070505e-01     
H    1.95694260e-01      -2.11959169e+00     -3.71623947e-01     
C    4.24609224e-02      -1.09314736e+00     -2.25168482e+00     
O    -6.57757501e-01     -1.90406540e-01     -2.67180233e+00     
O    4.93049853e-01      -2.12144290e+00     -2.94676004e+00     
H    1.42723314e-01      -2.05870771e+00     -3.88522034e+00     
O    1.00594298e+00      2.05429233e+00      -1.52419812e+00     
H    5.23203964e-01      2.06457605e+00      -2.35491874e+00     
H    1.33697457e+00      2.94133064e+00      -1.36550694e+00     
O    1.07006264e+00      -6.62321637e-01     2.36822062e+00      
H    1.16831215e+00      -1.61218847e+00     2.53314173e+00      
H    1.23403445e+00      -2.11555209e-01     3.19732021e+00      
O    -2.71742910e+00     -4.28653810e-01     -4.91423445e-01     
H    -2.90056509e+00     -2.22861582e-01     -1.41394931e+00     
H    -3.55518566e+00     -2.73986128e-01     -4.48829642e-02     
O    -4.32771574e-01     -2.04762051e+00     -5.42629209e+00     
H    -7.23050076e-01     -1.20698705e+00     -5.78035103e+00     
H    -7.75782396e-02     -2.62240961e+00     -6.10873905e+00     
O    1.17409830e+00      -3.42735815e+00     2.24711311e+00      
H    5.51242410e-01      -4.00564962e+00     2.69274128e+00      
H    1.99922940e+00      -3.91701682e+00     2.22673468e+00      
26
1649.619424
N    -1.19570494e-02     -5.43938871e-02     -5.06350219e-02     
H    -1.05142593e+00     -7.57215603e-02     -9.51460152e-02     
H    3.21339671e-01      8.37219349e-01      -4.73008867e-01     
H    3.26341011e-01      -1.51215953e-01     9.31639733e-01      
C    5.29934024e-01      -1.18840700e+00     -8.21629879e-01     
H    1.61592726e+00      -1.14992279e+00     -7.95159274e-01     
H    1.96019634e-01      -2.11976011e+00     -3.71782713e-01     
C    4.24610122e-02      -1.09314792e+00     -2.25166814e+00     
O    -6.57759944e-01     -1.90386560e-01     -2.67182581e+00     
O    4.93040815e-01      -2.12146512e+00     -2.94682774e+00     
H    1.42571839e-01      -2.05863789e+00     -3.88492289e+00     
O    1.00598411e+00      2.05391722e+00      -1.52392549e+00     
H    5.24200949e-01      2.06900560e+00      -2.35537394e+00     
H    1.33515671e+00      2.94261957e+00      -1.36934631e+00     
O    1.07007008e+00      -6.62329058e-01     2.36822666e+00      
H    1.16829410e+00      -1.61221662e+00     2.53304445e+00      
H    1.23400254e+00      -2.11432568e-01     3.19725407e+00      
O    -2.71785531e+00     -4.28528733e-01     -4.91620487e-01     
H    -2.89605757e+00     -2.23894682e-01     -1.41501155e+00     
H    -3.55308571e+00     -2.75158122e-01     -4.07395118e-02     
O    -4.32819481e-01     -2.04803684e+00     -5.42465777e+00     
H    -7.18466399e-01     -1.21227076e+00     -5.79480687e+00     
H    -8.09895529e-02     -2.61053207e+00     -6.11950543e+00     
O    1.17410412e+00      -3.42739008e+00     2.24712523e+00      
H    5.51006305e-01      -4.00541022e+00     2.69270954e+00      
H    1.99937656e+00      -3.91675993e+00     2.22657802e+00      
26
1649.619424
N    -1.18983658e-02     -5.44738026e-02     -5.07280367e-02     
H    -1.05141883e+00     -7.48352533e-02     -9.44014237e-02     
H    3.20893642e-01      8.37412550e-01      -4.72710899e-01     
H    3.25740174e-01      -1.51004245e-01     9.31738657e-01      
C    5.29944213e-01      -1.18837539e+00     -8.21593679e-01     
H    1.61595464e+00      -1.15015842e+00     -7.95203658e-01     
H    1.96182322e-01      -2.11984432e+00     -3.71862096e-01     
C    4.24610572e-02      -1.09314820e+00     -2.25165979e+00     
O    -6.57761166e-01     -1.90376570e-01     -2.67183755e+00     
O    4.93036295e-01      -2.12147624e+00     -2.94686158e+00     
H    1.42496101e-01      -2.05860298e+00     -3.88477417e+00     
O    1.00600467e+00      2.05372966e+00      -1.52378918e+00     
H    5.24699441e-01      2.07122038e+00      -2.35560154e+00     
H    1.33424778e+00      2.94326404e+00      -1.37126600e+00     
O    1.07007381e+00      -6.62332769e-01     2.36822967e+00      
H    1.16828508e+00      -1.61223070e+00     2.53299581e+00      
H    1.23398658e+00      -2.11371247e-01     3.19722100e+00      
O    -2.71806841e+00     -4.28466194e-01     -4.91719008e-01     
H    -2.89380381e+00     -2.24411232e-01     -1.41554268e+00     
H    -3.55203574e+00     -2.75744119e-01     -3.86677855e-02     
O    -4.32843435e-01     -2.04824500e+00     -5.42384061e+00     
H    -7.16174560e-01     -1.21491262e+00     -5.80203478e+00     
H    -8.26952096e-02     -2.60459331e+00     -6.12488862e+00     
O    1.17410702e+00      -3.42740605e+00     2.24713129e+00      
H    5.50888253e-01      -4.00529052e+00     2.69269367e+00      
H    1.99945015e+00      -3.91663148e+00     2.22649969e+00      
26
1649.619424
N    -1.18396821e-02     -5.45537180e-02     -5.08210516e-02     
H    -1.05141173e+00     -7.39489463e-02     -9.36568323e-02     
H    3.20447614e-01      8.37605752e-01      -4.72412932e-01     
H    3.25139337e-01      -1.50792538e-01     9.31837580e-01      
C    5.29954402e-01      -1.18834378e+00     -8.21557479e-01     
H    1.61598202e+00      -1.15039406e+00     -7.95248042e-01     
H    1.96345009e-01      -2.11992854e+00     -3.71941480e-01     
C    4.24611021e-02      -1.09314849e+00     -2.25165145e+00     
O    -6.57762387e-01     -1.90366580e-01     -2.67184930e+00     
O    4.93031776e-01      -2.12148735e+00     -2.94689543e+00     
H    1.42420363e-01      -2.05856807e+00     -3.88462545e+00     
O    1.00602523e+00      2.05354211e+00      -1.52365286e+00     
H    5.25197933e-01      2.07343515e+00      -2.35582914e+00     
H    1.33333885e+00      2.94390850e+00      -1.37318569e+00     
O    1.07007753e+00      -6.62336480e-01     2.36823269e+00      
H    1.16827606e+00      -1.61224478e+00     2.53294718e+00      
H    1.23397062e+00      -2.11309927e-01     3.19718792e+00      
O    -2.71828151e+00     -4.28403655e-01     -4.91817530e-01     
H    -2.89155005e+00     -2.24927782e-01     -1.41607380e+00     
H    -3.55098577e+00     -2.76330116e-01     -3.65960593e-02     
O    -4.32867389e-01     -2.04845316e+00     -5.42302344e+00     
H    -7.13882721e-01     -1.21755448e+00     -5.80926270e+00     
H    -8.44008663e-02     -2.59865454e+00     -6.13027180e+00     
O    1.17410993e+00      -3.42742202e+00     2.24713734e+00      
H    5.50770201e-01      -4.00517082e+00     2.69267781e+00      
H    1.99952373e+00      -3.91650303e+00     2.22642136e+00      
26
1649.619424
N    -1.16049475e-02     -5.48733798e-02     -5.11931112e-02     
H    -1.05138331e+00     -7.04037181e-02     -9.06784665e-02     
H    3.18663498e-01      8.38378558e-01      -4.71221060e-01     
H    3.22735989e-01      -1.49945710e-01     9.32233276e-01      
C    5.29995158e-01      -1.18821734e+00     -8.21412681e-01     
H    1.61609154e+00      -1.15133660e+00     -7.95425580e-01     
H    1.96995757e-01      -2.12026538e+00     -3.72259012e-01     
C    4.24612819e-02      -1.09314961e+00     -2.25161807e+00     
O    -6.57767273e-01     -1.90326620e-01     -2.67189626e+00     
O    4.93013700e-01      -2.12153181e+00     -2.94703083e+00     
H    1.42117413e-01      -2.05842843e+00     -3.88403055e+00     
O    1.00610747e+00      2.05279189e+00      -1.52310760e+00     
H    5.27191901e-01      2.08229425e+00      -2.35673954e+00     
H    1.32970313e+00      2.94648636e+00      -1.38086443e+00     
O    1.07009243e+00      -6.62351322e-01     2.36824477e+00      
H    1.16823998e+00      -1.61230108e+00     2.53275262e+00      
H    1.23390680e+00      -2.11064645e-01     3.19705564e+00      
O    -2.71913393e+00     -4.28153501e-01     -4.92211614e-01     
H    -2.88253501e+00     -2.26993982e-01     -1.41819830e+00     
H    -3.54678587e+00     -2.78674104e-01     -2.83091543e-02     
O    -4.32963203e-01     -2.04928582e+00     -5.41975480e+00     
H    -7.04715367e-01     -1.22812190e+00     -5.83817438e+00     
H    -9.12234931e-02     -2.57489946e+00     -6.15180456e+00     
O    1.17412155e+00      -3.42748588e+00     2.24716158e+00      
H    5.50297991e-01      -4.00469202e+00     2.69261433e+00      
H    1.99981805e+00      -3.91598925e+00     2.22610804e+00      
26
1649.619424
N    -1.15462638e-02     -5.49532952e-02     -5.12861261e-02     
H    -1.05137621e+00     -6.95174111e-02     -8.99338751e-02     
H    3.18217470e-01      8.38571760e-01      -4.70923093e-01     
H    3.22135152e-01      -1.49734003e-01     9.32332199e-01      
C    5.30005347e-01      -1.18818573e+00     -8.21376481e-01     
H    1.61611892e+00      -1.15157224e+00     -7.95469964e-01     
H    1.97158444e-01      -2.12034960e+00     -3.72338396e-01     
C    4.24613268e-02      -1.09314990e+00     -2.25160973e+00     
O    -6.57768494e-01     -1.90316630e-01     -2.67190801e+00     
O    4.93009181e-01      -2.12154292e+00     -2.94706468e+00     
H    1.42041675e-01      -2.05839352e+00     -3.88388183e+00     
O    1.00612803e+00      2.05260434e+00      -1.52297128e+00     
H    5.27690393e-01      2.08450902e+00      -2.35696714e+00     
H    1.32879420e+00      2.94713082e+00      -1.38278412e+00     
O    1.07009615e+00      -6.62355033e-01     2.36824779e+00      
H    1.16823096e+00      -1.61231516e+00     2.53270399e+00      
H    1.23389084e+00      -2.11003325e-01     3.19702256e+00      
O    -2.71934703e+00     -4.28090962e-01     -4.92310136e-01     
H    -2.88028125e+00     -2.27510532e-01     -1.41872942e+00     
H    -3.54573590e+00     -2.79260101e-01     -2.62374281e-02     
O    -4.32987157e-01     -2.04949398e+00     -5.41893763e+00     
H    -7.02423528e-01     -1.23076376e+00     -5.84540230e+00     
H    -9.29291498e-02     -2.56896069e+00     -6.15718774e+00     
O    1.17412446e+00      -3.42750185e+00     2.24716763e+00      
H    5.50179939e-01      -4.00457232e+00     2.69259847e+00      
H    1.99989163e+00      -3.91586080e+00     2.22602971e+00      
26
1649.619424
N    -1.14875802e-02     -5.50332107e-02     -5.13791409e-02     
H    -1.05136911e+00     -6.86311041e-02     -8.91892836e-02     
H    3.17771441e-01      8.38764961e-01      -4.70625125e-01     
H    3.21534315e-01      -1.49522295e-01     9.32431123e-01      
C    5.30015536e-01      -1.18815412e+00     -8.21340281e-01     
H    1.61614630e+00      -1.15180787e+00     -7.95514348e-01     
H    1.97321132e-01      -2.12043381e+00     -3.72417779e-01     
C    4.24613718e-02      -1.09315018e+00     -2.25160138e+00     
O    -6.57769716e-01     -1.90306640e-01     -2.67191975e+00     
O    4.93004661e-01      -2.12155404e+00     -2.94709852e+00     
H    1.41965937e-01      -2.05835861e+00     -3.88373311e+00     
O    1.00614859e+00      2.05241678e+00      -1.52283497e+00     
H    5.28188885e-01      2.08672380e+00      -2.35719474e+00     
H    1.32788527e+00      2.94777529e+00      -1.38470381e+00     
O    1.07009988e+00      -6.62358744e-01     2.36825080e+00      
H    1.16822194e+00      -1.61232924e+00     2.53265535e+00      
H    1.23387488e+00      -2.10942004e-01     3.19698949e+00      
O    -2.71956013e+00     -4.28028423e-01     -4.92408657e-01     
H    -2.87802749e+00     -2.28027082e-01     -1.41926055e+00     
H    -3.54468593e+00     -2.79846098e-01     -2.41657018e-02     
O    -4.33011111e-01     -2.04970214e+00     -5.41812047e+00     
H    -7.00131689e-01     -1.23340562e+00     -5.85263021e+00     
H    -9.46348065e-02     -2.56302193e+00     -6.16257093e+00     
O    1.17412736e+00      -3.42751782e+00     2.24717369e+00      
H    5.50061887e-01      -4.00445262e+00     2.69258260e+00      
H    1.99996522e+00      -3.91573235e+00     2.22595138e+00      
26
1649.619424
N    -1.13702129e-02     -5.51930416e-02     -5.15651707e-02     
H    -1.05135490e+00     -6.68584900e-02     -8.77001007e-02     
H    3.16879383e-01      8.39151364e-01      -4.70029189e-01     
H    3.20332641e-01      -1.49098881e-01     9.32628971e-01      
C    5.30035914e-01      -1.18809090e+00     -8.21267882e-01     
H    1.61620106e+00      -1.15227914e+00     -7.95603117e-01     
H    1.97646506e-01      -2.12060223e+00     -3.72576545e-01     
C    4.24614616e-02      -1.09315074e+00     -2.25158470e+00     
O    -6.57772159e-01     -1.90286660e-01     -2.67194323e+00     
O    4.92995623e-01      -2.12157626e+00     -2.94716622e+00     
H    1.41814462e-01      -2.05828879e+00     -3.88343566e+00     
O    1.00618972e+00      2.05204167e+00      -1.52256234e+00     
H    5.29185870e-01      2.09115335e+00      -2.35764994e+00     
H    1.32606741e+00      2.94906422e+00      -1.38854318e+00     
O    1.07010732e+00      -6.62366165e-01     2.36825684e+00      
H    1.16820389e+00      -1.61235739e+00     2.53255807e+00      
H    1.23384297e+00      -2.10819363e-01     3.19692335e+00      
O    -2.71998634e+00     -4.27903346e-01     -4.92605699e-01     
H    -2.87351997e+00     -2.29060182e-01     -1.42032279e+00     
H    -3.54258598e+00     -2.81018092e-01     -2.00222494e-02     
O    -4.33059018e-01     -2.05011847e+00     -5.41648615e+00     
H    -6.95548012e-01     -1.23868933e+00     -5.86708605e+00     
H    -9.80461198e-02     -2.55114439e+00     -6.17333731e+00     
O    1.17413318e+00      -3.42754975e+00     2.24718581e+00      
H    5.49825782e-01      -4.00421322e+00     2.69255086e+00      
H    2.00011238e+00      -3.91547546e+00     2.22579472e+00      
26
1649.619424
N    -1.12528456e-02     -5.53528725e-02     -5.17512005e-02     
H    -1.05134069e+00     -6.50858759e-02     -8.62109178e-02     
H    3.15987325e-01      8.39537767e-01      -4.69433254e-01     
H    3.19130967e-01      -1.48675467e-01     9.32826819e-01      
C    5.30056292e-01      -1.18802767e+00     -8.21195482e-01     
H    1.61625582e+00      -1.15275042e+00     -7.95691886e-01     
H    1.97971880e-01      -2.12077066e+00     -3.72735312e-01     
C    4.24615515e-02      -1.09315131e+00     -2.25156801e+00     
O    -6.57774601e-01     -1.90266680e-01     -2.67196672e+00     
O    4.92986585e-01      -2.12159849e+00     -2.94723392e+00     
H    1.41662987e-01      -2.05821897e+00     -3.88313821e+00     
O    1.00623084e+00      2.05166656e+00      -1.52228971e+00     
H    5.30182854e-01      2.09558290e+00      -2.35810514e+00     
H    1.32424956e+00      2.95035315e+00      -1.39238256e+00     
O    1.07011477e+00      -6.62373586e-01     2.36826288e+00      
H    1.16818585e+00      -1.61238554e+00     2.53246080e+00      
H    1.23381106e+00      -2.10696722e-01     3.19685721e+00      
O    -2.72041254e+00     -4.27778268e-01     -4.92802741e-01     
H    -2.86901245e+00     -2.30093283e-01     -1.42138504e+00     
H    -3.54048603e+00     -2.82190086e-01     -1.58787969e-02     
O    -4.33106926e-01     -2.05053479e+00     -5.41485182e+00     
H    -6.90964335e-01     -1.24397305e+00     -5.88154189e+00     
H    -1.01457433e-01     -2.53926685e+00     -6.18410368e+00     
O    1.17413899e+00      -3.42758168e+00     2.24719792e+00      
H    5.49589677e-01      -4.00397382e+00     2.69251913e+00      
H    2.00025954e+00      -3.91521857e+00     2.22563806e+00      
26
1649.619424
N    -1.11354783e-02     -5.55127034e-02     -5.19372303e-02     
H    -1.05132649e+00     -6.33132619e-02     -8.47217350e-02     
H    3.15095268e-01      8.39924170e-01      -4.68837318e-01     
H    3.17929292e-01      -1.48252053e-01     9.33024666e-01      
C    5.30076670e-01      -1.18796445e+00     -8.21123083e-01     
H    1.61631057e+00      -1.15322169e+00     -7.95780654e-01     
H    1.98297254e-01      -2.12093908e+00     -3.72894078e-01     
C    4.24616414e-02      -1.09315187e+00     -2.25155132e+00     
O    -6.57777044e-01     -1.90246700e-01     -2.67199020e+00     
O    4.92977547e-01      -2.12162072e+00     -2.94730162e+00     
H    1.41511511e-01      -2.05814916e+00     -3.88284076e+00     
O    1.00627196e+00      2.05129145e+00      -1.52201708e+00     
H    5.31179838e-01      2.10001244e+00      -2.35856034e+00     
H    1.32243170e+00      2.95164208e+00      -1.39622193e+00     
O    1.07012222e+00      -6.62381007e-01     2.36826892e+00      
H    1.16816781e+00      -1.61241370e+00     2.53236352e+00      
H    1.23377914e+00      -2.10574082e-01     3.19679106e+00      
O    -2.72083875e+00     -4.27653191e-01     -4.92999784e-01     
H    -2.86450493e+00     -2.31126383e-01     -1.42244729e+00     
H    -3.53838609e+00     -2.83362080e-01     -1.17353444e-02     
O    -4.33154833e-01     -2.05095112e+00     -5.41321750e+00     
H    -6.86380658e-01     -1.24925676e+00     -5.89599772e+00     
H    -1.04868747e-01     -2.52738932e+00     -6.19487006e+00     
O    1.17414480e+00      -3.42761362e+00     2.24721004e+00      
H    5.49353573e-01      -4.00373441e+00     2.69248739e+00      
H    2.00040671e+00      -3.91496167e+00     2.22548140e+00      
26
1649.619424
N    -1.10181110e-02     -5.56725343e-02     -5.21232600e-02     
H    -1.05131228e+00     -6.15406478e-02     -8.32325521e-02     
H    3.14203210e-01      8.40310574e-01      -4.68241383e-01     
H    3.16727618e-01      -1.47828638e-01     9.33222514e-01      
C    5.30097048e-01      -1.18790123e+00     -8.21050684e-01     
H    1.61636533e+00      -1.15369296e+00     -7.95869423e-01     
H    1.98622629e-01      -2.12110751e+00     -3.73052845e-01     
C    4.24617313e-02      -1.09315244e+00     -2.25153463e+00     
O    -6.57779487e-01     -1.90226721e-01     -2.67201369e+00     
O    4.92968508e-01      -2.12164295e+00     -2.94736931e+00     
H    1.41360036e-01      -2.05807934e+00     -3.88254332e+00     
O    1.00631308e+00      2.05091634e+00      -1.52174445e+00     
H    5.32176822e-01      2.10444199e+00      -2.35901554e+00     
H    1.32061384e+00      2.95293101e+00      -1.40006131e+00     
O    1.07012967e+00      -6.62388429e-01     2.36827495e+00      
H    1.16814977e+00      -1.61244185e+00     2.53226625e+00      
H    1.23374723e+00      -2.10451441e-01     3.19672492e+00      
O    -2.72126495e+00     -4.27528113e-01     -4.93196826e-01     
H    -2.85999740e+00     -2.32159483e-01     -1.42350954e+00     
H    -3.53628614e+00     -2.84534074e-01     -7.59189190e-03     
O    -4.33202741e-01     -2.05136744e+00     -5.41158317e+00     
H    -6.81796980e-01     -1.25454048e+00     -5.91045356e+00     
H    -1.08280060e-01     -2.51551178e+00     -6.20563644e+00     
O    1.17415061e+00      -3.42764555e+00     2.24722215e+00      
H    5.49117468e-01      -4.00349501e+00     2.69245565e+00      
H    2.00055387e+00      -3.91470478e+00     2.22532475e+00      
26
1649.619424
N    -1.07833764e-02     -5.59921960e-02     -5.24953196e-02     
H    -1.05128387e+00     -5.79954197e-02     -8.02541863e-02     
H    3.12419095e-01      8.41083380e-01      -4.67049512e-01     
H    3.14324270e-01      -1.46981810e-01     9.33618209e-01      
C    5.30137803e-01      -1.18777479e+00     -8.20905885e-01     
H    1.61647485e+00      -1.15463550e+00     -7.96046960e-01     
H    1.99273377e-01      -2.12144435e+00     -3.73370378e-01     
C    4.24619110e-02      -1.09315357e+00     -2.25150126e+00     
O    -6.57784373e-01     -1.90186761e-01     -2.67206066e+00     
O    4.92950432e-01      -2.12168740e+00     -2.94750471e+00     
H    1.41057086e-01      -2.05793970e+00     -3.88194842e+00     
O    1.00639533e+00      2.05016612e+00      -1.52119919e+00     
H    5.34170791e-01      2.11330109e+00      -2.35992594e+00     
H    1.31697812e+00      2.95550887e+00      -1.40774005e+00     
O    1.07014456e+00      -6.62403271e-01     2.36828703e+00      
H    1.16811368e+00      -1.61249816e+00     2.53207170e+00      
H    1.23368340e+00      -2.10206159e-01     3.19659263e+00      
O    -2.72211736e+00     -4.27277958e-01     -4.93590911e-01     
H    -2.85098236e+00     -2.34225683e-01     -1.42563403e+00     
H    -3.53208625e+00     -2.86878062e-01     6.95013065e-04      
O    -4.33298555e-01     -2.05220009e+00     -5.40831452e+00     
H    -6.72629626e-01     -1.26510790e+00     -5.93936523e+00     
H    -1.15102687e-01     -2.49175671e+00     -6.22716919e+00     
O    1.17416224e+00      -3.42770942e+00     2.24724638e+00      
H    5.48645259e-01      -4.00301621e+00     2.69239218e+00      
H    2.00084820e+00      -3.91419099e+00     2.22501143e+00      
