26
1474.010641
N    -1.00157742e-02     -5.54124943e-02     -4.63662059e-02     
H    -1.04990639e+00     -6.39850353e-02     -1.17995388e-01     
H    3.02486919e-01      8.33525766e-01      -4.92797489e-01     
H    3.20688967e-01      -1.43375797e-01     9.37427049e-01      
C    5.23872077e-01      -1.18984117e+00     -8.45946345e-01     
H    1.60775350e+00      -1.17828343e+00     -7.26197025e-01     
H    2.48722752e-01      -2.10440630e+00     -3.19384907e-01     
C    4.07701012e-02      -1.07217794e+00     -2.21308344e+00     
O    -6.56433528e-01     -1.94429426e-01     -2.67604832e+00     
O    4.90339151e-01      -2.12428724e+00     -2.96101319e+00     
H    2.13241889e-01      -2.18953289e+00     -3.92748901e+00     
O    1.00634719e+00      2.05299058e+00      -1.52292521e+00     
H    5.25099693e-01      2.07974113e+00      -2.35536777e+00     
H    1.33045006e+00      2.94658089e+00      -1.38135138e+00     
O    1.06999316e+00      -6.62226364e-01     2.36807546e+00      
H    1.16952510e+00      -1.61159874e+00     2.53475877e+00      
H    1.23450515e+00      -2.13733958e-01     3.19858832e+00      
O    -2.71849312e+00     -4.28491023e-01     -4.91552847e-01     
H    -2.88788940e+00     -2.23811064e-01     -1.41632324e+00     
H    -3.55125150e+00     -2.77124317e-01     -3.62998541e-02     
O    -4.33543986e-01     -2.04728184e+00     -5.42055030e+00     
H    -7.11584421e-01     -1.22638224e+00     -5.83072263e+00     
H    -8.37027512e-02     -2.58827898e+00     -6.13682224e+00     
O    1.17410235e+00      -3.42756178e+00     2.24717503e+00      
H    5.50217561e-01      -4.00439561e+00     2.69289169e+00      
H    2.00012704e+00      -3.91531192e+00     2.22592556e+00      
26
1474.010641
N    -1.04424093e-02     -5.52377579e-02     -4.75264248e-02     
H    -1.05027917e+00     -6.60328596e-02     -1.11538453e-01     
H    3.06754078e-01      8.34642363e-01      -4.87552366e-01     
H    3.21501141e-01      -1.45124129e-01     9.36079144e-01      
C    5.25397753e-01      -1.18945102e+00     -8.39831029e-01     
H    1.60982432e+00      -1.17142891e+00     -7.43481972e-01     
H    2.35709660e-01      -2.10832896e+00     -3.32563742e-01     
C    4.11928739e-02      -1.07742072e+00     -2.22272127e+00     
O    -6.56766354e-01     -1.93408720e-01     -2.67500444e+00     
O    4.91010047e-01      -2.12359282e+00     -2.95750068e+00     
H    1.95498639e-01      -2.15677423e+00     -3.91669876e+00     
O    1.00627698e+00      2.05303468e+00      -1.52303897e+00     
H    5.25373499e-01      2.07927202e+00      -2.35559691e+00     
H    1.33071779e+00      2.94623502e+00      -1.38026980e+00     
O    1.07001612e+00      -6.62255748e-01     2.36811628e+00      
H    1.16920833e+00      -1.61176728e+00     2.53428155e+00      
H    1.23436354e+00      -2.13097290e-01     3.19822169e+00      
O    -2.71854677e+00     -4.28437912e-01     -4.91668278e-01     
H    -2.88767768e+00     -2.24348519e-01     -1.41652645e+00     
H    -3.55066008e+00     -2.77218765e-01     -3.53380423e-02     
O    -4.33386813e-01     -2.04767875e+00     -5.42076001e+00     
H    -7.11013077e-01     -1.22549622e+00     -5.82897161e+00     
H    -8.47301083e-02     -2.58790349e+00     -6.13787622e+00     
O    1.17410569e+00      -3.42753483e+00     2.24716864e+00      
H    5.50296695e-01      -4.00452956e+00     2.69283029e+00      
H    2.00001301e+00      -3.91554548e+00     2.22601034e+00      
26
1474.010641
N    -1.06557269e-02     -5.51503898e-02     -4.81065342e-02     
H    -1.05046556e+00     -6.70567717e-02     -1.08309986e-01     
H    3.08887658e-01      8.35200662e-01      -4.84929804e-01     
H    3.21907228e-01      -1.45998295e-01     9.35405191e-01      
C    5.26160591e-01      -1.18925594e+00     -8.36773371e-01     
H    1.61085973e+00      -1.16800164e+00     -7.52124445e-01     
H    2.29203114e-01      -2.11029030e+00     -3.39153159e-01     
C    4.14042602e-02      -1.08004211e+00     -2.22754018e+00     
O    -6.56932766e-01     -1.92898366e-01     -2.67448249e+00     
O    4.91345496e-01      -2.12324562e+00     -2.95574442e+00     
H    1.86627014e-01      -2.14039490e+00     -3.91130363e+00     
O    1.00624188e+00      2.05305674e+00      -1.52309584e+00     
H    5.25510402e-01      2.07903747e+00      -2.35571148e+00     
H    1.33085166e+00      2.94606209e+00      -1.37972901e+00     
O    1.07002759e+00      -6.62270440e-01     2.36813669e+00      
H    1.16904994e+00      -1.61185156e+00     2.53404294e+00      
H    1.23429274e+00      -2.12778956e-01     3.19803837e+00      
O    -2.71857360e+00     -4.28411356e-01     -4.91725994e-01     
H    -2.88757182e+00     -2.24617246e-01     -1.41662805e+00     
H    -3.55036437e+00     -2.77265989e-01     -3.48571363e-02     
O    -4.33308227e-01     -2.04787721e+00     -5.42086486e+00     
H    -7.10727405e-01     -1.22505322e+00     -5.82809610e+00     
H    -8.52437869e-02     -2.58771574e+00     -6.13840322e+00     
O    1.17410737e+00      -3.42752135e+00     2.24716544e+00      
H    5.50336261e-01      -4.00459654e+00     2.69279958e+00      
H    1.99995599e+00      -3.91566225e+00     2.22605274e+00      
26
1474.010641
N    -1.08690445e-02     -5.50630216e-02     -4.86866437e-02     
H    -1.05065195e+00     -6.80806838e-02     -1.05081519e-01     
H    3.11021238e-01      8.35758961e-01      -4.82307242e-01     
H    3.22313315e-01      -1.46872460e-01     9.34731239e-01      
C    5.26923428e-01      -1.18906086e+00     -8.33715713e-01     
H    1.61189514e+00      -1.16457438e+00     -7.60766918e-01     
H    2.22696568e-01      -2.11225163e+00     -3.45742577e-01     
C    4.16156466e-02      -1.08266350e+00     -2.23235910e+00     
O    -6.57099179e-01     -1.92388013e-01     -2.67396055e+00     
O    4.91680944e-01      -2.12289841e+00     -2.95398816e+00     
H    1.77755388e-01      -2.12401557e+00     -3.90590851e+00     
O    1.00620677e+00      2.05307879e+00      -1.52315272e+00     
H    5.25647305e-01      2.07880291e+00      -2.35582605e+00     
H    1.33098553e+00      2.94588916e+00      -1.37918822e+00     
O    1.07003907e+00      -6.62285133e-01     2.36815710e+00      
H    1.16889156e+00      -1.61193583e+00     2.53380433e+00      
H    1.23422193e+00      -2.12460622e-01     3.19785505e+00      
O    -2.71860042e+00     -4.28384800e-01     -4.91783710e-01     
H    -2.88746596e+00     -2.24885973e-01     -1.41672965e+00     
H    -3.55006866e+00     -2.77313213e-01     -3.43762304e-02     
O    -4.33229641e-01     -2.04807566e+00     -5.42096971e+00     
H    -7.10441733e-01     -1.22461021e+00     -5.82722059e+00     
H    -8.57574654e-02     -2.58752799e+00     -6.13893021e+00     
O    1.17410904e+00      -3.42750787e+00     2.24716224e+00      
H    5.50375828e-01      -4.00466352e+00     2.69276888e+00      
H    1.99989897e+00      -3.91577903e+00     2.22609513e+00      
26
1474.010641
N    -1.10823621e-02     -5.49756534e-02     -4.92667531e-02     
H    -1.05083835e+00     -6.91045959e-02     -1.01853051e-01     
H    3.13154817e-01      8.36317259e-01      -4.79684681e-01     
H    3.22719402e-01      -1.47746626e-01     9.34057286e-01      
C    5.27686266e-01      -1.18886579e+00     -8.30658055e-01     
H    1.61293055e+00      -1.16114712e+00     -7.69409391e-01     
H    2.16190021e-01      -2.11421296e+00     -3.52331994e-01     
C    4.18270329e-02      -1.08528488e+00     -2.23717801e+00     
O    -6.57265592e-01     -1.91877660e-01     -2.67343861e+00     
O    4.92016393e-01      -2.12255120e+00     -2.95223190e+00     
H    1.68883763e-01      -2.10763624e+00     -3.90051338e+00     
O    1.00617167e+00      2.05310084e+00      -1.52320960e+00     
H    5.25784208e-01      2.07856836e+00      -2.35594063e+00     
H    1.33111939e+00      2.94571623e+00      -1.37864743e+00     
O    1.07005055e+00      -6.62299825e-01     2.36817750e+00      
H    1.16873317e+00      -1.61202011e+00     2.53356573e+00      
H    1.23415113e+00      -2.12142288e-01     3.19767173e+00      
O    -2.71862725e+00     -4.28358245e-01     -4.91841425e-01     
H    -2.88736011e+00     -2.25154700e-01     -1.41683125e+00     
H    -3.54977295e+00     -2.77360438e-01     -3.38953245e-02     
O    -4.33151055e-01     -2.04827412e+00     -5.42107456e+00     
H    -7.10156060e-01     -1.22416721e+00     -5.82634507e+00     
H    -8.62711440e-02     -2.58734024e+00     -6.13945720e+00     
O    1.17411072e+00      -3.42749439e+00     2.24715905e+00      
H    5.50415395e-01      -4.00473049e+00     2.69273818e+00      
H    1.99984195e+00      -3.91589581e+00     2.22613752e+00      
26
1474.010641
N    -1.12956796e-02     -5.48882852e-02     -4.98468625e-02     
H    -1.05102474e+00     -7.01285080e-02     -9.86245840e-02     
H    3.15288397e-01      8.36875558e-01      -4.77062119e-01     
H    3.23125489e-01      -1.48620792e-01     9.33383333e-01      
C    5.28449104e-01      -1.18867071e+00     -8.27600396e-01     
H    1.61396596e+00      -1.15771986e+00     -7.78051865e-01     
H    2.09683475e-01      -2.11617429e+00     -3.58921411e-01     
C    4.20384193e-02      -1.08790627e+00     -2.24199693e+00     
O    -6.57432005e-01     -1.91367307e-01     -2.67291667e+00     
O    4.92351841e-01      -2.12220399e+00     -2.95047565e+00     
H    1.60012138e-01      -2.09125691e+00     -3.89511825e+00     
O    1.00613656e+00      2.05312289e+00      -1.52326648e+00     
H    5.25921111e-01      2.07833381e+00      -2.35605520e+00     
H    1.33125326e+00      2.94554329e+00      -1.37810664e+00     
O    1.07006203e+00      -6.62314517e-01     2.36819791e+00      
H    1.16857479e+00      -1.61210438e+00     2.53332712e+00      
H    1.23408032e+00      -2.11823954e-01     3.19748842e+00      
O    -2.71865407e+00     -4.28331689e-01     -4.91899141e-01     
H    -2.88725425e+00     -2.25423428e-01     -1.41693285e+00     
H    -3.54947724e+00     -2.77407662e-01     -3.34144186e-02     
O    -4.33072468e-01     -2.04847258e+00     -5.42117942e+00     
H    -7.09870388e-01     -1.22372420e+00     -5.82546956e+00     
H    -8.67848226e-02     -2.58715250e+00     -6.13998419e+00     
O    1.17411239e+00      -3.42748091e+00     2.24715585e+00      
H    5.50454962e-01      -4.00479747e+00     2.69270748e+00      
H    1.99978493e+00      -3.91601259e+00     2.22617991e+00      
26
1474.010641
N    -1.14023384e-02     -5.48446012e-02     -5.01369172e-02     
H    -1.05111793e+00     -7.06404640e-02     -9.70103503e-02     
H    3.16355187e-01      8.37154707e-01      -4.75750838e-01     
H    3.23328533e-01      -1.49057875e-01     9.33046357e-01      
C    5.28830523e-01      -1.18857317e+00     -8.26071567e-01     
H    1.61448366e+00      -1.15600622e+00     -7.82373101e-01     
H    2.06430202e-01      -2.11715496e+00     -3.62216120e-01     
C    4.21441125e-02      -1.08921697e+00     -2.24440639e+00     
O    -6.57515211e-01     -1.91112130e-01     -2.67265569e+00     
O    4.92519565e-01      -2.12203039e+00     -2.94959752e+00     
H    1.55576326e-01      -2.08306725e+00     -3.89242069e+00     
O    1.00611901e+00      2.05313392e+00      -1.52329491e+00     
H    5.25989562e-01      2.07821653e+00      -2.35611248e+00     
H    1.33132019e+00      2.94545683e+00      -1.37783624e+00     
O    1.07006776e+00      -6.62321863e-01     2.36820812e+00      
H    1.16849560e+00      -1.61214652e+00     2.53320781e+00      
H    1.23404492e+00      -2.11664787e-01     3.19739676e+00      
O    -2.71866748e+00     -4.28318411e-01     -4.91927999e-01     
H    -2.88720132e+00     -2.25557791e-01     -1.41698365e+00     
H    -3.54932938e+00     -2.77431274e-01     -3.31739657e-02     
O    -4.33033175e-01     -2.04857181e+00     -5.42123184e+00     
H    -7.09727552e-01     -1.22350270e+00     -5.82503181e+00     
H    -8.70416619e-02     -2.58705862e+00     -6.14024769e+00     
O    1.17411323e+00      -3.42747417e+00     2.24715425e+00      
H    5.50474746e-01      -4.00483096e+00     2.69269212e+00      
H    1.99975642e+00      -3.91607097e+00     2.22620111e+00      
26
1474.010641
N    -1.15089972e-02     -5.48009171e-02     -5.04269720e-02     
H    -1.05121113e+00     -7.11524201e-02     -9.53961167e-02     
H    3.17421976e-01      8.37433856e-01      -4.74439558e-01     
H    3.23531576e-01      -1.49494958e-01     9.32709381e-01      
C    5.29211942e-01      -1.18847564e+00     -8.24542738e-01     
H    1.61500137e+00      -1.15429259e+00     -7.86694338e-01     
H    2.03176929e-01      -2.11813563e+00     -3.65510829e-01     
C    4.22498056e-02      -1.09052766e+00     -2.24681584e+00     
O    -6.57598417e-01     -1.90856953e-01     -2.67239472e+00     
O    4.92687290e-01      -2.12185679e+00     -2.94871939e+00     
H    1.51140513e-01      -2.07487758e+00     -3.88972313e+00     
O    1.00610146e+00      2.05314495e+00      -1.52332335e+00     
H    5.26058014e-01      2.07809925e+00      -2.35616977e+00     
H    1.33138712e+00      2.94537036e+00      -1.37756585e+00     
O    1.07007350e+00      -6.62329209e-01     2.36821832e+00      
H    1.16841640e+00      -1.61218866e+00     2.53308851e+00      
H    1.23400952e+00      -2.11505620e-01     3.19730510e+00      
O    -2.71868090e+00     -4.28305134e-01     -4.91956856e-01     
H    -2.88714839e+00     -2.25692155e-01     -1.41703445e+00     
H    -3.54918153e+00     -2.77454886e-01     -3.29335127e-02     
O    -4.32993882e-01     -2.04867103e+00     -5.42128427e+00     
H    -7.09584716e-01     -1.22328120e+00     -5.82459405e+00     
H    -8.72985011e-02     -2.58696475e+00     -6.14051119e+00     
O    1.17411407e+00      -3.42746743e+00     2.24715266e+00      
H    5.50494529e-01      -4.00486444e+00     2.69267677e+00      
H    1.99972791e+00      -3.91612936e+00     2.22622231e+00      
26
1474.010641
N    -1.19356324e-02     -5.46261807e-02     -5.15871908e-02     
H    -1.05158391e+00     -7.32002443e-02     -8.89391821e-02     
H    3.21689136e-01      8.38550454e-01      -4.69194434e-01     
H    3.24343750e-01      -1.51243290e-01     9.31361475e-01      
C    5.30737618e-01      -1.18808548e+00     -8.18427422e-01     
H    1.61707219e+00      -1.14743807e+00     -8.03979284e-01     
H    1.90163837e-01      -2.12205829e+00     -3.78689663e-01     
C    4.26725784e-02      -1.09577044e+00     -2.25645368e+00     
O    -6.57931243e-01     -1.89836247e-01     -2.67135084e+00     
O    4.93358186e-01      -2.12116237e+00     -2.94520687e+00     
H    1.33397263e-01      -2.04211892e+00     -3.87893287e+00     
O    1.00603124e+00      2.05318905e+00      -1.52343711e+00     
H    5.26331820e-01      2.07763015e+00      -2.35639891e+00     
H    1.33165486e+00      2.94502450e+00      -1.37648427e+00     
O    1.07009646e+00      -6.62358593e-01     2.36825914e+00      
H    1.16809964e+00      -1.61235720e+00     2.53261129e+00      
H    1.23386790e+00      -2.10868952e-01     3.19693846e+00      
O    -2.71873454e+00     -4.28252022e-01     -4.92072288e-01     
H    -2.88693667e+00     -2.26229609e-01     -1.41723765e+00     
H    -3.54859011e+00     -2.77549334e-01     -3.19717009e-02     
O    -4.32836710e-01     -2.04906795e+00     -5.42149397e+00     
H    -7.09013372e-01     -1.22239518e+00     -5.82284303e+00     
H    -8.83258583e-02     -2.58658925e+00     -6.14156517e+00     
O    1.17411741e+00      -3.42744047e+00     2.24714626e+00      
H    5.50573663e-01      -4.00499840e+00     2.69261537e+00      
H    1.99961387e+00      -3.91636292e+00     2.22630709e+00      
26
1474.010641
N    -1.20422912e-02     -5.45824966e-02     -5.18772456e-02     
H    -1.05167711e+00     -7.37122004e-02     -8.73249485e-02     
H    3.22755925e-01      8.38829603e-01      -4.67883154e-01     
H    3.24546793e-01      -1.51680373e-01     9.31024499e-01      
C    5.31119037e-01      -1.18798795e+00     -8.16898593e-01     
H    1.61758990e+00      -1.14572444e+00     -8.08300521e-01     
H    1.86910564e-01      -2.12303896e+00     -3.81984372e-01     
C    4.27782715e-02      -1.09708113e+00     -2.25886313e+00     
O    -6.58014449e-01     -1.89581070e-01     -2.67108987e+00     
O    4.93525911e-01      -2.12098877e+00     -2.94432874e+00     
H    1.28961450e-01      -2.03392925e+00     -3.87623531e+00     
O    1.00601369e+00      2.05320008e+00      -1.52346555e+00     
H    5.26400272e-01      2.07751287e+00      -2.35645620e+00     
H    1.33172179e+00      2.94493803e+00      -1.37621388e+00     
O    1.07010220e+00      -6.62365939e-01     2.36826934e+00      
H    1.16802044e+00      -1.61239934e+00     2.53249199e+00      
H    1.23383250e+00      -2.10709785e-01     3.19684680e+00      
O    -2.71874796e+00     -4.28238745e-01     -4.92101145e-01     
H    -2.88688374e+00     -2.26363973e-01     -1.41728845e+00     
H    -3.54844226e+00     -2.77572946e-01     -3.17312479e-02     
O    -4.32797417e-01     -2.04916717e+00     -5.42154640e+00     
H    -7.08870536e-01     -1.22217368e+00     -5.82240527e+00     
H    -8.85826975e-02     -2.58649538e+00     -6.14182867e+00     
O    1.17411825e+00      -3.42743373e+00     2.24714467e+00      
H    5.50593446e-01      -4.00503188e+00     2.69260002e+00      
H    1.99958536e+00      -3.91642131e+00     2.22632829e+00      
26
1474.010641
N    -1.21489500e-02     -5.45388126e-02     -5.21673003e-02     
H    -1.05177030e+00     -7.42241564e-02     -8.57107148e-02     
H    3.23822715e-01      8.39108752e-01      -4.66571873e-01     
H    3.24749837e-01      -1.52117456e-01     9.30687523e-01      
C    5.31500456e-01      -1.18789041e+00     -8.15369764e-01     
H    1.61810760e+00      -1.14401080e+00     -8.12621757e-01     
H    1.83657291e-01      -2.12401963e+00     -3.85279081e-01     
C    4.28839647e-02      -1.09839183e+00     -2.26127259e+00     
O    -6.58097655e-01     -1.89325893e-01     -2.67082889e+00     
O    4.93693635e-01      -2.12081517e+00     -2.94345061e+00     
H    1.24525638e-01      -2.02573959e+00     -3.87353775e+00     
O    1.00599614e+00      2.05321111e+00      -1.52349398e+00     
H    5.26468723e-01      2.07739559e+00      -2.35651348e+00     
H    1.33178872e+00      2.94485157e+00      -1.37594348e+00     
O    1.07010793e+00      -6.62373285e-01     2.36827955e+00      
H    1.16794125e+00      -1.61244148e+00     2.53237268e+00      
H    1.23379710e+00      -2.10550618e-01     3.19675514e+00      
O    -2.71876137e+00     -4.28225467e-01     -4.92130003e-01     
H    -2.88683081e+00     -2.26498336e-01     -1.41733925e+00     
H    -3.54829440e+00     -2.77596558e-01     -3.14907950e-02     
O    -4.32758124e-01     -2.04926640e+00     -5.42159882e+00     
H    -7.08727700e-01     -1.22195218e+00     -5.82196752e+00     
H    -8.88395368e-02     -2.58640150e+00     -6.14209217e+00     
O    1.17411909e+00      -3.42742699e+00     2.24714307e+00      
H    5.50613230e-01      -4.00506537e+00     2.69258466e+00      
H    1.99955685e+00      -3.91647969e+00     2.22634949e+00      
26
1474.010641
N    -1.23622675e-02     -5.44514444e-02     -5.27474097e-02     
H    -1.05195669e+00     -7.52480685e-02     -8.24822476e-02     
H    3.25956295e-01      8.39667051e-01      -4.63949311e-01     
H    3.25155924e-01      -1.52991622e-01     9.30013570e-01      
C    5.32263294e-01      -1.18769533e+00     -8.12312105e-01     
H    1.61914301e+00      -1.14058354e+00     -8.21264231e-01     
H    1.77150745e-01      -2.12598096e+00     -3.91868498e-01     
C    4.30953511e-02      -1.10101322e+00     -2.26609151e+00     
O    -6.58264068e-01     -1.88815540e-01     -2.67030695e+00     
O    4.94029083e-01      -2.12046796e+00     -2.94169436e+00     
H    1.15654013e-01      -2.00936026e+00     -3.86814262e+00     
O    1.00596103e+00      2.05323316e+00      -1.52355086e+00     
H    5.26605626e-01      2.07716104e+00      -2.35662805e+00     
H    1.33192259e+00      2.94467863e+00      -1.37540269e+00     
O    1.07011941e+00      -6.62387977e-01     2.36829996e+00      
H    1.16778287e+00      -1.61252575e+00     2.53213407e+00      
H    1.23372629e+00      -2.10232284e-01     3.19657183e+00      
O    -2.71878819e+00     -4.28198911e-01     -4.92187719e-01     
H    -2.88672495e+00     -2.26767064e-01     -1.41744085e+00     
H    -3.54799869e+00     -2.77643782e-01     -3.10098891e-02     
O    -4.32679537e-01     -2.04946486e+00     -5.42170368e+00     
H    -7.08442028e-01     -1.22150917e+00     -5.82109201e+00     
H    -8.93532154e-02     -2.58621376e+00     -6.14261916e+00     
O    1.17412076e+00      -3.42741351e+00     2.24713987e+00      
H    5.50652797e-01      -4.00513235e+00     2.69255396e+00      
H    1.99949983e+00      -3.91659647e+00     2.22639188e+00      
26
1474.010641
N    -1.25755851e-02     -5.43640762e-02     -5.33275191e-02     
H    -1.05214309e+00     -7.62719806e-02     -7.92537803e-02     
H    3.28089874e-01      8.40225349e-01      -4.61326750e-01     
H    3.25562011e-01      -1.53865788e-01     9.29339617e-01      
C    5.33026132e-01      -1.18750026e+00     -8.09254447e-01     
H    1.62017842e+00      -1.13715628e+00     -8.29906704e-01     
H    1.70644198e-01      -2.12794229e+00     -3.98457915e-01     
C    4.33067374e-02      -1.10363460e+00     -2.27091042e+00     
O    -6.58430481e-01     -1.88305187e-01     -2.66978501e+00     
O    4.94364532e-01      -2.12012075e+00     -2.93993810e+00     
H    1.06782388e-01      -1.99298093e+00     -3.86274749e+00     
O    1.00592593e+00      2.05325521e+00      -1.52360774e+00     
H    5.26742529e-01      2.07692649e+00      -2.35674263e+00     
H    1.33205645e+00      2.94450570e+00      -1.37486190e+00     
O    1.07013089e+00      -6.62402669e-01     2.36832036e+00      
H    1.16762448e+00      -1.61261003e+00     2.53189547e+00      
H    1.23365549e+00      -2.09913950e-01     3.19638851e+00      
O    -2.71881502e+00     -4.28172356e-01     -4.92245434e-01     
H    -2.88661910e+00     -2.27035791e-01     -1.41754245e+00     
H    -3.54770298e+00     -2.77691007e-01     -3.05289832e-02     
O    -4.32600951e-01     -2.04966332e+00     -5.42180853e+00     
H    -7.08156355e-01     -1.22106617e+00     -5.82021649e+00     
H    -8.98668940e-02     -2.58602601e+00     -6.14314615e+00     
O    1.17412244e+00      -3.42740003e+00     2.24713668e+00      
H    5.50692364e-01      -4.00519932e+00     2.69252326e+00      
H    1.99944281e+00      -3.91671325e+00     2.22643427e+00      
26
1474.010641
N    -1.27889027e-02     -5.42767080e-02     -5.39076286e-02     
H    -1.05232948e+00     -7.72958927e-02     -7.60253130e-02     
H    3.30223454e-01      8.40783648e-01      -4.58704188e-01     
H    3.25968098e-01      -1.54739953e-01     9.28665665e-01      
C    5.33788969e-01      -1.18730518e+00     -8.06196789e-01     
H    1.62121383e+00      -1.13372902e+00     -8.38549177e-01     
H    1.64137652e-01      -2.12990362e+00     -4.05047333e-01     
C    4.35181238e-02      -1.10625599e+00     -2.27572934e+00     
O    -6.58596894e-01     -1.87794834e-01     -2.66926307e+00     
O    4.94699980e-01      -2.11977354e+00     -2.93818184e+00     
H    9.79107624e-02      -1.97660160e+00     -3.85735237e+00     
O    1.00589082e+00      2.05327726e+00      -1.52366462e+00     
H    5.26879432e-01      2.07669193e+00      -2.35685720e+00     
H    1.33219032e+00      2.94433277e+00      -1.37432111e+00     
O    1.07014237e+00      -6.62417362e-01     2.36834077e+00      
H    1.16746610e+00      -1.61269430e+00     2.53165686e+00      
H    1.23358468e+00      -2.09595616e-01     3.19620519e+00      
O    -2.71884184e+00     -4.28145800e-01     -4.92303150e-01     
H    -2.88651324e+00     -2.27304518e-01     -1.41764405e+00     
H    -3.54740727e+00     -2.77738231e-01     -3.00480773e-02     
O    -4.32522365e-01     -2.04986177e+00     -5.42191338e+00     
H    -7.07870683e-01     -1.22062316e+00     -5.81934098e+00     
H    -9.03805725e-02     -2.58583826e+00     -6.14367314e+00     
O    1.17412411e+00      -3.42738655e+00     2.24713348e+00      
H    5.50731931e-01      -4.00526630e+00     2.69249256e+00      
H    1.99938579e+00      -3.91683003e+00     2.22647666e+00      
26
1474.010641
N    -1.30022203e-02     -5.41893399e-02     -5.44877380e-02     
H    -1.05251587e+00     -7.83198048e-02     -7.27968457e-02     
H    3.32357034e-01      8.41341947e-01      -4.56081626e-01     
H    3.26374185e-01      -1.55614119e-01     9.27991712e-01      
C    5.34551807e-01      -1.18711010e+00     -8.03139131e-01     
H    1.62224924e+00      -1.13030175e+00     -8.47191650e-01     
H    1.57631106e-01      -2.13186496e+00     -4.11636750e-01     
C    4.37295101e-02      -1.10887738e+00     -2.28054825e+00     
O    -6.58763306e-01     -1.87284480e-01     -2.66874112e+00     
O    4.95035429e-01      -2.11942634e+00     -2.93642558e+00     
H    8.90391373e-02      -1.96022227e+00     -3.85195724e+00     
O    1.00585572e+00      2.05329932e+00      -1.52372149e+00     
H    5.27016335e-01      2.07645738e+00      -2.35697177e+00     
H    1.33232419e+00      2.94415984e+00      -1.37378032e+00     
O    1.07015384e+00      -6.62432054e-01     2.36836118e+00      
H    1.16730771e+00      -1.61277858e+00     2.53141825e+00      
H    1.23351388e+00      -2.09277282e-01     3.19602187e+00      
O    -2.71886867e+00     -4.28119244e-01     -4.92360866e-01     
H    -2.88640738e+00     -2.27573245e-01     -1.41774565e+00     
H    -3.54711156e+00     -2.77785455e-01     -2.95671713e-02     
O    -4.32443779e-01     -2.05006023e+00     -5.42201823e+00     
H    -7.07585011e-01     -1.22018016e+00     -5.81846547e+00     
H    -9.08942511e-02     -2.58565051e+00     -6.14420014e+00     
O    1.17412579e+00      -3.42737307e+00     2.24713028e+00      
H    5.50771497e-01      -4.00533328e+00     2.69246185e+00      
H    1.99932877e+00      -3.91694680e+00     2.22651906e+00      
26
1474.010641
N    -1.34288554e-02     -5.40146035e-02     -5.56479569e-02     
H    -1.05288865e+00     -8.03676291e-02     -6.63399112e-02     
H    3.36624193e-01      8.42458544e-01      -4.50836503e-01     
H    3.27186359e-01      -1.57362451e-01     9.26643807e-01      
C    5.36077483e-01      -1.18671995e+00     -7.97023815e-01     
H    1.62432006e+00      -1.12344723e+00     -8.64476597e-01     
H    1.44618014e-01      -2.13578762e+00     -4.24815585e-01     
C    4.41522828e-02      -1.11412016e+00     -2.29018608e+00     
O    -6.59096132e-01     -1.86263774e-01     -2.66769724e+00     
O    4.95706325e-01      -2.11873192e+00     -2.93291307e+00     
H    7.12958870e-02      -1.92746361e+00     -3.84116699e+00     
O    1.00578551e+00      2.05334342e+00      -1.52383525e+00     
H    5.27290141e-01      2.07598827e+00      -2.35720091e+00     
H    1.33259192e+00      2.94381397e+00      -1.37269874e+00     
O    1.07017680e+00      -6.62461438e-01     2.36840200e+00      
H    1.16699094e+00      -1.61294712e+00     2.53094103e+00      
H    1.23337227e+00      -2.08640614e-01     3.19565524e+00      
O    -2.71892232e+00     -4.28066133e-01     -4.92476297e-01     
H    -2.88619566e+00     -2.28110700e-01     -1.41794886e+00     
H    -3.54652014e+00     -2.77879903e-01     -2.86053595e-02     
O    -4.32286606e-01     -2.05045714e+00     -5.42222794e+00     
H    -7.07013667e-01     -1.21929414e+00     -5.81671445e+00     
H    -9.19216082e-02     -2.58527502e+00     -6.14525412e+00     
O    1.17412913e+00      -3.42734612e+00     2.24712389e+00      
H    5.50850631e-01      -4.00546723e+00     2.69240045e+00      
H    1.99921474e+00      -3.91718036e+00     2.22660384e+00      
