26
1707.265690
N    -1.62963684e-02     -6.05997466e-02     -4.87735847e-02     
H    -1.05659471e+00     -5.15045445e-02     -1.94804839e-01     
H    3.03086091e-01      8.70830651e-01      -3.86221176e-01     
H    4.39762610e-01      -8.31836695e-02     8.99730323e-01      
C    5.28351913e-01      -1.19025074e+00     -8.19400885e-01     
H    1.61348647e+00      -1.14737576e+00     -8.00858213e-01     
H    1.97096063e-01      -2.12592555e+00     -3.74465566e-01     
C    4.31429880e-02      -1.09341909e+00     -2.25180422e+00     
O    -6.57772399e-01     -1.89942125e-01     -2.67209664e+00     
O    4.92939329e-01      -2.12143508e+00     -2.94694437e+00     
H    1.42275630e-01      -2.05950072e+00     -3.88432059e+00     
O    1.00583525e+00      2.05249700e+00      -1.52364135e+00     
H    5.28033480e-01      2.08139190e+00      -2.35735305e+00     
H    1.33039952e+00      2.94499597e+00      -1.37633430e+00     
O    1.06924190e+00      -6.62332067e-01     2.36694243e+00      
H    1.17342523e+00      -1.60872734e+00     2.55019494e+00      
H    1.23458791e+00      -2.22624833e-01     3.20264607e+00      
O    -2.72049210e+00     -4.28006316e-01     -4.91903520e-01     
H    -2.86795767e+00     -2.27689105e-01     -1.42067655e+00     
H    -3.54398319e+00     -2.82746167e-01     -2.06223465e-02     
O    -4.32913625e-01     -2.04884682e+00     -5.42147834e+00     
H    -7.09550804e-01     -1.22263299e+00     -5.82310903e+00     
H    -8.76329101e-02     -2.58730596e+00     -6.14060987e+00     
O    1.17391851e+00      -3.42675597e+00     2.24682278e+00      
H    5.55867393e-01      -4.01006721e+00     2.69366605e+00      
H    1.99652239e+00      -3.92105782e+00     2.22963081e+00      
26
1707.265690
N    -1.51528550e-02     -5.91281972e-02     -4.93319589e-02     
H    -1.05529541e+00     -5.66724914e-02     -1.69145542e-01     
H    3.07203457e-01      8.62621027e-01      -4.07620131e-01     
H    4.10806373e-01      -9.99800331e-02     9.07806599e-01      
C    5.28757630e-01      -1.18975819e+00     -8.19921934e-01     
H    1.61412404e+00      -1.14824815e+00     -7.99477862e-01     
H    1.96989643e-01      -2.12446840e+00     -3.73874236e-01     
C    4.29725390e-02      -1.09335158e+00     -2.25176186e+00     
O    -6.57770507e-01     -1.90043244e-01     -2.67204068e+00     
O    4.92960181e-01      -2.12145371e+00     -2.94694906e+00     
H    1.42273945e-01      -2.05925010e+00     -3.88432245e+00     
O    1.00589303e+00      2.05266450e+00      -1.52357607e+00     
H    5.27573839e-01      2.08051010e+00      -2.35708588e+00     
H    1.33067989e+00      2.94504634e+00      -1.37650699e+00     
O    1.06945267e+00      -6.62335026e-01     2.36726651e+00      
H    1.17213343e+00      -1.60961374e+00     2.54585868e+00      
H    1.23442561e+00      -2.19765446e-01     3.20126500e+00      
O    -2.72004600e+00     -4.28074382e-01     -4.91931283e-01     
H    -2.87272888e+00     -2.27257049e-01     -1.41979143e+00     
H    -3.54520885e+00     -2.81435152e-01     -2.35799116e-02     
O    -4.32914043e-01     -2.04885249e+00     -5.42145603e+00     
H    -7.09487864e-01     -1.22268429e+00     -5.82326140e+00     
H    -8.76777275e-02     -2.58717372e+00     -6.14071695e+00     
O    1.17396782e+00      -3.42693047e+00     2.24690445e+00      
H    5.54534068e-01      -4.00878326e+00     2.69341105e+00      
H    1.99730951e+00      -3.91985490e+00     2.22878928e+00      
26
1707.265690
N    -1.45810983e-02     -5.83924225e-02     -4.96111460e-02     
H    -1.05464576e+00     -5.92564649e-02     -1.56315893e-01     
H    3.09262140e-01      8.58516215e-01      -4.18319608e-01     
H    3.96328255e-01      -1.08378215e-01     9.11844737e-01      
C    5.28960488e-01      -1.18951192e+00     -8.20182458e-01     
H    1.61444283e+00      -1.14868435e+00     -7.98787687e-01     
H    1.96936433e-01      -2.12373983e+00     -3.73578571e-01     
C    4.28873145e-02      -1.09331783e+00     -2.25174067e+00     
O    -6.57769561e-01     -1.90093803e-01     -2.67201269e+00     
O    4.92970607e-01      -2.12146302e+00     -2.94695141e+00     
H    1.42273102e-01      -2.05912480e+00     -3.88432337e+00     
O    1.00592191e+00      2.05274825e+00      -1.52354343e+00     
H    5.27344019e-01      2.08006920e+00      -2.35695229e+00     
H    1.33082007e+00      2.94507152e+00      -1.37659333e+00     
O    1.06955805e+00      -6.62336505e-01     2.36742854e+00      
H    1.17148753e+00      -1.61005693e+00     2.54369055e+00      
H    1.23434446e+00      -2.18335753e-01     3.20057446e+00      
O    -2.71982296e+00     -4.28108414e-01     -4.91945165e-01     
H    -2.87511449e+00     -2.27041021e-01     -1.41934886e+00     
H    -3.54582168e+00     -2.80779645e-01     -2.50586941e-02     
O    -4.32914251e-01     -2.04885532e+00     -5.42144488e+00     
H    -7.09456394e-01     -1.22270994e+00     -5.82333759e+00     
H    -8.77001362e-02     -2.58710760e+00     -6.14077049e+00     
O    1.17399247e+00      -3.42701771e+00     2.24694529e+00      
H    5.53867406e-01      -4.00814129e+00     2.69328356e+00      
H    1.99770307e+00      -3.91925344e+00     2.22836852e+00      
26
1707.265690
N    -1.40093416e-02     -5.76566478e-02     -4.98903331e-02     
H    -1.05399611e+00     -6.18404383e-02     -1.43486244e-01     
H    3.11320823e-01      8.54411403e-01      -4.29019086e-01     
H    3.81850136e-01      -1.16776397e-01     9.15882876e-01      
C    5.29163346e-01      -1.18926565e+00     -8.20442982e-01     
H    1.61476162e+00      -1.14912054e+00     -7.98097512e-01     
H    1.96883223e-01      -2.12301126e+00     -3.73282906e-01     
C    4.28020900e-02      -1.09328407e+00     -2.25171949e+00     
O    -6.57768615e-01     -1.90144363e-01     -2.67198471e+00     
O    4.92981033e-01      -2.12147233e+00     -2.94695375e+00     
H    1.42272259e-01      -2.05899949e+00     -3.88432430e+00     
O    1.00595080e+00      2.05283200e+00      -1.52351079e+00     
H    5.27114198e-01      2.07962830e+00      -2.35681870e+00     
H    1.33096025e+00      2.94509670e+00      -1.37667968e+00     
O    1.06966344e+00      -6.62337984e-01     2.36759058e+00      
H    1.17084163e+00      -1.61050013e+00     2.54152242e+00      
H    1.23426331e+00      -2.16906059e-01     3.19988393e+00      
O    -2.71959991e+00     -4.28142447e-01     -4.91959046e-01     
H    -2.87750010e+00     -2.26824993e-01     -1.41890630e+00     
H    -3.54643451e+00     -2.80124138e-01     -2.65374766e-02     
O    -4.32914460e-01     -2.04885816e+00     -5.42143373e+00     
H    -7.09424924e-01     -1.22273559e+00     -5.82341378e+00     
H    -8.77225449e-02     -2.58704148e+00     -6.14082403e+00     
O    1.17401712e+00      -3.42710496e+00     2.24698612e+00      
H    5.53200744e-01      -4.00749932e+00     2.69315606e+00      
H    1.99809664e+00      -3.91865198e+00     2.22794776e+00      
26
1707.265690
N    -1.34375849e-02     -5.69208730e-02     -5.01695201e-02     
H    -1.05334646e+00     -6.44244118e-02     -1.30656596e-01     
H    3.13379507e-01      8.50306591e-01      -4.39718563e-01     
H    3.67372018e-01      -1.25174579e-01     9.19921014e-01      
C    5.29366205e-01      -1.18901938e+00     -8.20703507e-01     
H    1.61508041e+00      -1.14955674e+00     -7.97407337e-01     
H    1.96830013e-01      -2.12228268e+00     -3.72987241e-01     
C    4.27168655e-02      -1.09325032e+00     -2.25169831e+00     
O    -6.57767669e-01     -1.90194922e-01     -2.67195673e+00     
O    4.92991460e-01      -2.12148164e+00     -2.94695610e+00     
H    1.42271416e-01      -2.05887418e+00     -3.88432522e+00     
O    1.00597969e+00      2.05291575e+00      -1.52347815e+00     
H    5.26884378e-01      2.07918740e+00      -2.35668511e+00     
H    1.33110044e+00      2.94512188e+00      -1.37676602e+00     
O    1.06976882e+00      -6.62339463e-01     2.36775262e+00      
H    1.17019572e+00      -1.61094333e+00     2.53935429e+00      
H    1.23418216e+00      -2.15476366e-01     3.19919339e+00      
O    -2.71937686e+00     -4.28176480e-01     -4.91972928e-01     
H    -2.87988571e+00     -2.26608966e-01     -1.41846374e+00     
H    -3.54704734e+00     -2.79468631e-01     -2.80162592e-02     
O    -4.32914669e-01     -2.04886099e+00     -5.42142258e+00     
H    -7.09393454e-01     -1.22276124e+00     -5.82348997e+00     
H    -8.77449536e-02     -2.58697536e+00     -6.14087756e+00     
O    1.17404178e+00      -3.42719221e+00     2.24702696e+00      
H    5.52534082e-01      -4.00685734e+00     2.69302856e+00      
H    1.99849020e+00      -3.91805052e+00     2.22752699e+00      
26
1707.265690
N    -1.28658282e-02     -5.61850983e-02     -5.04487072e-02     
H    -1.05269682e+00     -6.70083853e-02     -1.17826947e-01     
H    3.15438190e-01      8.46201779e-01      -4.50418041e-01     
H    3.52893900e-01      -1.33572760e-01     9.23959152e-01      
C    5.29569063e-01      -1.18877310e+00     -8.20964031e-01     
H    1.61539920e+00      -1.14999294e+00     -7.96717161e-01     
H    1.96776803e-01      -2.12155411e+00     -3.72691576e-01     
C    4.26316410e-02      -1.09321656e+00     -2.25167713e+00     
O    -6.57766722e-01     -1.90245481e-01     -2.67192875e+00     
O    4.93001886e-01      -2.12149096e+00     -2.94695844e+00     
H    1.42270574e-01      -2.05874887e+00     -3.88432615e+00     
O    1.00600858e+00      2.05299950e+00      -1.52344551e+00     
H    5.26654558e-01      2.07874650e+00      -2.35655152e+00     
H    1.33124062e+00      2.94514707e+00      -1.37685237e+00     
O    1.06987421e+00      -6.62340943e-01     2.36791466e+00      
H    1.16954982e+00      -1.61138653e+00     2.53718616e+00      
H    1.23410101e+00      -2.14046673e-01     3.19850285e+00      
O    -2.71915381e+00     -4.28210513e-01     -4.91986809e-01     
H    -2.88227131e+00     -2.26392938e-01     -1.41802118e+00     
H    -3.54766016e+00     -2.78813124e-01     -2.94950417e-02     
O    -4.32914878e-01     -2.04886382e+00     -5.42141142e+00     
H    -7.09361984e-01     -1.22278689e+00     -5.82356616e+00     
H    -8.77673623e-02     -2.58690924e+00     -6.14093110e+00     
O    1.17406643e+00      -3.42727946e+00     2.24706779e+00      
H    5.51867420e-01      -4.00621537e+00     2.69290106e+00      
H    1.99888376e+00      -3.91744906e+00     2.22710623e+00      
26
1707.265690
N    -1.25799498e-02     -5.58172110e-02     -5.05883008e-02     
H    -1.05237199e+00     -6.83003720e-02     -1.11412123e-01     
H    3.16467531e-01      8.44149373e-01      -4.55767780e-01     
H    3.45654841e-01      -1.37771851e-01     9.25978221e-01      
C    5.29670492e-01      -1.18864997e+00     -8.21094293e-01     
H    1.61555860e+00      -1.15021104e+00     -7.96372074e-01     
H    1.96750198e-01      -2.12118982e+00     -3.72543743e-01     
C    4.25890287e-02      -1.09319968e+00     -2.25166653e+00     
O    -6.57766249e-01     -1.90270761e-01     -2.67191475e+00     
O    4.93007099e-01      -2.12149561e+00     -2.94695961e+00     
H    1.42270152e-01      -2.05868621e+00     -3.88432661e+00     
O    1.00602302e+00      2.05304138e+00      -1.52342919e+00     
H    5.26539647e-01      2.07852605e+00      -2.35648472e+00     
H    1.33131071e+00      2.94515966e+00      -1.37689554e+00     
O    1.06992690e+00      -6.62341682e-01     2.36799567e+00      
H    1.16922687e+00      -1.61160813e+00     2.53610210e+00      
H    1.23406044e+00      -2.13331826e-01     3.19815759e+00      
O    -2.71904229e+00     -4.28227529e-01     -4.91993750e-01     
H    -2.88346412e+00     -2.26284924e-01     -1.41779989e+00     
H    -3.54796658e+00     -2.78485371e-01     -3.02344330e-02     
O    -4.32914983e-01     -2.04886524e+00     -5.42140585e+00     
H    -7.09346249e-01     -1.22279972e+00     -5.82360426e+00     
H    -8.77785666e-02     -2.58687618e+00     -6.14095787e+00     
O    1.17407876e+00      -3.42732308e+00     2.24708821e+00      
H    5.51534089e-01      -4.00589438e+00     2.69283732e+00      
H    1.99908055e+00      -3.91714833e+00     2.22689585e+00      
26
1707.265690
N    -1.22940715e-02     -5.54493236e-02     -5.07278943e-02     
H    -1.05204717e+00     -6.95923587e-02     -1.04997298e-01     
H    3.17496873e-01      8.42096967e-01      -4.61117518e-01     
H    3.38415781e-01      -1.41970942e-01     9.27997290e-01      
C    5.29771922e-01      -1.18852683e+00     -8.21224556e-01     
H    1.61571799e+00      -1.15042913e+00     -7.96026986e-01     
H    1.96723593e-01      -2.12082553e+00     -3.72395911e-01     
C    4.25464165e-02      -1.09318281e+00     -2.25165594e+00     
O    -6.57765776e-01     -1.90296041e-01     -2.67190076e+00     
O    4.93012312e-01      -2.12150027e+00     -2.94696079e+00     
H    1.42269731e-01      -2.05862356e+00     -3.88432707e+00     
O    1.00603746e+00      2.05308325e+00      -1.52341287e+00     
H    5.26424737e-01      2.07830560e+00      -2.35641793e+00     
H    1.33138081e+00      2.94517225e+00      -1.37693871e+00     
O    1.06997959e+00      -6.62342422e-01     2.36807669e+00      
H    1.16890392e+00      -1.61182973e+00     2.53501803e+00      
H    1.23401986e+00      -2.12616979e-01     3.19781232e+00      
O    -2.71893077e+00     -4.28244545e-01     -4.92000691e-01     
H    -2.88465692e+00     -2.26176910e-01     -1.41757861e+00     
H    -3.54827299e+00     -2.78157617e-01     -3.09738243e-02     
O    -4.32915087e-01     -2.04886666e+00     -5.42140027e+00     
H    -7.09330514e-01     -1.22281254e+00     -5.82364235e+00     
H    -8.77897710e-02     -2.58684312e+00     -6.14098464e+00     
O    1.17409109e+00      -3.42736670e+00     2.24710863e+00      
H    5.51200758e-01      -4.00557339e+00     2.69277357e+00      
H    1.99927733e+00      -3.91684760e+00     2.22668546e+00      
26
1707.265690
N    -1.11505581e-02     -5.39777742e-02     -5.12862685e-02     
H    -1.05074787e+00     -7.47603057e-02     -7.93380007e-02     
H    3.21614239e-01      8.33887343e-01      -4.82516474e-01     
H    3.09459545e-01      -1.58767306e-01     9.36073566e-01      
C    5.30177638e-01      -1.18803429e+00     -8.21745604e-01     
H    1.61635557e+00      -1.15130153e+00     -7.94646636e-01     
H    1.96617173e-01      -2.11936839e+00     -3.71804581e-01     
C    4.23759675e-02      -1.09311529e+00     -2.25161358e+00     
O    -6.57763884e-01     -1.90397159e-01     -2.67184480e+00     
O    4.93033164e-01      -2.12151889e+00     -2.94696547e+00     
H    1.42268045e-01      -2.05837294e+00     -3.88432893e+00     
O    1.00609524e+00      2.05325075e+00      -1.52334759e+00     
H    5.25965097e-01      2.07742380e+00      -2.35615075e+00     
H    1.33166117e+00      2.94522261e+00      -1.37711141e+00     
O    1.07019037e+00      -6.62345380e-01     2.36840077e+00      
H    1.16761212e+00      -1.61271613e+00     2.53068177e+00      
H    1.23385756e+00      -2.09757593e-01     3.19643124e+00      
O    -2.71848467e+00     -4.28312611e-01     -4.92028453e-01     
H    -2.88942814e+00     -2.25744854e-01     -1.41669349e+00     
H    -3.54949865e+00     -2.76846603e-01     -3.39313893e-02     
O    -4.32915505e-01     -2.04887232e+00     -5.42137797e+00     
H    -7.09267574e-01     -1.22286384e+00     -5.82379473e+00     
H    -8.78345884e-02     -2.58671088e+00     -6.14109172e+00     
O    1.17414039e+00      -3.42754120e+00     2.24719029e+00      
H    5.49867434e-01      -4.00428945e+00     2.69251857e+00      
H    2.00006445e+00      -3.91564468e+00     2.22584394e+00      
26
1707.265690
N    -1.08646798e-02     -5.36098868e-02     -5.14258620e-02     
H    -1.05042305e+00     -7.60522924e-02     -7.29231763e-02     
H    3.22643581e-01      8.31834937e-01      -4.87866212e-01     
H    3.02220485e-01      -1.62966397e-01     9.38092635e-01      
C    5.30279068e-01      -1.18791115e+00     -8.21875867e-01     
H    1.61651496e+00      -1.15151962e+00     -7.94301548e-01     
H    1.96590568e-01      -2.11900410e+00     -3.71656749e-01     
C    4.23333553e-02      -1.09309842e+00     -2.25160299e+00     
O    -6.57763411e-01     -1.90422439e-01     -2.67183081e+00     
O    4.93038377e-01      -2.12152355e+00     -2.94696665e+00     
H    1.42267624e-01      -2.05831029e+00     -3.88432939e+00     
O    1.00610968e+00      2.05329262e+00      -1.52333127e+00     
H    5.25850187e-01      2.07720335e+00      -2.35608396e+00     
H    1.33173127e+00      2.94523520e+00      -1.37715458e+00     
O    1.07024306e+00      -6.62346120e-01     2.36848179e+00      
H    1.16728917e+00      -1.61293773e+00     2.52959770e+00      
H    1.23381698e+00      -2.09042746e-01     3.19608597e+00      
O    -2.71837315e+00     -4.28329627e-01     -4.92035394e-01     
H    -2.89062094e+00     -2.25636840e-01     -1.41647221e+00     
H    -3.54980506e+00     -2.76518849e-01     -3.46707806e-02     
O    -4.32915609e-01     -2.04887374e+00     -5.42137239e+00     
H    -7.09251839e-01     -1.22287666e+00     -5.82383282e+00     
H    -8.78457928e-02     -2.58667782e+00     -6.14111849e+00     
O    1.17415272e+00      -3.42758482e+00     2.24721071e+00      
H    5.49534103e-01      -4.00396846e+00     2.69245482e+00      
H    2.00026123e+00      -3.91534395e+00     2.22563355e+00      
26
1707.265690
N    -1.05788014e-02     -5.32419995e-02     -5.15654556e-02     
H    -1.05009822e+00     -7.73442791e-02     -6.65083519e-02     
H    3.23672922e-01      8.29782531e-01      -4.93215951e-01     
H    2.94981426e-01      -1.67165488e-01     9.40111704e-01      
C    5.30380497e-01      -1.18778802e+00     -8.22006129e-01     
H    1.61667436e+00      -1.15173772e+00     -7.93956461e-01     
H    1.96563963e-01      -2.11863981e+00     -3.71508916e-01     
C    4.22907430e-02      -1.09308154e+00     -2.25159239e+00     
O    -6.57762938e-01     -1.90447719e-01     -2.67181681e+00     
O    4.93043590e-01      -2.12152820e+00     -2.94696782e+00     
H    1.42267202e-01      -2.05824763e+00     -3.88432985e+00     
O    1.00612412e+00      2.05333450e+00      -1.52331495e+00     
H    5.25735276e-01      2.07698290e+00      -2.35601716e+00     
H    1.33180136e+00      2.94524779e+00      -1.37719775e+00     
O    1.07029575e+00      -6.62346859e-01     2.36856280e+00      
H    1.16696622e+00      -1.61315933e+00     2.52851364e+00      
H    1.23377641e+00      -2.08327899e-01     3.19574071e+00      
O    -2.71826163e+00     -4.28346643e-01     -4.92042335e-01     
H    -2.89181375e+00     -2.25528826e-01     -1.41625092e+00     
H    -3.55011148e+00     -2.76191096e-01     -3.54101719e-02     
O    -4.32915714e-01     -2.04887516e+00     -5.42136682e+00     
H    -7.09236104e-01     -1.22288949e+00     -5.82387092e+00     
H    -8.78569971e-02     -2.58664476e+00     -6.14114526e+00     
O    1.17416505e+00      -3.42762844e+00     2.24723113e+00      
H    5.49200772e-01      -4.00364747e+00     2.69239108e+00      
H    2.00045802e+00      -3.91504322e+00     2.22542317e+00      
26
1707.265690
N    -1.00070447e-02     -5.25062248e-02     -5.18446427e-02     
H    -1.04944858e+00     -7.99282526e-02     -5.36787032e-02     
H    3.25731605e-01      8.25677719e-01      -5.03915429e-01     
H    2.80503308e-01      -1.75563669e-01     9.44149842e-01      
C    5.30583355e-01      -1.18754174e+00     -8.22266653e-01     
H    1.61699315e+00      -1.15217392e+00     -7.93266285e-01     
H    1.96510753e-01      -2.11791124e+00     -3.71213251e-01     
C    4.22055185e-02      -1.09304778e+00     -2.25157121e+00     
O    -6.57761991e-01     -1.90498278e-01     -2.67178883e+00     
O    4.93054016e-01      -2.12153752e+00     -2.94697016e+00     
H    1.42266360e-01      -2.05812232e+00     -3.88433078e+00     
O    1.00615301e+00      2.05341825e+00      -1.52328231e+00     
H    5.25505456e-01      2.07654200e+00      -2.35588357e+00     
H    1.33194154e+00      2.94527298e+00      -1.37728410e+00     
O    1.07040114e+00      -6.62348339e-01     2.36872484e+00      
H    1.16632032e+00      -1.61360253e+00     2.52634551e+00      
H    1.23369526e+00      -2.06898206e-01     3.19505017e+00      
O    -2.71803858e+00     -4.28380676e-01     -4.92056216e-01     
H    -2.89419935e+00     -2.25312798e-01     -1.41580836e+00     
H    -3.55072430e+00     -2.75535589e-01     -3.68889544e-02     
O    -4.32915923e-01     -2.04887799e+00     -5.42135566e+00     
H    -7.09204634e-01     -1.22291514e+00     -5.82394711e+00     
H    -8.78794058e-02     -2.58657864e+00     -6.14119880e+00     
O    1.17418970e+00      -3.42771569e+00     2.24727196e+00      
H    5.48534110e-01      -4.00300550e+00     2.69226358e+00      
H    2.00085158e+00      -3.91444176e+00     2.22500241e+00      
26
1707.265690
N    -9.43528801e-03     -5.17704500e-02     -5.21238297e-02     
H    -1.04879893e+00     -8.25122261e-02     -4.08490544e-02     
H    3.27790289e-01      8.21572907e-01      -5.14614906e-01     
H    2.66025190e-01      -1.83961851e-01     9.48187980e-01      
C    5.30786214e-01      -1.18729547e+00     -8.22527178e-01     
H    1.61731194e+00      -1.15261012e+00     -7.92576110e-01     
H    1.96457543e-01      -2.11718266e+00     -3.70917586e-01     
C    4.21202940e-02      -1.09301403e+00     -2.25155003e+00     
O    -6.57761045e-01     -1.90548837e-01     -2.67176085e+00     
O    4.93064443e-01      -2.12154683e+00     -2.94697251e+00     
H    1.42265517e-01      -2.05799701e+00     -3.88433170e+00     
O    1.00618190e+00      2.05350200e+00      -1.52324967e+00     
H    5.25275636e-01      2.07610110e+00      -2.35574998e+00     
H    1.33208173e+00      2.94529816e+00      -1.37737044e+00     
O    1.07050652e+00      -6.62349818e-01     2.36888688e+00      
H    1.16567441e+00      -1.61404573e+00     2.52417738e+00      
H    1.23361411e+00      -2.05468513e-01     3.19435963e+00      
O    -2.71781553e+00     -4.28414709e-01     -4.92070098e-01     
H    -2.89658496e+00     -2.25096771e-01     -1.41536580e+00     
H    -3.55133713e+00     -2.74880082e-01     -3.83677370e-02     
O    -4.32916132e-01     -2.04888082e+00     -5.42134451e+00     
H    -7.09173164e-01     -1.22294079e+00     -5.82402330e+00     
H    -8.79018145e-02     -2.58651252e+00     -6.14125233e+00     
O    1.17421436e+00      -3.42780294e+00     2.24731280e+00      
H    5.47867448e-01      -4.00236352e+00     2.69213608e+00      
H    2.00124514e+00      -3.91384030e+00     2.22458164e+00      
26
1707.265690
N    -8.86353131e-03     -5.10346753e-02     -5.24030168e-02     
H    -1.04814928e+00     -8.50961995e-02     -2.80194057e-02     
H    3.29848972e-01      8.17468095e-01      -5.25314384e-01     
H    2.51547071e-01      -1.92360033e-01     9.52226119e-01      
C    5.30989072e-01      -1.18704920e+00     -8.22787702e-01     
H    1.61763073e+00      -1.15304631e+00     -7.91885935e-01     
H    1.96404333e-01      -2.11645409e+00     -3.70621921e-01     
C    4.20350695e-02      -1.09298027e+00     -2.25152885e+00     
O    -6.57760099e-01     -1.90599397e-01     -2.67173287e+00     
O    4.93074869e-01      -2.12155614e+00     -2.94697485e+00     
H    1.42264674e-01      -2.05787170e+00     -3.88433263e+00     
O    1.00621079e+00      2.05358575e+00      -1.52321703e+00     
H    5.25045815e-01      2.07566020e+00      -2.35561639e+00     
H    1.33222191e+00      2.94532334e+00      -1.37745679e+00     
O    1.07061191e+00      -6.62351297e-01     2.36904892e+00      
H    1.16502851e+00      -1.61448893e+00     2.52200925e+00      
H    1.23353296e+00      -2.04038819e-01     3.19366910e+00      
O    -2.71759248e+00     -4.28448742e-01     -4.92083979e-01     
H    -2.89897057e+00     -2.24880743e-01     -1.41492324e+00     
H    -3.55194996e+00     -2.74224575e-01     -3.98465195e-02     
O    -4.32916341e-01     -2.04888366e+00     -5.42133336e+00     
H    -7.09141694e-01     -1.22296644e+00     -5.82409949e+00     
H    -8.79242232e-02     -2.58644640e+00     -6.14130587e+00     
O    1.17423901e+00      -3.42789019e+00     2.24735363e+00      
H    5.47200786e-01      -4.00172155e+00     2.69200858e+00      
H    2.00163871e+00      -3.91323884e+00     2.22416088e+00      
26
1707.265690
N    -8.29177462e-03     -5.02989006e-02     -5.26822039e-02     
H    -1.04749963e+00     -8.76801730e-02     -1.51897569e-02     
H    3.31907655e-01      8.13363283e-01      -5.36013861e-01     
H    2.37068953e-01      -2.00758215e-01     9.56264257e-01      
C    5.31191930e-01      -1.18680293e+00     -8.23048226e-01     
H    1.61794952e+00      -1.15348251e+00     -7.91195760e-01     
H    1.96351123e-01      -2.11572552e+00     -3.70326256e-01     
C    4.19498450e-02      -1.09294652e+00     -2.25150766e+00     
O    -6.57759153e-01     -1.90649956e-01     -2.67170488e+00     
O    4.93085295e-01      -2.12156545e+00     -2.94697720e+00     
H    1.42263831e-01      -2.05774640e+00     -3.88433355e+00     
O    1.00623967e+00      2.05366950e+00      -1.52318439e+00     
H    5.24815995e-01      2.07521930e+00      -2.35548280e+00     
H    1.33236209e+00      2.94534852e+00      -1.37754313e+00     
O    1.07071729e+00      -6.62352776e-01     2.36921095e+00      
H    1.16438261e+00      -1.61493212e+00     2.51984112e+00      
H    1.23345181e+00      -2.02609126e-01     3.19297856e+00      
O    -2.71736944e+00     -4.28482774e-01     -4.92097861e-01     
H    -2.90135618e+00     -2.24664715e-01     -1.41448067e+00     
H    -3.55256279e+00     -2.73569068e-01     -4.13253020e-02     
O    -4.32916549e-01     -2.04888649e+00     -5.42132221e+00     
H    -7.09110224e-01     -1.22299209e+00     -5.82417568e+00     
H    -8.79466319e-02     -2.58638028e+00     -6.14135941e+00     
O    1.17426366e+00      -3.42797743e+00     2.24739447e+00      
H    5.46534124e-01      -4.00107958e+00     2.69188109e+00      
H    2.00203227e+00      -3.91263738e+00     2.22374012e+00      
26
1707.265690
N    -7.14826122e-03     -4.88273512e-02     -5.32405781e-02     
H    -1.04620033e+00     -9.28481199e-02     1.04695406e-02      
H    3.36025021e-01      8.05153659e-01      -5.57412816e-01     
H    2.08112716e-01      -2.17554578e-01     9.64340533e-01      
C    5.31597647e-01      -1.18631038e+00     -8.23569275e-01     
H    1.61858709e+00      -1.15435490e+00     -7.89815409e-01     
H    1.96244703e-01      -2.11426837e+00     -3.69734926e-01     
C    4.17793960e-02      -1.09287901e+00     -2.25146530e+00     
O    -6.57757261e-01     -1.90751075e-01     -2.67164892e+00     
O    4.93106147e-01      -2.12158408e+00     -2.94698189e+00     
H    1.42262146e-01      -2.05749578e+00     -3.88433541e+00     
O    1.00629745e+00      2.05383700e+00      -1.52311911e+00     
H    5.24356354e-01      2.07433750e+00      -2.35521563e+00     
H    1.33264246e+00      2.94539889e+00      -1.37771582e+00     
O    1.07092806e+00      -6.62355735e-01     2.36953503e+00      
H    1.16309081e+00      -1.61581852e+00     2.51550486e+00      
H    1.23328951e+00      -1.99749739e-01     3.19159749e+00      
O    -2.71692334e+00     -4.28550840e-01     -4.92125624e-01     
H    -2.90612739e+00     -2.24232659e-01     -1.41359555e+00     
H    -3.55378845e+00     -2.72258053e-01     -4.42828671e-02     
O    -4.32916967e-01     -2.04889216e+00     -5.42129990e+00     
H    -7.09047284e-01     -1.22304339e+00     -5.82432805e+00     
H    -8.79914493e-02     -2.58624804e+00     -6.14146649e+00     
O    1.17431297e+00      -3.42815193e+00     2.24747614e+00      
H    5.45200799e-01      -3.99979563e+00     2.69162609e+00      
H    2.00281939e+00      -3.91143446e+00     2.22289859e+00      
