26
1582.465776
N    -4.95539082e-03     -6.85378665e-02     -6.26253712e-02     
H    -1.04423230e+00     8.15912434e-03      -1.17424861e-02     
H    2.72930460e-01      8.80513642e-01      -3.93998782e-01     
H    2.54240603e-01      -5.60368535e-02     9.51727377e-01      
C    5.28183484e-01      -1.18500493e+00     -8.21210088e-01     
H    1.61511340e+00      -1.17917469e+00     -7.89191773e-01     
H    2.23262744e-01      -2.12890326e+00     -3.76438382e-01     
C    4.02545192e-02      -1.09075597e+00     -2.25363794e+00     
O    -6.55855243e-01     -1.92657819e-01     -2.67033777e+00     
O    4.92964559e-01      -2.12141628e+00     -2.94708500e+00     
H    1.41388010e-01      -2.05799802e+00     -3.88404011e+00     
O    1.00603546e+00      2.05227509e+00      -1.52351645e+00     
H    5.28267101e-01      2.08398842e+00      -2.35783076e+00     
H    1.32954283e+00      2.94548020e+00      -1.37805716e+00     
O    1.07019038e+00      -6.63117751e-01     2.36748557e+00      
H    1.17102497e+00      -1.61165111e+00     2.53893695e+00      
H    1.23241826e+00      -2.09480563e-01     3.19556560e+00      
O    -2.71804703e+00     -4.28614793e-01     -4.92571868e-01     
H    -2.89272364e+00     -2.26230970e-01     -1.41671386e+00     
H    -3.54763210e+00     -2.76032303e-01     -3.21387856e-02     
O    -4.32793395e-01     -2.04840850e+00     -5.42308752e+00     
H    -7.14319401e-01     -1.21743327e+00     -5.80821533e+00     
H    -8.45600156e-02     -2.59935726e+00     -6.12936167e+00     
O    1.17417822e+00      -3.42783721e+00     2.24731392e+00      
H    5.47425563e-01      -4.00153963e+00     2.69203276e+00      
H    2.00160709e+00      -3.91264842e+00     2.22386260e+00      
26
1582.465776
N    -6.64712181e-03     -6.50817871e-02     -5.97207988e-02     
H    -1.04602361e+00     -1.19247398e-02     -3.18487769e-02     
H    2.84586734e-01      8.69883270e-01      -4.13453335e-01     
H    2.71664868e-01      -7.96199212e-02     9.46804389e-01      
C    5.28631308e-01      -1.18582384e+00     -8.21278836e-01     
H    1.61534424e+00      -1.17209735e+00     -7.90728032e-01     
H    2.16614654e-01      -2.12670169e+00     -3.75353848e-01     
C    4.08061874e-02      -1.09135424e+00     -2.25313715e+00     
O    -6.56332640e-01     -1.92080014e-01     -2.67072152e+00     
O    4.92979104e-01      -2.12143960e+00     -2.94705453e+00     
H    1.41608230e-01      -2.05812308e+00     -3.88411208e+00     
O    1.00604318e+00      2.05249807e+00      -1.52348240e+00     
H    5.27749055e-01      2.08245749e+00      -2.35744415e+00     
H    1.33003737e+00      2.94540951e+00      -1.37779914e+00     
O    1.07016403e+00      -6.62924289e-01     2.36767386e+00      
H    1.17033324e+00      -1.61180657e+00     2.53741519e+00      
H    1.23279837e+00      -2.09907244e-01     3.19595464e+00      
O    -2.71821221e+00     -4.28530739e-01     -4.92432544e-01     
H    -2.89130336e+00     -2.26163448e-01     -1.41681941e+00     
H    -3.54794553e+00     -2.76399755e-01     -3.22172409e-02     
O    -4.32823870e-01     -2.04852375e+00     -5.42266292e+00     
H    -7.13064312e-01     -1.21878450e+00     -5.81209113e+00     
H    -8.53730567e-02     -2.59621219e+00     -6.13228080e+00     
O    1.17416260e+00      -3.42774140e+00     2.24727280e+00      
H    5.48202696e-01      -4.00238758e+00     2.69218608e+00      
H    2.00112304e+00      -3.91354785e+00     2.22446313e+00      
26
1582.465776
N    -7.49298731e-03     -6.33537474e-02     -5.82685126e-02     
H    -1.04691926e+00     -2.19666719e-02     -4.19019223e-02     
H    2.90414871e-01      8.64568084e-01      -4.23180612e-01     
H    2.80377000e-01      -9.14114550e-02     9.44342896e-01      
C    5.28855220e-01      -1.18623329e+00     -8.21313210e-01     
H    1.61545967e+00      -1.16855868e+00     -7.91496162e-01     
H    2.13290609e-01      -2.12560090e+00     -3.74811581e-01     
C    4.10820215e-02      -1.09165338e+00     -2.25288675e+00     
O    -6.56571338e-01     -1.91791112e-01     -2.67091340e+00     
O    4.92986376e-01      -2.12145126e+00     -2.94703930e+00     
H    1.41718339e-01      -2.05818561e+00     -3.88414807e+00     
O    1.00604704e+00      2.05260956e+00      -1.52346537e+00     
H    5.27490032e-01      2.08169202e+00      -2.35725085e+00     
H    1.33028464e+00      2.94537416e+00      -1.37767012e+00     
O    1.07015085e+00      -6.62827557e-01     2.36776800e+00      
H    1.16998737e+00      -1.61188429e+00     2.53665431e+00      
H    1.23298843e+00      -2.10120584e-01     3.19614917e+00      
O    -2.71829479e+00     -4.28488712e-01     -4.92362882e-01     
H    -2.89059323e+00     -2.26129687e-01     -1.41687218e+00     
H    -3.54810224e+00     -2.76583481e-01     -3.22564686e-02     
O    -4.32839108e-01     -2.04858137e+00     -5.42245062e+00     
H    -7.12436767e-01     -1.21946012e+00     -5.81402903e+00     
H    -8.57795772e-02     -2.59463966e+00     -6.13374036e+00     
O    1.17415479e+00      -3.42769349e+00     2.24725225e+00      
H    5.48591263e-01      -4.00281155e+00     2.69226275e+00      
H    2.00088102e+00      -3.91399757e+00     2.22476339e+00      
26
1582.465776
N    -8.33885281e-03     -6.16257077e-02     -5.68162263e-02     
H    -1.04781491e+00     -3.20086039e-02     -5.19550677e-02     
H    2.96243008e-01      8.59252898e-01      -4.32907889e-01     
H    2.89089133e-01      -1.03202989e-01     9.41881402e-01      
C    5.29079132e-01      -1.18664275e+00     -8.21347584e-01     
H    1.61557509e+00      -1.16502001e+00     -7.92264292e-01     
H    2.09966564e-01      -2.12450011e+00     -3.74269314e-01     
C    4.13578556e-02      -1.09195251e+00     -2.25263635e+00     
O    -6.56810036e-01     -1.91502209e-01     -2.67110527e+00     
O    4.92993648e-01      -2.12146293e+00     -2.94702406e+00     
H    1.41828449e-01      -2.05824814e+00     -3.88418405e+00     
O    1.00605090e+00      2.05272105e+00      -1.52344834e+00     
H    5.27231009e-01      2.08092656e+00      -2.35705755e+00     
H    1.33053191e+00      2.94533882e+00      -1.37754111e+00     
O    1.07013768e+00      -6.62730826e-01     2.36786215e+00      
H    1.16964150e+00      -1.61196202e+00     2.53589342e+00      
H    1.23317848e+00      -2.10333924e-01     3.19634369e+00      
O    -2.71837738e+00     -4.28446685e-01     -4.92293220e-01     
H    -2.88988309e+00     -2.26095926e-01     -1.41692496e+00     
H    -3.54825896e+00     -2.76767207e-01     -3.22956962e-02     
O    -4.32854345e-01     -2.04863900e+00     -5.42223832e+00     
H    -7.11809223e-01     -1.22013573e+00     -5.81596693e+00     
H    -8.61860977e-02     -2.59306713e+00     -6.13519992e+00     
O    1.17414698e+00      -3.42764558e+00     2.24723169e+00      
H    5.48979830e-01      -4.00323553e+00     2.69233941e+00      
H    2.00063899e+00      -3.91444728e+00     2.22506365e+00      
26
1582.465776
N    -9.18471831e-03     -5.98976680e-02     -5.53639401e-02     
H    -1.04871056e+00     -4.20505360e-02     -6.20082131e-02     
H    3.02071145e-01      8.53937713e-01      -4.42635166e-01     
H    2.97801265e-01      -1.14994523e-01     9.39419909e-01      
C    5.29303044e-01      -1.18705220e+00     -8.21381958e-01     
H    1.61569051e+00      -1.16148134e+00     -7.93032422e-01     
H    2.06642518e-01      -2.12339932e+00     -3.73727047e-01     
C    4.16336897e-02      -1.09225165e+00     -2.25238595e+00     
O    -6.57048735e-01     -1.91213307e-01     -2.67129715e+00     
O    4.93000921e-01      -2.12147459e+00     -2.94700883e+00     
H    1.41938559e-01      -2.05831066e+00     -3.88422004e+00     
O    1.00605476e+00      2.05283254e+00      -1.52343131e+00     
H    5.26971986e-01      2.08016109e+00      -2.35686425e+00     
H    1.33077918e+00      2.94530347e+00      -1.37741210e+00     
O    1.07012450e+00      -6.62634095e-01     2.36795629e+00      
H    1.16929563e+00      -1.61203975e+00     2.53513254e+00      
H    1.23336854e+00      -2.10547265e-01     3.19653821e+00      
O    -2.71845996e+00     -4.28404658e-01     -4.92223558e-01     
H    -2.88917295e+00     -2.26062165e-01     -1.41697773e+00     
H    -3.54841567e+00     -2.76950933e-01     -3.23349239e-02     
O    -4.32869583e-01     -2.04869662e+00     -5.42202602e+00     
H    -7.11181678e-01     -1.22081135e+00     -5.81790484e+00     
H    -8.65926182e-02     -2.59149460e+00     -6.13665949e+00     
O    1.17413917e+00      -3.42759767e+00     2.24721113e+00      
H    5.49368396e-01      -4.00365950e+00     2.69241608e+00      
H    2.00039697e+00      -3.91489700e+00     2.22536391e+00      
26
1582.465776
N    -1.00305838e-02     -5.81696283e-02     -5.39116539e-02     
H    -1.04960622e+00     -5.20924681e-02     -7.20613586e-02     
H    3.07899282e-01      8.48622527e-01      -4.52362442e-01     
H    3.06513398e-01      -1.26786056e-01     9.36958415e-01      
C    5.29526956e-01      -1.18746165e+00     -8.21416332e-01     
H    1.61580593e+00      -1.15794267e+00     -7.93800551e-01     
H    2.03318473e-01      -2.12229854e+00     -3.73184780e-01     
C    4.19095238e-02      -1.09255078e+00     -2.25213556e+00     
O    -6.57287433e-01     -1.90924405e-01     -2.67148903e+00     
O    4.93008193e-01      -2.12148625e+00     -2.94699360e+00     
H    1.42048669e-01      -2.05837319e+00     -3.88425603e+00     
O    1.00605863e+00      2.05294402e+00      -1.52341429e+00     
H    5.26712963e-01      2.07939563e+00      -2.35667094e+00     
H    1.33102645e+00      2.94526812e+00      -1.37728309e+00     
O    1.07011133e+00      -6.62537364e-01     2.36805044e+00      
H    1.16894976e+00      -1.61211748e+00     2.53437166e+00      
H    1.23355860e+00      -2.10760605e-01     3.19673273e+00      
O    -2.71854255e+00     -4.28362632e-01     -4.92153896e-01     
H    -2.88846281e+00     -2.26028404e-01     -1.41703050e+00     
H    -3.54857239e+00     -2.77134658e-01     -3.23741515e-02     
O    -4.32884821e-01     -2.04875424e+00     -5.42181372e+00     
H    -7.10554133e-01     -1.22148696e+00     -5.81984274e+00     
H    -8.69991387e-02     -2.58992206e+00     -6.13811905e+00     
O    1.17413136e+00      -3.42754977e+00     2.24719057e+00      
H    5.49756963e-01      -4.00408347e+00     2.69249274e+00      
H    2.00015494e+00      -3.91534671e+00     2.22566418e+00      
26
1582.465776
N    -1.04535166e-02     -5.73056085e-02     -5.31855107e-02     
H    -1.05005404e+00     -5.71134341e-02     -7.70879313e-02     
H    3.10813351e-01      8.45964934e-01      -4.57226081e-01     
H    3.10869464e-01      -1.32681823e-01     9.35727668e-01      
C    5.29638912e-01      -1.18766638e+00     -8.21433519e-01     
H    1.61586365e+00      -1.15617333e+00     -7.94184616e-01     
H    2.01656451e-01      -2.12174814e+00     -3.72913647e-01     
C    4.20474408e-02      -1.09270035e+00     -2.25201036e+00     
O    -6.57406782e-01     -1.90779954e-01     -2.67158497e+00     
O    4.93011829e-01      -2.12149209e+00     -2.94698598e+00     
H    1.42103723e-01      -2.05840446e+00     -3.88427402e+00     
O    1.00606056e+00      2.05299977e+00      -1.52340577e+00     
H    5.26583452e-01      2.07901290e+00      -2.35657429e+00     
H    1.33115009e+00      2.94525045e+00      -1.37721858e+00     
O    1.07010474e+00      -6.62488998e-01     2.36809751e+00      
H    1.16877682e+00      -1.61215634e+00     2.53399122e+00      
H    1.23365363e+00      -2.10867275e-01     3.19683000e+00      
O    -2.71858384e+00     -4.28341618e-01     -4.92119065e-01     
H    -2.88810774e+00     -2.26011523e-01     -1.41705689e+00     
H    -3.54865075e+00     -2.77226521e-01     -3.23937653e-02     
O    -4.32892440e-01     -2.04878306e+00     -5.42170757e+00     
H    -7.10240361e-01     -1.22182477e+00     -5.82081169e+00     
H    -8.72023989e-02     -2.58913580e+00     -6.13884883e+00     
O    1.17412745e+00      -3.42752581e+00     2.24718030e+00      
H    5.49951246e-01      -4.00429546e+00     2.69253107e+00      
H    2.00003393e+00      -3.91557157e+00     2.22581431e+00      
26
1582.465776
N    -1.08764493e-02     -5.64415886e-02     -5.24593676e-02     
H    -1.05050187e+00     -6.21344001e-02     -8.21145040e-02     
H    3.13727419e-01      8.43307341e-01      -4.62089719e-01     
H    3.15225530e-01      -1.38577590e-01     9.34496922e-01      
C    5.29750868e-01      -1.18787111e+00     -8.21450706e-01     
H    1.61592136e+00      -1.15440400e+00     -7.94568681e-01     
H    1.99994428e-01      -2.12119775e+00     -3.72642513e-01     
C    4.21853579e-02      -1.09284992e+00     -2.25188516e+00     
O    -6.57526132e-01     -1.90635502e-01     -2.67168090e+00     
O    4.93015466e-01      -2.12149792e+00     -2.94697836e+00     
H    1.42158778e-01      -2.05843572e+00     -3.88429201e+00     
O    1.00606249e+00      2.05305551e+00      -1.52339726e+00     
H    5.26453940e-01      2.07863016e+00      -2.35647764e+00     
H    1.33127372e+00      2.94523278e+00      -1.37715407e+00     
O    1.07009815e+00      -6.62440632e-01     2.36814458e+00      
H    1.16860389e+00      -1.61219520e+00     2.53361078e+00      
H    1.23374865e+00      -2.10973946e-01     3.19692726e+00      
O    -2.71862513e+00     -4.28320605e-01     -4.92084234e-01     
H    -2.88775267e+00     -2.25994643e-01     -1.41708328e+00     
H    -3.54872910e+00     -2.77318384e-01     -3.24133792e-02     
O    -4.32900058e-01     -2.04881187e+00     -5.42160142e+00     
H    -7.09926589e-01     -1.22216258e+00     -5.82178064e+00     
H    -8.74056592e-02     -2.58834953e+00     -6.13957862e+00     
O    1.17412355e+00      -3.42750186e+00     2.24717002e+00      
H    5.50145529e-01      -4.00450745e+00     2.69256941e+00      
H    1.99991292e+00      -3.91579643e+00     2.22596444e+00      
26
1582.465776
N    -1.25681803e-02     -5.29855092e-02     -4.95547952e-02     
H    -1.05229317e+00     -8.22182643e-02     -1.02220795e-01     
H    3.25383693e-01      8.32676969e-01      -4.81544273e-01     
H    3.32649796e-01      -1.62160658e-01     9.29573934e-01      
C    5.30198692e-01      -1.18869001e+00     -8.21519454e-01     
H    1.61615220e+00      -1.14732666e+00     -7.96104941e-01     
H    1.93346338e-01      -2.11899617e+00     -3.71557979e-01     
C    4.27370261e-02      -1.09344818e+00     -2.25138436e+00     
O    -6.58003528e-01     -1.90057698e-01     -2.67206466e+00     
O    4.93030010e-01      -2.12152124e+00     -2.94694790e+00     
H    1.42378998e-01      -2.05856078e+00     -3.88436399e+00     
O    1.00607021e+00      2.05327849e+00      -1.52336320e+00     
H    5.25935894e-01      2.07709924e+00      -2.35609104e+00     
H    1.33176826e+00      2.94516208e+00      -1.37689605e+00     
O    1.07007181e+00      -6.62247170e-01     2.36833288e+00      
H    1.16791215e+00      -1.61235066e+00     2.53208902e+00      
H    1.23412877e+00      -2.11400626e-01     3.19731630e+00      
O    -2.71879031e+00     -4.28236551e-01     -4.91944910e-01     
H    -2.88633239e+00     -2.25927121e-01     -1.41718882e+00     
H    -3.54904254e+00     -2.77685836e-01     -3.24918344e-02     
O    -4.32930534e-01     -2.04892711e+00     -5.42117682e+00     
H    -7.08671499e-01     -1.22351380e+00     -5.82565644e+00     
H    -8.82187002e-02     -2.58520447e+00     -6.14249774e+00     
O    1.17410793e+00      -3.42740604e+00     2.24712890e+00      
H    5.50922663e-01      -4.00535539e+00     2.69272273e+00      
H    1.99942886e+00      -3.91669585e+00     2.22656496e+00      
26
1582.465776
N    -1.29911130e-02     -5.21214893e-02     -4.88286521e-02     
H    -1.05274100e+00     -8.72392303e-02     -1.07247368e-01     
H    3.28297761e-01      8.30019376e-01      -4.86407911e-01     
H    3.37005862e-01      -1.68056425e-01     9.28343188e-01      
C    5.30310648e-01      -1.18889474e+00     -8.21536641e-01     
H    1.61620991e+00      -1.14555733e+00     -7.96489006e-01     
H    1.91684315e-01      -2.11844578e+00     -3.71286845e-01     
C    4.28749432e-02      -1.09359775e+00     -2.25125916e+00     
O    -6.58122878e-01     -1.89913246e-01     -2.67216059e+00     
O    4.93033647e-01      -2.12152707e+00     -2.94694028e+00     
H    1.42434053e-01      -2.05859204e+00     -3.88438198e+00     
O    1.00607214e+00      2.05333423e+00      -1.52335469e+00     
H    5.25806382e-01      2.07671650e+00      -2.35599439e+00     
H    1.33189189e+00      2.94514441e+00      -1.37683154e+00     
O    1.07006522e+00      -6.62198804e-01     2.36837995e+00      
H    1.16773922e+00      -1.61238952e+00     2.53170858e+00      
H    1.23422379e+00      -2.11507297e-01     3.19741356e+00      
O    -2.71883160e+00     -4.28215538e-01     -4.91910079e-01     
H    -2.88597732e+00     -2.25910241e-01     -1.41721521e+00     
H    -3.54912089e+00     -2.77777699e-01     -3.25114483e-02     
O    -4.32938152e-01     -2.04895592e+00     -5.42107067e+00     
H    -7.08357727e-01     -1.22385161e+00     -5.82662539e+00     
H    -8.84219605e-02     -2.58441820e+00     -6.14322753e+00     
O    1.17410403e+00      -3.42738209e+00     2.24711862e+00      
H    5.51116946e-01      -4.00556738e+00     2.69276107e+00      
H    1.99930785e+00      -3.91692071e+00     2.22671509e+00      
26
1582.465776
N    -1.34140458e-02     -5.12574695e-02     -4.81025089e-02     
H    -1.05318882e+00     -9.22601963e-02     -1.12273940e-01     
H    3.31211830e-01      8.27361783e-01      -4.91271550e-01     
H    3.41361928e-01      -1.73952192e-01     9.27112441e-01      
C    5.30422604e-01      -1.18909947e+00     -8.21553828e-01     
H    1.61626763e+00      -1.14378799e+00     -7.96873071e-01     
H    1.90022293e-01      -2.11789538e+00     -3.71015712e-01     
C    4.30128602e-02      -1.09374732e+00     -2.25113396e+00     
O    -6.58242227e-01     -1.89768795e-01     -2.67225653e+00     
O    4.93037283e-01      -2.12153291e+00     -2.94693266e+00     
H    1.42489107e-01      -2.05862331e+00     -3.88439997e+00     
O    1.00607407e+00      2.05338998e+00      -1.52334617e+00     
H    5.25676871e-01      2.07633377e+00      -2.35589774e+00     
H    1.33201553e+00      2.94512674e+00      -1.37676703e+00     
O    1.07005863e+00      -6.62150438e-01     2.36842702e+00      
H    1.16756628e+00      -1.61242838e+00     2.53132814e+00      
H    1.23431882e+00      -2.11613967e-01     3.19751083e+00      
O    -2.71887289e+00     -4.28194524e-01     -4.91875248e-01     
H    -2.88562225e+00     -2.25893360e-01     -1.41724160e+00     
H    -3.54919925e+00     -2.77869562e-01     -3.25310621e-02     
O    -4.32945771e-01     -2.04898474e+00     -5.42096452e+00     
H    -7.08043955e-01     -1.22418942e+00     -5.82759434e+00     
H    -8.86252207e-02     -2.58363194e+00     -6.14395731e+00     
O    1.17410012e+00      -3.42735813e+00     2.24710835e+00      
H    5.51311229e-01      -4.00577937e+00     2.69279940e+00      
H    1.99918684e+00      -3.91714557e+00     2.22686522e+00      
26
1582.465776
N    -1.42599113e-02     -4.95294298e-02     -4.66502227e-02     
H    -1.05408448e+00     -1.02302128e-01     -1.22327086e-01     
H    3.37039967e-01      8.22046597e-01      -5.00998826e-01     
H    3.50074061e-01      -1.85743725e-01     9.24650947e-01      
C    5.30646516e-01      -1.18950892e+00     -8.21588202e-01     
H    1.61638305e+00      -1.14024932e+00     -7.97641200e-01     
H    1.86698248e-01      -2.11679460e+00     -3.70473445e-01     
C    4.32886943e-02      -1.09404645e+00     -2.25088357e+00     
O    -6.58480925e-01     -1.89479893e-01     -2.67244841e+00     
O    4.93044555e-01      -2.12154457e+00     -2.94691743e+00     
H    1.42599217e-01      -2.05868584e+00     -3.88443596e+00     
O    1.00607794e+00      2.05350146e+00      -1.52332915e+00     
H    5.25417848e-01      2.07556831e+00      -2.35570443e+00     
H    1.33226280e+00      2.94509139e+00      -1.37663802e+00     
O    1.07004546e+00      -6.62053707e-01     2.36852117e+00      
H    1.16722041e+00      -1.61250611e+00     2.53056726e+00      
H    1.23450888e+00      -2.11827307e-01     3.19770535e+00      
O    -2.71895548e+00     -4.28152498e-01     -4.91805586e-01     
H    -2.88491211e+00     -2.25859599e-01     -1.41729437e+00     
H    -3.54935597e+00     -2.78053287e-01     -3.25702897e-02     
O    -4.32961009e-01     -2.04904236e+00     -5.42075222e+00     
H    -7.07416410e-01     -1.22486503e+00     -5.82953224e+00     
H    -8.90317412e-02     -2.58205940e+00     -6.14541687e+00     
O    1.17409231e+00      -3.42731023e+00     2.24708779e+00      
H    5.51699796e-01      -4.00620334e+00     2.69287606e+00      
H    1.99894481e+00      -3.91759528e+00     2.22716549e+00      
26
1582.465776
N    -1.51057768e-02     -4.78013901e-02     -4.51979365e-02     
H    -1.05498013e+00     -1.12344060e-01     -1.32380231e-01     
H    3.42868104e-01      8.16731412e-01      -5.10726103e-01     
H    3.58786193e-01      -1.97535259e-01     9.22189454e-01      
C    5.30870428e-01      -1.18991837e+00     -8.21622576e-01     
H    1.61649847e+00      -1.13671065e+00     -7.98409330e-01     
H    1.83374202e-01      -2.11569381e+00     -3.69931178e-01     
C    4.35645284e-02      -1.09434559e+00     -2.25063317e+00     
O    -6.58719624e-01     -1.89190991e-01     -2.67264029e+00     
O    4.93051828e-01      -2.12155623e+00     -2.94690220e+00     
H    1.42709327e-01      -2.05874836e+00     -3.88447195e+00     
O    1.00608180e+00      2.05361295e+00      -1.52331212e+00     
H    5.25158825e-01      2.07480284e+00      -2.35551113e+00     
H    1.33251007e+00      2.94505604e+00      -1.37650901e+00     
O    1.07003228e+00      -6.61956976e-01     2.36861531e+00      
H    1.16687454e+00      -1.61258384e+00     2.52980638e+00      
H    1.23469894e+00      -2.12040648e-01     3.19789987e+00      
O    -2.71903806e+00     -4.28110471e-01     -4.91735924e-01     
H    -2.88420197e+00     -2.25825838e-01     -1.41734714e+00     
H    -3.54951268e+00     -2.78237013e-01     -3.26095174e-02     
O    -4.32976247e-01     -2.04909998e+00     -5.42053992e+00     
H    -7.06788865e-01     -1.22554065e+00     -5.83147015e+00     
H    -8.94382617e-02     -2.58048687e+00     -6.14687644e+00     
O    1.17408450e+00      -3.42726232e+00     2.24706723e+00      
H    5.52088362e-01      -4.00662731e+00     2.69295273e+00      
H    1.99870279e+00      -3.91804500e+00     2.22746575e+00      
26
1582.465776
N    -1.59516423e-02     -4.60733504e-02     -4.37456502e-02     
H    -1.05587578e+00     -1.22385993e-01     -1.42433376e-01     
H    3.48696241e-01      8.11416226e-01      -5.20453380e-01     
H    3.67498326e-01      -2.09326793e-01     9.19727960e-01      
C    5.31094340e-01      -1.19032783e+00     -8.21656950e-01     
H    1.61661389e+00      -1.13317198e+00     -7.99177460e-01     
H    1.80050157e-01      -2.11459302e+00     -3.69388911e-01     
C    4.38403625e-02      -1.09464472e+00     -2.25038277e+00     
O    -6.58958322e-01     -1.88902088e-01     -2.67283216e+00     
O    4.93059100e-01      -2.12156790e+00     -2.94688696e+00     
H    1.42819437e-01      -2.05881089e+00     -3.88450793e+00     
O    1.00608566e+00      2.05372444e+00      -1.52329509e+00     
H    5.24899802e-01      2.07403738e+00      -2.35531783e+00     
H    1.33275734e+00      2.94502070e+00      -1.37638000e+00     
O    1.07001911e+00      -6.61860245e-01     2.36870946e+00      
H    1.16652867e+00      -1.61266157e+00     2.52904549e+00      
H    1.23488899e+00      -2.12253988e-01     3.19809439e+00      
O    -2.71912065e+00     -4.28068444e-01     -4.91666262e-01     
H    -2.88349183e+00     -2.25792077e-01     -1.41739992e+00     
H    -3.54966940e+00     -2.78420739e-01     -3.26487450e-02     
O    -4.32991484e-01     -2.04915761e+00     -5.42032762e+00     
H    -7.06161321e-01     -1.22621626e+00     -5.83340805e+00     
H    -8.98447822e-02     -2.57891434e+00     -6.14833600e+00     
O    1.17407669e+00      -3.42721441e+00     2.24704667e+00      
H    5.52476929e-01      -4.00705129e+00     2.69302939e+00      
H    1.99846076e+00      -3.91849471e+00     2.22776601e+00      
26
1582.465776
N    -1.67975078e-02     -4.43453107e-02     -4.22933640e-02     
H    -1.05677143e+00     -1.32427925e-01     -1.52486522e-01     
H    3.54524378e-01      8.06101040e-01      -5.30180657e-01     
H    3.76210458e-01      -2.21118327e-01     9.17266467e-01      
C    5.31318252e-01      -1.19073728e+00     -8.21691324e-01     
H    1.61672932e+00      -1.12963331e+00     -7.99945590e-01     
H    1.76726112e-01      -2.11349223e+00     -3.68846644e-01     
C    4.41161966e-02      -1.09494386e+00     -2.25013237e+00     
O    -6.59197020e-01     -1.88613186e-01     -2.67302404e+00     
O    4.93066372e-01      -2.12157956e+00     -2.94687173e+00     
H    1.42929546e-01      -2.05887342e+00     -3.88454392e+00     
O    1.00608952e+00      2.05383593e+00      -1.52327806e+00     
H    5.24640779e-01      2.07327191e+00      -2.35512453e+00     
H    1.33300461e+00      2.94498535e+00      -1.37625098e+00     
O    1.07000593e+00      -6.61763513e-01     2.36880360e+00      
H    1.16618280e+00      -1.61273929e+00     2.52828461e+00      
H    1.23507905e+00      -2.12467328e-01     3.19828892e+00      
O    -2.71920323e+00     -4.28026417e-01     -4.91596600e-01     
H    -2.88278170e+00     -2.25758316e-01     -1.41745269e+00     
H    -3.54982611e+00     -2.78604465e-01     -3.26879727e-02     
O    -4.33006722e-01     -2.04921523e+00     -5.42011532e+00     
H    -7.05533776e-01     -1.22689188e+00     -5.83534595e+00     
H    -9.02513027e-02     -2.57734181e+00     -6.14979556e+00     
O    1.17406888e+00      -3.42716650e+00     2.24702612e+00      
H    5.52865496e-01      -4.00747526e+00     2.69310606e+00      
H    1.99821874e+00      -3.91894443e+00     2.22806627e+00      
26
1582.465776
N    -1.84892388e-02     -4.08892313e-02     -3.93887916e-02     
H    -1.05856274e+00     -1.52511789e-01     -1.72592813e-01     
H    3.66180652e-01      7.95470668e-01      -5.49635210e-01     
H    3.93634723e-01      -2.44701394e-01     9.12343479e-01      
C    5.31766076e-01      -1.19155619e+00     -8.21760072e-01     
H    1.61696016e+00      -1.12255597e+00     -8.01481849e-01     
H    1.70078022e-01      -2.11129066e+00     -3.67762110e-01     
C    4.46678648e-02      -1.09554213e+00     -2.24963158e+00     
O    -6.59674417e-01     -1.88035381e-01     -2.67340779e+00     
O    4.93080917e-01      -2.12160288e+00     -2.94684126e+00     
H    1.43149766e-01      -2.05899848e+00     -3.88461589e+00     
O    1.00609724e+00      2.05405891e+00      -1.52324401e+00     
H    5.24122733e-01      2.07174098e+00      -2.35473792e+00     
H    1.33349915e+00      2.94491466e+00      -1.37599296e+00     
O    1.06997958e+00      -6.61570051e-01     2.36899189e+00      
H    1.16549107e+00      -1.61289475e+00     2.52676285e+00      
H    1.23545916e+00      -2.12894009e-01     3.19867796e+00      
O    -2.71936841e+00     -4.27942363e-01     -4.91457276e-01     
H    -2.88136142e+00     -2.25690794e-01     -1.41755824e+00     
H    -3.55013954e+00     -2.78971917e-01     -3.27664280e-02     
O    -4.33037197e-01     -2.04933048e+00     -5.41969072e+00     
H    -7.04278687e-01     -1.22824311e+00     -5.83922175e+00     
H    -9.10643438e-02     -2.57419674e+00     -6.15271469e+00     
O    1.17405326e+00      -3.42707069e+00     2.24698500e+00      
H    5.53642629e-01      -4.00832321e+00     2.69325938e+00      
H    1.99773469e+00      -3.91984386e+00     2.22866680e+00      
