26
1404.989030
N    -1.54196736e-02     -5.27281862e-02     -5.94585272e-02     
H    -1.05652084e+00     -8.13785027e-02     -5.85000575e-02     
H    3.41690475e-01      8.47160133e-01      -4.44758517e-01     
H    3.37064126e-01      -1.76235059e-01     9.17692911e-01      
C    5.34274742e-01      -1.18334458e+00     -7.95175811e-01     
H    1.62395291e+00      -1.14746060e+00     -8.84516915e-01     
H    1.58482729e-01      -2.14985313e+00     -4.47618688e-01     
C    4.05193686e-02      -1.08944343e+00     -2.25177398e+00     
O    -6.53022202e-01     -1.97027384e-01     -2.66994562e+00     
O    4.86575484e-01      -2.11391984e+00     -2.95119050e+00     
H    2.07912130e-01      -2.17502609e+00     -3.91919189e+00     
O    1.00584104e+00      2.05332670e+00      -1.52394089e+00     
H    5.27021549e-01      2.07697844e+00      -2.35726917e+00     
H    1.33218041e+00      2.94411913e+00      -1.37282452e+00     
O    1.07019242e+00      -6.62313454e-01     2.36858388e+00      
H    1.16650275e+00      -1.61295879e+00     2.53020288e+00      
H    1.23372721e+00      -2.09296200e-01     3.19606395e+00      
O    -2.71897308e+00     -4.28162107e-01     -4.92553675e-01     
H    -2.88690495e+00     -2.27268798e-01     -1.41787797e+00     
H    -3.54667493e+00     -2.77410978e-01     -2.87884439e-02     
O    -4.33759678e-01     -2.04713469e+00     -5.42104320e+00     
H    -7.12071631e-01     -1.22578833e+00     -5.83025025e+00     
H    -8.28521718e-02     -2.59006950e+00     -6.13482916e+00     
O    1.17414579e+00      -3.42745473e+00     2.24714593e+00      
H    5.50450642e-01      -4.00492811e+00     2.69254380e+00      
H    1.99954350e+00      -3.91654304e+00     2.22630878e+00      
26
1404.989030
N    -1.44953339e-02     -5.32245269e-02     -5.73456658e-02     
H    -1.05524001e+00     -7.90779601e-02     -6.69169555e-02     
H    3.36156745e-01      8.44868138e-01      -4.51523137e-01     
H    3.33782511e-01      -1.69768575e-01     9.21278541e-01      
C    5.33199751e-01      -1.18457857e+00     -8.01753128e-01     
H    1.62197388e+00      -1.14831178e+00     -8.62221889e-01     
H    1.68029643e-01      -2.14241408e+00     -4.28739077e-01     
C    4.10048245e-02      -1.09036983e+00     -2.25173918e+00     
O    -6.54207859e-01     -1.95357188e-01     -2.67042741e+00     
O    4.88187298e-01      -2.11581728e+00     -2.95013366e+00     
H    1.91501319e-01      -2.14589413e+00     -3.91047591e+00     
O    1.00589737e+00      2.05328678e+00      -1.52380073e+00     
H    5.26814891e-01      2.07720001e+00      -2.35702296e+00     
H    1.33201555e+00      2.94438871e+00      -1.37387466e+00     
O    1.07016556e+00      -6.62321066e-01     2.36849759e+00      
H    1.16694157e+00      -1.61278733e+00     2.53086464e+00      
H    1.23378009e+00      -2.09768971e-01     3.19632841e+00      
O    -2.71890674e+00     -4.28191225e-01     -4.92418899e-01     
H    -2.88693934e+00     -2.26941819e-01     -1.41769249e+00     
H    -3.54722765e+00     -2.77433761e-01     -2.97044846e-02     
O    -4.33548583e-01     -2.04756839e+00     -5.42112968e+00     
H    -7.11378484e-01     -1.22505079e+00     -5.82861732e+00     
H    -8.40921738e-02     -2.58924637e+00     -6.13638142e+00     
O    1.17413828e+00      -3.42745453e+00     2.24714681e+00      
H    5.50471506e-01      -4.00492893e+00     2.69256937e+00      
H    1.99957535e+00      -3.91646881e+00     2.22629776e+00      
26
1404.989030
N    -1.40331640e-02     -5.34726972e-02     -5.62892350e-02     
H    -1.05459960e+00     -7.79276888e-02     -7.11254045e-02     
H    3.33389880e-01      8.43722141e-01      -4.54905446e-01     
H    3.32141703e-01      -1.66535333e-01     9.23071355e-01      
C    5.32662256e-01      -1.18519557e+00     -8.05041787e-01     
H    1.62098436e+00      -1.14873737e+00     -8.51074376e-01     
H    1.72803099e-01      -2.13869456e+00     -4.19299272e-01     
C    4.12475524e-02      -1.09083303e+00     -2.25172178e+00     
O    -6.54800687e-01     -1.94522090e-01     -2.67066830e+00     
O    4.88993204e-01      -2.11676599e+00     -2.94960524e+00     
H    1.83295914e-01      -2.13132815e+00     -3.90611793e+00     
O    1.00592553e+00      2.05326681e+00      -1.52373064e+00     
H    5.26711562e-01      2.07731079e+00      -2.35689986e+00     
H    1.33193313e+00      2.94452349e+00      -1.37439973e+00     
O    1.07015213e+00      -6.62324871e-01     2.36845445e+00      
H    1.16716098e+00      -1.61270159e+00     2.53119551e+00      
H    1.23380652e+00      -2.10005357e-01     3.19646064e+00      
O    -2.71887357e+00     -4.28205783e-01     -4.92351511e-01     
H    -2.88695654e+00     -2.26778329e-01     -1.41759975e+00     
H    -3.54750401e+00     -2.77445153e-01     -3.01625050e-02     
O    -4.33443035e-01     -2.04778524e+00     -5.42117292e+00     
H    -7.11031911e-01     -1.22468203e+00     -5.82780086e+00     
H    -8.47121748e-02     -2.58883481e+00     -6.13715754e+00     
O    1.17413452e+00      -3.42745443e+00     2.24714725e+00      
H    5.50481938e-01      -4.00492935e+00     2.69258215e+00      
H    1.99959127e+00      -3.91643170e+00     2.22629225e+00      
26
1404.989030
N    -1.35709942e-02     -5.37208676e-02     -5.52328043e-02     
H    -1.05395918e+00     -7.67774175e-02     -7.53338535e-02     
H    3.30623015e-01      8.42576144e-01      -4.58287756e-01     
H    3.30500895e-01      -1.63302091e-01     9.24864170e-01      
C    5.32124761e-01      -1.18581257e+00     -8.08330446e-01     
H    1.61999484e+00      -1.14916297e+00     -8.39926863e-01     
H    1.77576556e-01      -2.13497504e+00     -4.09859467e-01     
C    4.14902803e-02      -1.09129624e+00     -2.25170437e+00     
O    -6.55393516e-01     -1.93686992e-01     -2.67090920e+00     
O    4.89799111e-01      -2.11771471e+00     -2.94907682e+00     
H    1.75090509e-01      -2.11676217e+00     -3.90175994e+00     
O    1.00595369e+00      2.05324685e+00      -1.52366056e+00     
H    5.26608233e-01      2.07742157e+00      -2.35677675e+00     
H    1.33185070e+00      2.94465828e+00      -1.37492479e+00     
O    1.07013870e+00      -6.62328677e-01     2.36841131e+00      
H    1.16738039e+00      -1.61261586e+00     2.53152639e+00      
H    1.23383296e+00      -2.10241743e-01     3.19659286e+00      
O    -2.71884040e+00     -4.28220342e-01     -4.92284124e-01     
H    -2.88697374e+00     -2.26614840e-01     -1.41750701e+00     
H    -3.54778037e+00     -2.77456544e-01     -3.06205254e-02     
O    -4.33337487e-01     -2.04800209e+00     -5.42121616e+00     
H    -7.10685337e-01     -1.22431326e+00     -5.82698440e+00     
H    -8.53321757e-02     -2.58842325e+00     -6.13793367e+00     
O    1.17413077e+00      -3.42745434e+00     2.24714770e+00      
H    5.50492369e-01      -4.00492976e+00     2.69259493e+00      
H    1.99960719e+00      -3.91639459e+00     2.22628674e+00      
26
1404.989030
N    -1.31088243e-02     -5.39690379e-02     -5.41763736e-02     
H    -1.05331877e+00     -7.56271461e-02     -7.95423025e-02     
H    3.27856151e-01      8.41430147e-01      -4.61670066e-01     
H    3.28860087e-01      -1.60068850e-01     9.26656984e-01      
C    5.31587266e-01      -1.18642957e+00     -8.11619104e-01     
H    1.61900533e+00      -1.14958856e+00     -8.28779350e-01     
H    1.82350013e-01      -2.13125552e+00     -4.00419662e-01     
C    4.17330082e-02      -1.09175944e+00     -2.25168697e+00     
O    -6.55986344e-01     -1.92851894e-01     -2.67115009e+00     
O    4.90605018e-01      -2.11866343e+00     -2.94854839e+00     
H    1.66885104e-01      -2.10219619e+00     -3.89740196e+00     
O    1.00598186e+00      2.05322689e+00      -1.52359048e+00     
H    5.26504904e-01      2.07753235e+00      -2.35665365e+00     
H    1.33176827e+00      2.94479307e+00      -1.37544986e+00     
O    1.07012527e+00      -6.62332483e-01     2.36836816e+00      
H    1.16759979e+00      -1.61253013e+00     2.53185727e+00      
H    1.23385940e+00      -2.10478129e-01     3.19672509e+00      
O    -2.71880723e+00     -4.28234901e-01     -4.92216736e-01     
H    -2.88699094e+00     -2.26451350e-01     -1.41741427e+00     
H    -3.54805674e+00     -2.77467936e-01     -3.10785457e-02     
O    -4.33231939e-01     -2.04821894e+00     -5.42125940e+00     
H    -7.10338764e-01     -1.22394449e+00     -5.82616793e+00     
H    -8.59521767e-02     -2.58801169e+00     -6.13870980e+00     
O    1.17412701e+00      -3.42745424e+00     2.24714814e+00      
H    5.50502801e-01      -4.00493018e+00     2.69260772e+00      
H    1.99962312e+00      -3.91635748e+00     2.22628123e+00      
26
1404.989030
N    -1.26466545e-02     -5.42172082e-02     -5.31199429e-02     
H    -1.05267835e+00     -7.44768748e-02     -8.37507514e-02     
H    3.25089286e-01      8.40284149e-01      -4.65052376e-01     
H    3.27219279e-01      -1.56835608e-01     9.28449799e-01      
C    5.31049770e-01      -1.18704656e+00     -8.14907763e-01     
H    1.61801581e+00      -1.15001415e+00     -8.17631837e-01     
H    1.87123470e-01      -2.12753600e+00     -3.90979856e-01     
C    4.19757362e-02      -1.09222264e+00     -2.25166957e+00     
O    -6.56579173e-01     -1.92016796e-01     -2.67139099e+00     
O    4.91410925e-01      -2.11961215e+00     -2.94801997e+00     
H    1.58679698e-01      -2.08763021e+00     -3.89304397e+00     
O    1.00601002e+00      2.05320693e+00      -1.52352040e+00     
H    5.26401575e-01      2.07764314e+00      -2.35653055e+00     
H    1.33168584e+00      2.94492786e+00      -1.37597493e+00     
O    1.07011184e+00      -6.62336289e-01     2.36832502e+00      
H    1.16781920e+00      -1.61244440e+00     2.53218815e+00      
H    1.23388584e+00      -2.10714514e-01     3.19685732e+00      
O    -2.71877406e+00     -4.28249460e-01     -4.92149348e-01     
H    -2.88700813e+00     -2.26287861e-01     -1.41732153e+00     
H    -3.54833310e+00     -2.77479327e-01     -3.15365661e-02     
O    -4.33126392e-01     -2.04843579e+00     -5.42130264e+00     
H    -7.09992191e-01     -1.22357572e+00     -5.82535147e+00     
H    -8.65721777e-02     -2.58760012e+00     -6.13948593e+00     
O    1.17412325e+00      -3.42745414e+00     2.24714858e+00      
H    5.50513233e-01      -4.00493059e+00     2.69262050e+00      
H    1.99963904e+00      -3.91632036e+00     2.22627572e+00      
26
1404.989030
N    -1.24155696e-02     -5.43412934e-02     -5.25917275e-02     
H    -1.05235814e+00     -7.39017392e-02     -8.58549759e-02     
H    3.23705853e-01      8.39711151e-01      -4.66743531e-01     
H    3.26398875e-01      -1.55218987e-01     9.29346206e-01      
C    5.30781023e-01      -1.18735506e+00     -8.16552092e-01     
H    1.61752105e+00      -1.15022694e+00     -8.12058081e-01     
H    1.89510198e-01      -2.12567624e+00     -3.86259954e-01     
C    4.20971001e-02      -1.09245425e+00     -2.25166086e+00     
O    -6.56875587e-01     -1.91599247e-01     -2.67151144e+00     
O    4.91813878e-01      -2.12008650e+00     -2.94775576e+00     
H    1.54576996e-01      -2.08034722e+00     -3.89086498e+00     
O    1.00602410e+00      2.05319694e+00      -1.52348535e+00     
H    5.26349910e-01      2.07769853e+00      -2.35646900e+00     
H    1.33164463e+00      2.94499525e+00      -1.37623746e+00     
O    1.07010513e+00      -6.62338192e-01     2.36830345e+00      
H    1.16792891e+00      -1.61240153e+00     2.53235358e+00      
H    1.23389905e+00      -2.10832707e-01     3.19692344e+00      
O    -2.71875747e+00     -4.28256740e-01     -4.92115654e-01     
H    -2.88701673e+00     -2.26206116e-01     -1.41727516e+00     
H    -3.54847128e+00     -2.77485023e-01     -3.17655763e-02     
O    -4.33073618e-01     -2.04854422e+00     -5.42132426e+00     
H    -7.09818904e-01     -1.22339134e+00     -5.82494324e+00     
H    -8.68821782e-02     -2.58739434e+00     -6.13987399e+00     
O    1.17412138e+00      -3.42745410e+00     2.24714880e+00      
H    5.50518448e-01      -4.00493080e+00     2.69262689e+00      
H    1.99964700e+00      -3.91630181e+00     2.22627296e+00      
26
1404.989030
N    -1.21844846e-02     -5.44653786e-02     -5.20635121e-02     
H    -1.05203794e+00     -7.33266035e-02     -8.79592004e-02     
H    3.22322421e-01      8.39138152e-01      -4.68434686e-01     
H    3.25578471e-01      -1.53602366e-01     9.30242613e-01      
C    5.30512275e-01      -1.18766356e+00     -8.18196421e-01     
H    1.61702630e+00      -1.15043974e+00     -8.06484324e-01     
H    1.91896926e-01      -2.12381648e+00     -3.81540051e-01     
C    4.22184641e-02      -1.09268585e+00     -2.25165216e+00     
O    -6.57172001e-01     -1.91181698e-01     -2.67163188e+00     
O    4.92216831e-01      -2.12056086e+00     -2.94749155e+00     
H    1.50474293e-01      -2.07306423e+00     -3.88868599e+00     
O    1.00603819e+00      2.05318696e+00      -1.52345031e+00     
H    5.26298246e-01      2.07775392e+00      -2.35640744e+00     
H    1.33160342e+00      2.94506264e+00      -1.37649999e+00     
O    1.07009841e+00      -6.62340095e-01     2.36828187e+00      
H    1.16803861e+00      -1.61235866e+00     2.53251902e+00      
H    1.23391227e+00      -2.10950900e-01     3.19698955e+00      
O    -2.71874089e+00     -4.28264019e-01     -4.92081960e-01     
H    -2.88702533e+00     -2.26124371e-01     -1.41722879e+00     
H    -3.54860946e+00     -2.77490719e-01     -3.19945864e-02     
O    -4.33020844e-01     -2.04865264e+00     -5.42134588e+00     
H    -7.09645617e-01     -1.22320696e+00     -5.82453500e+00     
H    -8.71921787e-02     -2.58718856e+00     -6.14026205e+00     
O    1.17411950e+00      -3.42745405e+00     2.24714902e+00      
H    5.50523664e-01      -4.00493101e+00     2.69263329e+00      
H    1.99965497e+00      -3.91628325e+00     2.22627021e+00      
26
1404.989030
N    -1.12601450e-02     -5.49617192e-02     -4.99506507e-02     
H    -1.05075710e+00     -7.10260609e-02     -9.63760984e-02     
H    3.16788691e-01      8.36846158e-01      -4.75199306e-01     
H    3.22296855e-01      -1.47135882e-01     9.33828243e-01      
C    5.29437285e-01      -1.18889756e+00     -8.24773739e-01     
H    1.61504726e+00      -1.15129092e+00     -7.84189298e-01     
H    2.01443840e-01      -2.11637744e+00     -3.62660441e-01     
C    4.27039199e-02      -1.09361225e+00     -2.25161736e+00     
O    -6.58357659e-01     -1.89511502e-01     -2.67211368e+00     
O    4.93828645e-01      -2.12245830e+00     -2.94643471e+00     
H    1.34063483e-01      -2.04393227e+00     -3.87997001e+00     
O    1.00609451e+00      2.05314704e+00      -1.52331015e+00     
H    5.26091588e-01      2.07797548e+00      -2.35616124e+00     
H    1.33143856e+00      2.94533222e+00      -1.37755013e+00     
O    1.07007155e+00      -6.62347707e-01     2.36819559e+00      
H    1.16847743e+00      -1.61218720e+00     2.53318078e+00      
H    1.23396515e+00      -2.11423672e-01     3.19725401e+00      
O    -2.71867455e+00     -4.28293137e-01     -4.91947184e-01     
H    -2.88705973e+00     -2.25797393e-01     -1.41704331e+00     
H    -3.54916218e+00     -2.77513501e-01     -3.29106272e-02     
O    -4.32809748e-01     -2.04908634e+00     -5.42143236e+00     
H    -7.08952471e-01     -1.22246942e+00     -5.82290208e+00     
H    -8.84321807e-02     -2.58636544e+00     -6.14181431e+00     
O    1.17411198e+00      -3.42745385e+00     2.24714990e+00      
H    5.50544528e-01      -4.00493183e+00     2.69265885e+00      
H    1.99968681e+00      -3.91620903e+00     2.22625919e+00      
26
1404.989030
N    -1.10290600e-02     -5.50858044e-02     -4.94224353e-02     
H    -1.05043690e+00     -7.04509252e-02     -9.84803229e-02     
H    3.15405259e-01      8.36273159e-01      -4.76890461e-01     
H    3.21476451e-01      -1.45519261e-01     9.34724650e-01      
C    5.29168537e-01      -1.18920606e+00     -8.26418068e-01     
H    1.61455251e+00      -1.15150372e+00     -7.78615541e-01     
H    2.03830568e-01      -2.11451768e+00     -3.57940538e-01     
C    4.28252839e-02      -1.09384385e+00     -2.25160866e+00     
O    -6.58654073e-01     -1.89093953e-01     -2.67223412e+00     
O    4.94231598e-01      -2.12293266e+00     -2.94617050e+00     
H    1.29960780e-01      -2.03664928e+00     -3.87779102e+00     
O    1.00610860e+00      2.05313706e+00      -1.52327511e+00     
H    5.26039924e-01      2.07803087e+00      -2.35609968e+00     
H    1.33139735e+00      2.94539961e+00      -1.37781266e+00     
O    1.07006483e+00      -6.62349610e-01     2.36817401e+00      
H    1.16858713e+00      -1.61214433e+00     2.53334622e+00      
H    1.23397837e+00      -2.11541865e-01     3.19732012e+00      
O    -2.71865797e+00     -4.28300416e-01     -4.91913490e-01     
H    -2.88706833e+00     -2.25715648e-01     -1.41699694e+00     
H    -3.54930036e+00     -2.77519197e-01     -3.31396373e-02     
O    -4.32756974e-01     -2.04919476e+00     -5.42145398e+00     
H    -7.08779184e-01     -1.22228504e+00     -5.82249384e+00     
H    -8.87421812e-02     -2.58615966e+00     -6.14220237e+00     
O    1.17411010e+00      -3.42745380e+00     2.24715012e+00      
H    5.50549744e-01      -4.00493204e+00     2.69266525e+00      
H    1.99969478e+00      -3.91619047e+00     2.22625644e+00      
26
1404.989030
N    -1.07979751e-02     -5.52098896e-02     -4.88942199e-02     
H    -1.05011669e+00     -6.98757896e-02     -1.00584547e-01     
H    3.14021826e-01      8.35700161e-01      -4.78581616e-01     
H    3.20656047e-01      -1.43902640e-01     9.35621057e-01      
C    5.28899790e-01      -1.18951456e+00     -8.28062397e-01     
H    1.61405775e+00      -1.15171651e+00     -7.73041785e-01     
H    2.06217296e-01      -2.11265792e+00     -3.53220636e-01     
C    4.29466478e-02      -1.09407546e+00     -2.25159995e+00     
O    -6.58950487e-01     -1.88676404e-01     -2.67235457e+00     
O    4.94634551e-01      -2.12340701e+00     -2.94590629e+00     
H    1.25858078e-01      -2.02936629e+00     -3.87561203e+00     
O    1.00612268e+00      2.05312707e+00      -1.52324006e+00     
H    5.25988259e-01      2.07808626e+00      -2.35603813e+00     
H    1.33135614e+00      2.94546700e+00      -1.37807519e+00     
O    1.07005812e+00      -6.62351513e-01     2.36815244e+00      
H    1.16869684e+00      -1.61210146e+00     2.53351165e+00      
H    1.23399158e+00      -2.11660058e-01     3.19738624e+00      
O    -2.71864138e+00     -4.28307696e-01     -4.91879796e-01     
H    -2.88707693e+00     -2.25633903e-01     -1.41695057e+00     
H    -3.54943854e+00     -2.77524893e-01     -3.33686475e-02     
O    -4.32704200e-01     -2.04930319e+00     -5.42147560e+00     
H    -7.08605897e-01     -1.22210066e+00     -5.82208561e+00     
H    -8.90521817e-02     -2.58595388e+00     -6.14259043e+00     
O    1.17410823e+00      -3.42745376e+00     2.24715034e+00      
H    5.50554959e-01      -4.00493225e+00     2.69267164e+00      
H    1.99970274e+00      -3.91617192e+00     2.22625368e+00      
26
1404.989030
N    -1.03358053e-02     -5.54580599e-02     -4.78377892e-02     
H    -1.04947627e+00     -6.87255183e-02     -1.04792996e-01     
H    3.11254961e-01      8.34554163e-01      -4.81963926e-01     
H    3.19015239e-01      -1.40669398e-01     9.37413872e-01      
C    5.28362294e-01      -1.19013155e+00     -8.31351056e-01     
H    1.61306823e+00      -1.15214210e+00     -7.61894272e-01     
H    2.10990753e-01      -2.10893840e+00     -3.43780830e-01     
C    4.31893758e-02      -1.09453866e+00     -2.25158255e+00     
O    -6.59543316e-01     -1.87841306e-01     -2.67259547e+00     
O    4.95440458e-01      -2.12435573e+00     -2.94537787e+00     
H    1.17652672e-01      -2.01480031e+00     -3.87125404e+00     
O    1.00615084e+00      2.05310711e+00      -1.52316998e+00     
H    5.25884930e-01      2.07819705e+00      -2.35591503e+00     
H    1.33127371e+00      2.94560179e+00      -1.37860026e+00     
O    1.07004469e+00      -6.62355319e-01     2.36810930e+00      
H    1.16891625e+00      -1.61201573e+00     2.53384253e+00      
H    1.23401802e+00      -2.11896443e-01     3.19751847e+00      
O    -2.71860821e+00     -4.28322255e-01     -4.91812408e-01     
H    -2.88709412e+00     -2.25470414e-01     -1.41685783e+00     
H    -3.54971490e+00     -2.77536284e-01     -3.38266679e-02     
O    -4.32598653e-01     -2.04952004e+00     -5.42151884e+00     
H    -7.08259324e-01     -1.22173189e+00     -5.82126915e+00     
H    -8.96721827e-02     -2.58554231e+00     -6.14336656e+00     
O    1.17410447e+00      -3.42745366e+00     2.24715078e+00      
H    5.50565391e-01      -4.00493266e+00     2.69268442e+00      
H    1.99971866e+00      -3.91613480e+00     2.22624817e+00      
26
1404.989030
N    -9.87363542e-03     -5.57062302e-02     -4.67813585e-02     
H    -1.04883586e+00     -6.75752469e-02     -1.09001445e-01     
H    3.08488097e-01      8.33408166e-01      -4.85346236e-01     
H    3.17374431e-01      -1.37436157e-01     9.39206686e-01      
C    5.27824799e-01      -1.19074855e+00     -8.34639714e-01     
H    1.61207872e+00      -1.15256769e+00     -7.50746759e-01     
H    2.15764210e-01      -2.10521888e+00     -3.34341025e-01     
C    4.34321037e-02      -1.09500186e+00     -2.25156515e+00     
O    -6.60136144e-01     -1.87006208e-01     -2.67283636e+00     
O    4.96246365e-01      -2.12530445e+00     -2.94484944e+00     
H    1.09447267e-01      -2.00023433e+00     -3.86689606e+00     
O    1.00617901e+00      2.05308715e+00      -1.52309990e+00     
H    5.25781601e-01      2.07830783e+00      -2.35579193e+00     
H    1.33119128e+00      2.94573658e+00      -1.37912533e+00     
O    1.07003126e+00      -6.62359125e-01     2.36806615e+00      
H    1.16913565e+00      -1.61193000e+00     2.53417341e+00      
H    1.23404446e+00      -2.12132829e-01     3.19765070e+00      
O    -2.71857504e+00     -4.28336814e-01     -4.91745020e-01     
H    -2.88711132e+00     -2.25306924e-01     -1.41676509e+00     
H    -3.54999127e+00     -2.77547676e-01     -3.42846882e-02     
O    -4.32493105e-01     -2.04973689e+00     -5.42156208e+00     
H    -7.07912751e-01     -1.22136312e+00     -5.82045268e+00     
H    -9.02921837e-02     -2.58513075e+00     -6.14414269e+00     
O    1.17410071e+00      -3.42745356e+00     2.24715122e+00      
H    5.50575823e-01      -4.00493308e+00     2.69269721e+00      
H    1.99973459e+00      -3.91609769e+00     2.22624266e+00      
26
1404.989030
N    -9.41146558e-03     -5.59544006e-02     -4.57249278e-02     
H    -1.04819544e+00     -6.64249756e-02     -1.13209894e-01     
H    3.05721232e-01      8.32262169e-01      -4.88728546e-01     
H    3.15733623e-01      -1.34202915e-01     9.40999501e-01      
C    5.27287304e-01      -1.19136555e+00     -8.37928373e-01     
H    1.61108920e+00      -1.15299329e+00     -7.39599246e-01     
H    2.20537667e-01      -2.10149936e+00     -3.24901220e-01     
C    4.36748316e-02      -1.09546507e+00     -2.25154774e+00     
O    -6.60728973e-01     -1.86171110e-01     -2.67307726e+00     
O    4.97052272e-01      -2.12625317e+00     -2.94432102e+00     
H    1.01241862e-01      -1.98566835e+00     -3.86253807e+00     
O    1.00620717e+00      2.05306719e+00      -1.52302982e+00     
H    5.25678272e-01      2.07841861e+00      -2.35566882e+00     
H    1.33110885e+00      2.94587137e+00      -1.37965039e+00     
O    1.07001783e+00      -6.62362931e-01     2.36802301e+00      
H    1.16935506e+00      -1.61184427e+00     2.53450429e+00      
H    1.23407090e+00      -2.12369215e-01     3.19778292e+00      
O    -2.71854187e+00     -4.28351373e-01     -4.91677633e-01     
H    -2.88712852e+00     -2.25143435e-01     -1.41667235e+00     
H    -3.55026763e+00     -2.77559067e-01     -3.47427086e-02     
O    -4.32387557e-01     -2.04995374e+00     -5.42160532e+00     
H    -7.07566177e-01     -1.22099435e+00     -5.81963622e+00     
H    -9.09121846e-02     -2.58471919e+00     -6.14491882e+00     
O    1.17409696e+00      -3.42745347e+00     2.24715167e+00      
H    5.50586254e-01      -4.00493349e+00     2.69270999e+00      
H    1.99975051e+00      -3.91606058e+00     2.22623715e+00      
26
1404.989030
N    -8.94929573e-03     -5.62025709e-02     -4.46684970e-02     
H    -1.04755503e+00     -6.52747043e-02     -1.17418343e-01     
H    3.02954367e-01      8.31116172e-01      -4.92110855e-01     
H    3.14092815e-01      -1.30969673e-01     9.42792315e-01      
C    5.26749809e-01      -1.19198255e+00     -8.41217032e-01     
H    1.61009968e+00      -1.15341888e+00     -7.28451733e-01     
H    2.25311123e-01      -2.09777984e+00     -3.15461415e-01     
C    4.39175595e-02      -1.09592827e+00     -2.25153034e+00     
O    -6.61321801e-01     -1.85336012e-01     -2.67331815e+00     
O    4.97858178e-01      -2.12720188e+00     -2.94379260e+00     
H    9.30364568e-02      -1.97110237e+00     -3.85818009e+00     
O    1.00623533e+00      2.05304722e+00      -1.52295973e+00     
H    5.25574943e-01      2.07852939e+00      -2.35554572e+00     
H    1.33102643e+00      2.94600615e+00      -1.38017546e+00     
O    1.07000440e+00      -6.62366736e-01     2.36797987e+00      
H    1.16957447e+00      -1.61175853e+00     2.53483516e+00      
H    1.23409733e+00      -2.12605601e-01     3.19791515e+00      
O    -2.71850870e+00     -4.28365931e-01     -4.91610245e-01     
H    -2.88714572e+00     -2.24979945e-01     -1.41657961e+00     
H    -3.55054399e+00     -2.77570459e-01     -3.52007290e-02     
O    -4.32282009e-01     -2.05017059e+00     -5.42164856e+00     
H    -7.07219604e-01     -1.22062559e+00     -5.81881976e+00     
H    -9.15321856e-02     -2.58430763e+00     -6.14569494e+00     
O    1.17409320e+00      -3.42745337e+00     2.24715211e+00      
H    5.50596686e-01      -4.00493391e+00     2.69272277e+00      
H    1.99976643e+00      -3.91602347e+00     2.22623164e+00      
26
1404.989030
N    -8.02495604e-03     -5.66989116e-02     -4.25556356e-02     
H    -1.04627420e+00     -6.29741617e-02     -1.25835241e-01     
H    2.97420637e-01      8.28824177e-01      -4.98875475e-01     
H    3.10811200e-01      -1.24503189e-01     9.46377945e-01      
C    5.25674818e-01      -1.19321654e+00     -8.47794349e-01     
H    1.60812065e+00      -1.15427006e+00     -7.06156707e-01     
H    2.34858037e-01      -2.09034079e+00     -2.96581804e-01     
C    4.44030154e-02      -1.09685467e+00     -2.25149554e+00     
O    -6.62507458e-01     -1.83665816e-01     -2.67379994e+00     
O    4.99469992e-01      -2.12909932e+00     -2.94273576e+00     
H    7.66256464e-02      -1.94197041e+00     -3.84946411e+00     
O    1.00629166e+00      2.05300730e+00      -1.52281957e+00     
H    5.25368285e-01      2.07875096e+00      -2.35529951e+00     
H    1.33086157e+00      2.94627573e+00      -1.38122560e+00     
O    1.06997754e+00      -6.62374348e-01     2.36789358e+00      
H    1.17001329e+00      -1.61158707e+00     2.53549692e+00      
H    1.23415021e+00      -2.13078372e-01     3.19817961e+00      
O    -2.71844236e+00     -4.28395049e-01     -4.91475469e-01     
H    -2.88718011e+00     -2.24652966e-01     -1.41639413e+00     
H    -3.55109671e+00     -2.77593242e-01     -3.61167697e-02     
O    -4.32070914e-01     -2.05060429e+00     -5.42173504e+00     
H    -7.06526457e-01     -1.21988805e+00     -5.81718683e+00     
H    -9.27721876e-02     -2.58348450e+00     -6.14724720e+00     
O    1.17408569e+00      -3.42745317e+00     2.24715299e+00      
H    5.50617550e-01      -4.00493473e+00     2.69274834e+00      
H    1.99979828e+00      -3.91594924e+00     2.22622062e+00      
