26
1652.025062
N    -1.17180685e-02     -5.46099799e-02     -5.14713958e-02     
H    -1.05412106e+00     -8.79865951e-02     -8.21213460e-02     
H    3.39374381e-01      8.33267472e-01      -4.70115948e-01     
H    3.14303473e-01      -1.37214431e-01     9.36778356e-01      
C    5.29394063e-01      -1.18814870e+00     -8.23769784e-01     
H    1.61519043e+00      -1.14929696e+00     -7.90908417e-01     
H    1.97008492e-01      -2.11712310e+00     -3.67762674e-01     
C    4.32793493e-02      -1.09374299e+00     -2.24996654e+00     
O    -6.58223508e-01     -1.89643791e-01     -2.67234868e+00     
O    4.93076189e-01      -2.12168875e+00     -2.94711291e+00     
H    1.42540426e-01      -2.05894379e+00     -3.88506862e+00     
O    1.00548437e+00      2.05781936e+00      -1.52681083e+00     
H    5.14267641e-01      2.02280647e+00      -2.35100827e+00     
H    1.35407545e+00      2.92904754e+00      -1.32899519e+00     
O    1.07112092e+00      -6.63781514e-01     2.37173686e+00      
H    1.15942048e+00      -1.62125392e+00     2.49297910e+00      
H    1.22745960e+00      -1.77982800e-01     3.18048967e+00      
O    -2.72926534e+00     -4.25009900e-01     -4.96602629e-01     
H    -2.77552445e+00     -2.51391075e-01     -1.44292761e+00     
H    -3.49883724e+00     -3.06160333e-01     6.70933956e-02      
O    -4.32874610e-01     -2.04840632e+00     -5.42331814e+00     
H    -7.14542396e-01     -1.21654011e+00     -5.80671789e+00     
H    -8.37993315e-02     -2.60050384e+00     -6.12860633e+00     
O    1.17462276e+00      -3.43014085e+00     2.24828925e+00      
H    5.30811443e-01      -3.98600563e+00     2.68946935e+00      
H    2.01172766e+00      -3.89523869e+00     2.21292713e+00      
26
1652.025062
N    -1.17191301e-02     -5.46358721e-02     -5.13553172e-02     
H    -1.05344017e+00     -8.40340294e-02     -8.46329218e-02     
H    3.34419675e-01      8.34448643e-01      -4.70541210e-01     
H    3.16712021e-01      -1.40503104e-01     9.35592624e-01      
C    5.29539242e-01      -1.18818166e+00     -8.23198608e-01     
H    1.61540202e+00      -1.14968905e+00     -7.92015515e-01     
H    1.96923965e-01      -2.11786656e+00     -3.68847067e-01     
C    4.30748100e-02      -1.09359450e+00     -2.25038360e+00     
O    -6.58108839e-01     -1.89819493e-01     -2.67222970e+00     
O    4.93062826e-01      -2.12164396e+00     -2.94707546e+00     
H    1.42472542e-01      -2.05883241e+00     -3.88488346e+00     
O    1.00562987e+00      2.05665627e+00      -1.52595318e+00     
H    5.17249460e-01      2.03657103e+00      -2.35232729e+00     
H    1.34843684e+00      2.93308501e+00      -1.34100265e+00     
O    1.07086193e+00      -6.63422110e-01     2.37086233e+00      
H    1.16162986e+00      -1.61900867e+00     2.50294680e+00      
H    1.22907937e+00      -1.86283922e-01     3.18464770e+00      
O    -2.72662594e+00     -4.25827070e-01     -4.95455615e-01     
H    -2.80340397e+00     -2.45033526e-01     -1.43647972e+00     
H    -3.51134939e+00     -2.98995778e-01     4.22068950e-02      
O    -4.32884782e-01     -2.04852211e+00     -5.42283588e+00     
H    -7.13231558e-01     -1.21811463e+00     -5.81096805e+00     
H    -8.48025435e-02     -2.59707213e+00     -6.13171429e+00     
O    1.17449600e+00      -3.42946912e+00     2.24800430e+00      
H    5.35742106e-01      -3.99073707e+00     2.69026353e+00      
H    2.00871347e+00      -3.90049055e+00     2.21626152e+00      
26
1652.025062
N    -1.17196609e-02     -5.46488183e-02     -5.12972779e-02     
H    -1.05309973e+00     -8.20577465e-02     -8.58887098e-02     
H    3.31942322e-01      8.35039228e-01      -4.70753841e-01     
H    3.17916294e-01      -1.42147441e-01     9.34999758e-01      
C    5.29611832e-01      -1.18819814e+00     -8.22913020e-01     
H    1.61550781e+00      -1.14988510e+00     -7.92569064e-01     
H    1.96881701e-01      -2.11823830e+00     -3.69389263e-01     
C    4.29725403e-02      -1.09352026e+00     -2.25059212e+00     
O    -6.58051504e-01     -1.89907344e-01     -2.67217022e+00     
O    4.93056145e-01      -2.12162156e+00     -2.94705674e+00     
H    1.42438599e-01      -2.05877671e+00     -3.88479089e+00     
O    1.00570261e+00      2.05607472e+00      -1.52552435e+00     
H    5.18740369e-01      2.04345331e+00      -2.35298680e+00     
H    1.34561753e+00      2.93510375e+00      -1.34700639e+00     
O    1.07073244e+00      -6.63242409e-01     2.37042506e+00      
H    1.16273456e+00      -1.61788605e+00     2.50793065e+00      
H    1.22988926e+00      -1.90434483e-01     3.18672671e+00      
O    -2.72530624e+00     -4.26235654e-01     -4.94882107e-01     
H    -2.81734373e+00     -2.41854752e-01     -1.43325578e+00     
H    -3.51760546e+00     -2.95413500e-01     2.97636447e-02      
O    -4.32889868e-01     -2.04858001e+00     -5.42259476e+00     
H    -7.12576139e-01     -1.21890189e+00     -5.81309313e+00     
H    -8.53041496e-02     -2.59535627e+00     -6.13326827e+00     
O    1.17443262e+00      -3.42913326e+00     2.24786183e+00      
H    5.38207438e-01      -3.99310280e+00     2.69066062e+00      
H    2.00720637e+00      -3.90311648e+00     2.21792872e+00      
26
1652.025062
N    -1.17201916e-02     -5.46617644e-02     -5.12392386e-02     
H    -1.05275929e+00     -8.00814636e-02     -8.71444977e-02     
H    3.29464969e-01      8.35629814e-01      -4.70966472e-01     
H    3.19120568e-01      -1.43791777e-01     9.34406892e-01      
C    5.29684422e-01      -1.18821463e+00     -8.22627432e-01     
H    1.61561360e+00      -1.15008115e+00     -7.93122614e-01     
H    1.96839438e-01      -2.11861003e+00     -3.69931460e-01     
C    4.28702707e-02      -1.09344602e+00     -2.25080065e+00     
O    -6.57994169e-01     -1.89995195e-01     -2.67211073e+00     
O    4.93049463e-01      -2.12159917e+00     -2.94703802e+00     
H    1.42404657e-01      -2.05872102e+00     -3.88469831e+00     
O    1.00577536e+00      2.05549318e+00      -1.52509553e+00     
H    5.20231279e-01      2.05033559e+00      -2.35364630e+00     
H    1.34279822e+00      2.93712249e+00      -1.35301012e+00     
O    1.07060295e+00      -6.63062707e-01     2.36998779e+00      
H    1.16383925e+00      -1.61676343e+00     2.51291450e+00      
H    1.23069915e+00      -1.94585043e-01     3.18880573e+00      
O    -2.72398653e+00     -4.26644239e-01     -4.94308600e-01     
H    -2.83128349e+00     -2.38675978e-01     -1.43003183e+00     
H    -3.52386153e+00     -2.91831222e-01     1.73203944e-02      
O    -4.32894953e-01     -2.04863790e+00     -5.42235363e+00     
H    -7.11920720e-01     -1.21968915e+00     -5.81521821e+00     
H    -8.58057556e-02     -2.59364042e+00     -6.13482225e+00     
O    1.17436925e+00      -3.42879740e+00     2.24771935e+00      
H    5.40672769e-01      -3.99546852e+00     2.69105771e+00      
H    2.00569928e+00      -3.90574242e+00     2.21959592e+00      
26
1652.025062
N    -1.17207224e-02     -5.46747105e-02     -5.11811993e-02     
H    -1.05241885e+00     -7.81051808e-02     -8.84002856e-02     
H    3.26987615e-01      8.36220399e-01      -4.71179103e-01     
H    3.20324842e-01      -1.45436114e-01     9.33814026e-01      
C    5.29757011e-01      -1.18823111e+00     -8.22341844e-01     
H    1.61571940e+00      -1.15027719e+00     -7.93676163e-01     
H    1.96797174e-01      -2.11898176e+00     -3.70473656e-01     
C    4.27680010e-02      -1.09337178e+00     -2.25100918e+00     
O    -6.57936834e-01     -1.90083047e-01     -2.67205124e+00     
O    4.93042782e-01      -2.12157677e+00     -2.94701930e+00     
H    1.42370715e-01      -2.05866533e+00     -3.88460573e+00     
O    1.00584811e+00      2.05491163e+00      -1.52466670e+00     
H    5.21722188e-01      2.05721787e+00      -2.35430581e+00     
H    1.33997891e+00      2.93914122e+00      -1.35901386e+00     
O    1.07047346e+00      -6.62883006e-01     2.36955053e+00      
H    1.16494394e+00      -1.61564080e+00     2.51789835e+00      
H    1.23150904e+00      -1.98735604e-01     3.19088474e+00      
O    -2.72266683e+00     -4.27052824e-01     -4.93735093e-01     
H    -2.84522325e+00     -2.35497204e-01     -1.42680789e+00     
H    -3.53011760e+00     -2.88248944e-01     4.87714410e-03      
O    -4.32900039e-01     -2.04869580e+00     -5.42211250e+00     
H    -7.11265301e-01     -1.22047641e+00     -5.81734330e+00     
H    -8.63073616e-02     -2.59192456e+00     -6.13637623e+00     
O    1.17430587e+00      -3.42846154e+00     2.24757688e+00      
H    5.43138101e-01      -3.99783425e+00     2.69145480e+00      
H    2.00419218e+00      -3.90836835e+00     2.22126311e+00      
26
1652.025062
N    -1.17212532e-02     -5.46876566e-02     -5.11231600e-02     
H    -1.05207840e+00     -7.61288979e-02     -8.96560735e-02     
H    3.24510262e-01      8.36810984e-01      -4.71391734e-01     
H    3.21529116e-01      -1.47080451e-01     9.33221160e-01      
C    5.29829601e-01      -1.18824759e+00     -8.22056256e-01     
H    1.61582519e+00      -1.15047324e+00     -7.94229712e-01     
H    1.96754910e-01      -2.11935349e+00     -3.71015853e-01     
C    4.26657313e-02      -1.09329753e+00     -2.25121771e+00     
O    -6.57879500e-01     -1.90170898e-01     -2.67199175e+00     
O    4.93036101e-01      -2.12155437e+00     -2.94700057e+00     
H    1.42336773e-01      -2.05860964e+00     -3.88451315e+00     
O    1.00592086e+00      2.05433009e+00      -1.52423788e+00     
H    5.23213098e-01      2.06410014e+00      -2.35496532e+00     
H    1.33715961e+00      2.94115996e+00      -1.36501759e+00     
O    1.07034396e+00      -6.62703304e-01     2.36911326e+00      
H    1.16604863e+00      -1.61451818e+00     2.52288220e+00      
H    1.23231893e+00      -2.02886165e-01     3.19296375e+00      
O    -2.72134713e+00     -4.27461409e-01     -4.93161586e-01     
H    -2.85916301e+00     -2.32318430e-01     -1.42358394e+00     
H    -3.53637368e+00     -2.84666666e-01     -7.56610620e-03     
O    -4.32905125e-01     -2.04875370e+00     -5.42187137e+00     
H    -7.10609882e-01     -1.22126367e+00     -5.81946838e+00     
H    -8.68089676e-02     -2.59020871e+00     -6.13793022e+00     
O    1.17424249e+00      -3.42812567e+00     2.24743441e+00      
H    5.45603433e-01      -4.00019997e+00     2.69185189e+00      
H    2.00268508e+00      -3.91099428e+00     2.22293031e+00      
26
1652.025062
N    -1.17215186e-02     -5.46941297e-02     -5.10941404e-02     
H    -1.05190818e+00     -7.51407565e-02     -9.02839675e-02     
H    3.23271586e-01      8.37106277e-01      -4.71498049e-01     
H    3.22131252e-01      -1.47902619e-01     9.32924727e-01      
C    5.29865896e-01      -1.18825584e+00     -8.21913462e-01     
H    1.61587809e+00      -1.15057126e+00     -7.94506487e-01     
H    1.96733778e-01      -2.11953936e+00     -3.71286951e-01     
C    4.26145965e-02      -1.09326041e+00     -2.25132197e+00     
O    -6.57850832e-01     -1.90214823e-01     -2.67196201e+00     
O    4.93032760e-01      -2.12154317e+00     -2.94699121e+00     
H    1.42319801e-01      -2.05858179e+00     -3.88446687e+00     
O    1.00595723e+00      2.05403932e+00      -1.52402347e+00     
H    5.23958553e-01      2.06754128e+00      -2.35529508e+00     
H    1.33574995e+00      2.94216933e+00      -1.36801946e+00     
O    1.07027922e+00      -6.62613453e-01     2.36889463e+00      
H    1.16660098e+00      -1.61395687e+00     2.52537412e+00      
H    1.23272388e+00      -2.04961445e-01     3.19400326e+00      
O    -2.72068727e+00     -4.27665701e-01     -4.92874833e-01     
H    -2.86613289e+00     -2.30729043e-01     -1.42197197e+00     
H    -3.53950171e+00     -2.82875527e-01     -1.37877313e-02     
O    -4.32907667e-01     -2.04878265e+00     -5.42175081e+00     
H    -7.10282172e-01     -1.22165730e+00     -5.82053092e+00     
H    -8.70597707e-02     -2.58935078e+00     -6.13870721e+00     
O    1.17421081e+00      -3.42795774e+00     2.24736317e+00      
H    5.46836099e-01      -4.00138283e+00     2.69205043e+00      
H    2.00193154e+00      -3.91230724e+00     2.22376391e+00      
26
1652.025062
N    -1.17217840e-02     -5.47006028e-02     -5.10651207e-02     
H    -1.05173796e+00     -7.41526151e-02     -9.09118615e-02     
H    3.22032909e-01      8.37401570e-01      -4.71604365e-01     
H    3.22733389e-01      -1.48724787e-01     9.32628294e-01      
C    5.29902190e-01      -1.18826408e+00     -8.21770668e-01     
H    1.61593099e+00      -1.15066928e+00     -7.94783262e-01     
H    1.96712647e-01      -2.11972523e+00     -3.71558049e-01     
C    4.25634617e-02      -1.09322329e+00     -2.25142623e+00     
O    -6.57822165e-01     -1.90258749e-01     -2.67193227e+00     
O    4.93029419e-01      -2.12153198e+00     -2.94698185e+00     
H    1.42302830e-01      -2.05855394e+00     -3.88442058e+00     
O    1.00599360e+00      2.05374854e+00      -1.52380905e+00     
H    5.24704007e-01      2.07098242e+00      -2.35562483e+00     
H    1.33434030e+00      2.94317869e+00      -1.37102133e+00     
O    1.07021447e+00      -6.62523603e-01     2.36867600e+00      
H    1.16715333e+00      -1.61339555e+00     2.52786605e+00      
H    1.23312882e+00      -2.07036725e-01     3.19504277e+00      
O    -2.72002742e+00     -4.27869993e-01     -4.92588079e-01     
H    -2.87310277e+00     -2.29139656e-01     -1.42036000e+00     
H    -3.54262975e+00     -2.81084388e-01     -2.00093565e-02     
O    -4.32910210e-01     -2.04881159e+00     -5.42163025e+00     
H    -7.09954463e-01     -1.22205093e+00     -5.82159346e+00     
H    -8.73105737e-02     -2.58849285e+00     -6.13948420e+00     
O    1.17417912e+00      -3.42778981e+00     2.24729193e+00      
H    5.48068764e-01      -4.00256570e+00     2.69224898e+00      
H    2.00117799e+00      -3.91362021e+00     2.22459750e+00      
26
1652.025062
N    -1.17228456e-02     -5.47264950e-02     -5.09490421e-02     
H    -1.05105708e+00     -7.02000493e-02     -9.34234373e-02     
H    3.17078203e-01      8.38582740e-01      -4.72029627e-01     
H    3.25141937e-01      -1.52013461e-01     9.31442562e-01      
C    5.30047370e-01      -1.18829704e+00     -8.21199492e-01     
H    1.61614257e+00      -1.15106138e+00     -7.95890360e-01     
H    1.96628119e-01      -2.12046869e+00     -3.72642443e-01     
C    4.23589223e-02      -1.09307481e+00     -2.25184329e+00     
O    -6.57707495e-01     -1.90434451e-01     -2.67181329e+00     
O    4.93016057e-01      -2.12148718e+00     -2.94694441e+00     
H    1.42234946e-01      -2.05844256e+00     -3.88423542e+00     
O    1.00613910e+00      2.05258546e+00      -1.52295141e+00     
H    5.27685827e-01      2.08474698e+00      -2.35694385e+00     
H    1.32870168e+00      2.94721617e+00      -1.38302879e+00     
O    1.06995549e+00      -6.62164199e-01     2.36780146e+00      
H    1.16936271e+00      -1.61115031e+00     2.53783375e+00      
H    1.23474860e+00      -2.15337847e-01     3.19920079e+00      
O    -2.71738802e+00     -4.28687163e-01     -4.91441065e-01     
H    -2.90098229e+00     -2.22782108e-01     -1.41391210e+00     
H    -3.55514189e+00     -2.73919832e-01     -4.48958571e-02     
O    -4.32920382e-01     -2.04892739e+00     -5.42114799e+00     
H    -7.08643625e-01     -1.22362545e+00     -5.82584362e+00     
H    -8.83137857e-02     -2.58506115e+00     -6.14259216e+00     
O    1.17405236e+00      -3.42711809e+00     2.24700699e+00      
H    5.52999428e-01      -4.00729714e+00     2.69304316e+00      
H    1.99816379e+00      -3.91887207e+00     2.22793190e+00      
26
1652.025062
N    -1.17231110e-02     -5.47329681e-02     -5.09200224e-02     
H    -1.05088686e+00     -6.92119079e-02     -9.40513313e-02     
H    3.15839526e-01      8.38878033e-01      -4.72135943e-01     
H    3.25744074e-01      -1.52835629e-01     9.31146129e-01      
C    5.30083664e-01      -1.18830528e+00     -8.21056698e-01     
H    1.61619547e+00      -1.15115940e+00     -7.96167135e-01     
H    1.96606988e-01      -2.12065456e+00     -3.72913541e-01     
C    4.23077875e-02      -1.09303769e+00     -2.25194755e+00     
O    -6.57678828e-01     -1.90478377e-01     -2.67178355e+00     
O    4.93012716e-01      -2.12147599e+00     -2.94693505e+00     
H    1.42217975e-01      -2.05841471e+00     -3.88418913e+00     
O    1.00617547e+00      2.05229468e+00      -1.52273699e+00     
H    5.28431281e-01      2.08818812e+00      -2.35727360e+00     
H    1.32729203e+00      2.94822553e+00      -1.38603066e+00     
O    1.06989074e+00      -6.62074349e-01     2.36758283e+00      
H    1.16991506e+00      -1.61058899e+00     2.54032568e+00      
H    1.23515354e+00      -2.17413127e-01     3.20024030e+00      
O    -2.71672817e+00     -4.28891455e-01     -4.91154311e-01     
H    -2.90795217e+00     -2.21192721e-01     -1.41230013e+00     
H    -3.55826993e+00     -2.72128693e-01     -5.11174823e-02     
O    -4.32922925e-01     -2.04895633e+00     -5.42102743e+00     
H    -7.08315916e-01     -1.22401908e+00     -5.82690616e+00     
H    -8.85645887e-02     -2.58420322e+00     -6.14336915e+00     
O    1.17402067e+00      -3.42695016e+00     2.24693575e+00      
H    5.54232093e-01      -4.00848001e+00     2.69324171e+00      
H    1.99741024e+00      -3.92018504e+00     2.22876549e+00      
26
1652.025062
N    -1.17233764e-02     -5.47394412e-02     -5.08910028e-02     
H    -1.05071664e+00     -6.82237665e-02     -9.46792253e-02     
H    3.14600850e-01      8.39173326e-01      -4.72242258e-01     
H    3.26346210e-01      -1.53657797e-01     9.30849696e-01      
C    5.30119959e-01      -1.18831353e+00     -8.20913904e-01     
H    1.61624837e+00      -1.15125742e+00     -7.96443910e-01     
H    1.96585856e-01      -2.12084043e+00     -3.73184639e-01     
C    4.22566527e-02      -1.09300057e+00     -2.25205181e+00     
O    -6.57650160e-01     -1.90522302e-01     -2.67175381e+00     
O    4.93009375e-01      -2.12146479e+00     -2.94692569e+00     
H    1.42201003e-01      -2.05838686e+00     -3.88414285e+00     
O    1.00621184e+00      2.05200391e+00      -1.52252258e+00     
H    5.29176736e-01      2.09162926e+00      -2.35760336e+00     
H    1.32588237e+00      2.94923490e+00      -1.38903253e+00     
O    1.06982600e+00      -6.61984498e-01     2.36736420e+00      
H    1.17046741e+00      -1.61002768e+00     2.54281760e+00      
H    1.23555849e+00      -2.19488407e-01     3.20127981e+00      
O    -2.71606831e+00     -4.29095747e-01     -4.90867558e-01     
H    -2.91492205e+00     -2.19603334e-01     -1.41068816e+00     
H    -3.56139796e+00     -2.70337554e-01     -5.73391074e-02     
O    -4.32925467e-01     -2.04898528e+00     -5.42090687e+00     
H    -7.07988206e-01     -1.22441271e+00     -5.82796870e+00     
H    -8.88153918e-02     -2.58334529e+00     -6.14414614e+00     
O    1.17398899e+00      -3.42678223e+00     2.24686451e+00      
H    5.55464759e-01      -4.00966287e+00     2.69344025e+00      
H    1.99665670e+00      -3.92149800e+00     2.22959909e+00      
26
1652.025062
N    -1.17239072e-02     -5.47523873e-02     -5.08329635e-02     
H    -1.05037619e+00     -6.62474836e-02     -9.59350132e-02     
H    3.12123497e-01      8.39763911e-01      -4.72454889e-01     
H    3.27550484e-01      -1.55302134e-01     9.30256830e-01      
C    5.30192549e-01      -1.18833001e+00     -8.20628316e-01     
H    1.61635416e+00      -1.15145347e+00     -7.96997459e-01     
H    1.96543592e-01      -2.12121216e+00     -3.73726836e-01     
C    4.21543830e-02      -1.09292632e+00     -2.25226034e+00     
O    -6.57592826e-01     -1.90610153e-01     -2.67169432e+00     
O    4.93002694e-01      -2.12144239e+00     -2.94690696e+00     
H    1.42167061e-01      -2.05833117e+00     -3.88405027e+00     
O    1.00628459e+00      2.05142237e+00      -1.52209376e+00     
H    5.30667646e-01      2.09851153e+00      -2.35826287e+00     
H    1.32306307e+00      2.95125364e+00      -1.39503626e+00     
O    1.06969650e+00      -6.61804796e-01     2.36692693e+00      
H    1.17157210e+00      -1.60890506e+00     2.54780145e+00      
H    1.23636838e+00      -2.23638968e-01     3.20335882e+00      
O    -2.71474861e+00     -4.29504332e-01     -4.90294051e-01     
H    -2.92886181e+00     -2.16424560e-01     -1.40746421e+00     
H    -3.56765404e+00     -2.66755276e-01     -6.97823577e-02     
O    -4.32930553e-01     -2.04904318e+00     -5.42066574e+00     
H    -7.07332787e-01     -1.22519997e+00     -5.83009378e+00     
H    -8.93169978e-02     -2.58162944e+00     -6.14570013e+00     
O    1.17392561e+00      -3.42644636e+00     2.24672204e+00      
H    5.57930091e-01      -4.01202859e+00     2.69383734e+00      
H    1.99514960e+00      -3.92412393e+00     2.23126629e+00      
26
1652.025062
N    -1.17244380e-02     -5.47653334e-02     -5.07749242e-02     
H    -1.05003575e+00     -6.42712008e-02     -9.71908011e-02     
H    3.09646143e-01      8.40354496e-01      -4.72667520e-01     
H    3.28754758e-01      -1.56946471e-01     9.29663964e-01      
C    5.30265138e-01      -1.18834649e+00     -8.20342728e-01     
H    1.61645996e+00      -1.15164951e+00     -7.97551008e-01     
H    1.96501328e-01      -2.12158389e+00     -3.74269032e-01     
C    4.20521133e-02      -1.09285208e+00     -2.25246887e+00     
O    -6.57535491e-01     -1.90698005e-01     -2.67163483e+00     
O    4.92996013e-01      -2.12141999e+00     -2.94688824e+00     
H    1.42133119e-01      -2.05827548e+00     -3.88395769e+00     
O    1.00635734e+00      2.05084082e+00      -1.52166493e+00     
H    5.32158555e-01      2.10539381e+00      -2.35892238e+00     
H    1.32024376e+00      2.95327237e+00      -1.40104000e+00     
O    1.06956701e+00      -6.61625095e-01     2.36648967e+00      
H    1.17267679e+00      -1.60778243e+00     2.55278530e+00      
H    1.23717827e+00      -2.27789529e-01     3.20543783e+00      
O    -2.71342891e+00     -4.29912917e-01     -4.89720544e-01     
H    -2.94280157e+00     -2.13245786e-01     -1.40424027e+00     
H    -3.57391011e+00     -2.63172998e-01     -8.22256080e-02     
O    -4.32935639e-01     -2.04910108e+00     -5.42042461e+00     
H    -7.06677368e-01     -1.22598723e+00     -5.83221887e+00     
H    -8.98186038e-02     -2.57991358e+00     -6.14725411e+00     
O    1.17386223e+00      -3.42611050e+00     2.24657957e+00      
H    5.60395423e-01      -4.01439432e+00     2.69423443e+00      
H    1.99364250e+00      -3.92674986e+00     2.23293348e+00      
26
1652.025062
N    -1.17249687e-02     -5.47782795e-02     -5.07168849e-02     
H    -1.04969531e+00     -6.22949179e-02     -9.84465890e-02     
H    3.07168790e-01      8.40945082e-01      -4.72880151e-01     
H    3.29959032e-01      -1.58590807e-01     9.29071098e-01      
C    5.30337728e-01      -1.18836298e+00     -8.20057140e-01     
H    1.61656575e+00      -1.15184556e+00     -7.98104558e-01     
H    1.96459065e-01      -2.12195562e+00     -3.74811229e-01     
C    4.19498437e-02      -1.09277784e+00     -2.25267740e+00     
O    -6.57478156e-01     -1.90785856e-01     -2.67157534e+00     
O    4.92989331e-01      -2.12139760e+00     -2.94686952e+00     
H    1.42099177e-01      -2.05821979e+00     -3.88386511e+00     
O    1.00643009e+00      2.05025928e+00      -1.52123611e+00     
H    5.33649465e-01      2.11227609e+00      -2.35958188e+00     
H    1.31742445e+00      2.95529111e+00      -1.40704373e+00     
O    1.06943752e+00      -6.61445393e-01     2.36605240e+00      
H    1.17378148e+00      -1.60665981e+00     2.55776915e+00      
H    1.23798816e+00      -2.31940089e-01     3.20751685e+00      
O    -2.71210920e+00     -4.30321502e-01     -4.89147037e-01     
H    -2.95674133e+00     -2.10067012e-01     -1.40101632e+00     
H    -3.58016618e+00     -2.59590720e-01     -9.46688583e-02     
O    -4.32940724e-01     -2.04915897e+00     -5.42018348e+00     
H    -7.06021949e-01     -1.22677449e+00     -5.83434395e+00     
H    -9.03202098e-02     -2.57819773e+00     -6.14880809e+00     
O    1.17379886e+00      -3.42577464e+00     2.24643709e+00      
H    5.62860754e-01      -4.01676004e+00     2.69463152e+00      
H    1.99213541e+00      -3.92937580e+00     2.23460068e+00      
26
1652.025062
N    -1.17254995e-02     -5.47912257e-02     -5.06588456e-02     
H    -1.04935487e+00     -6.03186350e-02     -9.97023770e-02     
H    3.04691437e-01      8.41535667e-01      -4.73092782e-01     
H    3.31163305e-01      -1.60235144e-01     9.28478232e-01      
C    5.30410318e-01      -1.18837946e+00     -8.19771552e-01     
H    1.61667154e+00      -1.15204161e+00     -7.98658107e-01     
H    1.96416801e-01      -2.12232736e+00     -3.75353425e-01     
C    4.18475740e-02      -1.09270360e+00     -2.25288592e+00     
O    -6.57420821e-01     -1.90873707e-01     -2.67151586e+00     
O    4.92982650e-01      -2.12137520e+00     -2.94685080e+00     
H    1.42065234e-01      -2.05816409e+00     -3.88377254e+00     
O    1.00650283e+00      2.04967773e+00      -1.52080728e+00     
H    5.35140374e-01      2.11915837e+00      -2.36024139e+00     
H    1.31460514e+00      2.95730985e+00      -1.41304747e+00     
O    1.06930803e+00      -6.61265692e-01     2.36561513e+00      
H    1.17488618e+00      -1.60553719e+00     2.56275300e+00      
H    1.23879805e+00      -2.36090650e-01     3.20959586e+00      
O    -2.71078950e+00     -4.30730086e-01     -4.88573529e-01     
H    -2.97068109e+00     -2.06888238e-01     -1.39779238e+00     
H    -3.58642225e+00     -2.56008442e-01     -1.07112109e-01     
O    -4.32945810e-01     -2.04921687e+00     -5.41994236e+00     
H    -7.05366530e-01     -1.22756175e+00     -5.83646903e+00     
H    -9.08218159e-02     -2.57648187e+00     -6.15036207e+00     
O    1.17373548e+00      -3.42543878e+00     2.24629462e+00      
H    5.65326086e-01      -4.01912577e+00     2.69502861e+00      
H    1.99062831e+00      -3.93200173e+00     2.23626788e+00      
26
1652.025062
N    -1.17265611e-02     -5.48171179e-02     -5.05427670e-02     
H    -1.04867398e+00     -5.63660693e-02     -1.02213953e-01     
H    2.99736731e-01      8.42716838e-01      -4.73518044e-01     
H    3.33571853e-01      -1.63523817e-01     9.27292500e-01      
C    5.30555497e-01      -1.18841242e+00     -8.19200376e-01     
H    1.61688313e+00      -1.15243370e+00     -7.99765205e-01     
H    1.96332274e-01      -2.12307082e+00     -3.76437818e-01     
C    4.16430347e-02      -1.09255511e+00     -2.25330298e+00     
O    -6.57306152e-01     -1.91049409e-01     -2.67139688e+00     
O    4.92969287e-01      -2.12133041e+00     -2.94681335e+00     
H    1.41997350e-01      -2.05805271e+00     -3.88358738e+00     
O    1.00664833e+00      2.04851464e+00      -1.51994963e+00     
H    5.38122193e-01      2.13292293e+00      -2.36156041e+00     
H    1.30896653e+00      2.96134732e+00      -1.42505493e+00     
O    1.06904904e+00      -6.60906288e-01     2.36474060e+00      
H    1.17709556e+00      -1.60329194e+00     2.57272070e+00      
H    1.24041782e+00      -2.44391772e-01     3.21375389e+00      
O    -2.70815010e+00     -4.31547256e-01     -4.87426515e-01     
H    -2.99856061e+00     -2.00530689e-01     -1.39134449e+00     
H    -3.59893440e+00     -2.48843887e-01     -1.31998609e-01     
O    -4.32955982e-01     -2.04933266e+00     -5.41946010e+00     
H    -7.04055692e-01     -1.22913627e+00     -5.84071919e+00     
H    -9.18250279e-02     -2.57305016e+00     -6.15347003e+00     
O    1.17360872e+00      -3.42476705e+00     2.24600967e+00      
H    5.70256749e-01      -4.02385721e+00     2.69582279e+00      
H    1.98761412e+00      -3.93725359e+00     2.23960227e+00      
