26
3150.199570
N    -7.07986033e-03     -4.35907304e-02     -6.26144718e-02     
H    -1.09301314e+00     -7.15592192e-02     -9.29001473e-02     
H    2.67985215e-01      6.93704195e-01      -4.10974213e-01     
H    3.54454245e-01      -1.57292511e-01     1.02847941e+00      
C    5.28219753e-01      -1.18876609e+00     -8.21382072e-01     
H    1.63472270e+00      -1.15043320e+00     -7.94077295e-01     
H    1.99332071e-01      -2.11413441e+00     -3.76251636e-01     
C    4.24510910e-02      -1.09323328e+00     -2.25135706e+00     
O    -6.57722611e-01     -1.90269821e-01     -2.67194588e+00     
O    4.93187580e-01      -2.12148745e+00     -2.94650167e+00     
H    1.39470599e-01      -2.05844325e+00     -3.89204356e+00     
O    1.00591942e+00      2.05323128e+00      -1.52350615e+00     
H    5.27082075e-01      2.07609079e+00      -2.35309483e+00     
H    1.33078706e+00      2.94294465e+00      -1.37517194e+00     
O    1.07006040e+00      -6.62205494e-01     2.36812186e+00      
H    1.16909899e+00      -1.61521814e+00     2.53490264e+00      
H    1.23459116e+00      -2.11629049e-01     3.19888164e+00      
O    -2.71873030e+00     -4.28326549e-01     -4.91909153e-01     
H    -2.88791386e+00     -2.25677351e-01     -1.41822403e+00     
H    -3.54909074e+00     -2.77629664e-01     -3.30492471e-02     
O    -4.32906745e-01     -2.04887681e+00     -5.42138364e+00     
H    -7.09378496e-01     -1.22282780e+00     -5.82404915e+00     
H    -8.79822274e-02     -2.58658620e+00     -6.14107905e+00     
O    1.17409247e+00      -3.42747006e+00     2.24714403e+00      
H    5.49979016e-01      -4.00498656e+00     2.69284696e+00      
H    2.00056604e+00      -3.91640357e+00     2.22607786e+00      
26
3150.199570
N    -8.24047395e-03     -4.63714350e-02     -5.97126242e-02     
H    -1.08260924e+00     -7.17134975e-02     -9.27170228e-02     
H    2.80877800e-01      7.29776185e-01      -4.26184909e-01     
H    3.46825100e-01      -1.55561664e-01     1.00436841e+00      
C    5.28658509e-01      -1.18864471e+00     -8.21407824e-01     
H    1.63005122e+00      -1.15054124e+00     -7.94392174e-01     
H    1.98666649e-01      -2.11562505e+00     -3.75213789e-01     
C    4.24536163e-02      -1.09321222e+00     -2.25142648e+00     
O    -6.57733166e-01     -1.90289016e-01     -2.67192761e+00     
O    4.93146369e-01      -2.12149298e+00     -2.94661703e+00     
H    1.40170171e-01      -2.05845700e+00     -3.89011467e+00     
O    1.00595615e+00      2.05321521e+00      -1.52347467e+00     
H    5.26860285e-01      2.07653426e+00      -2.35389221e+00     
H    1.33097055e+00      2.94350784e+00      -1.37563522e+00     
O    1.07006655e+00      -6.62240095e-01     2.36815107e+00      
H    1.16888875e+00      -1.61448184e+00     2.53438945e+00      
H    1.23442805e+00      -2.11518608e-01     3.19844168e+00      
O    -2.71872466e+00     -4.28314556e-01     -4.91935508e-01     
H    -2.88769603e+00     -2.25748234e-01     -1.41795204e+00     
H    -3.54903951e+00     -2.77597776e-01     -3.29000870e-02     
O    -4.32908883e-01     -2.04887498e+00     -5.42138501e+00     
H    -7.09358633e-01     -1.22283040e+00     -5.82396650e+00     
H    -8.79397155e-02     -2.58663390e+00     -6.14106883e+00     
O    1.17409829e+00      -3.42746604e+00     2.24714539e+00      
H    5.50117786e-01      -4.00497277e+00     2.69279674e+00      
H    2.00034225e+00      -3.91636421e+00     2.22612457e+00      
26
3150.199570
N    -8.82078076e-03     -4.77617873e-02     -5.82617004e-02     
H    -1.07740728e+00     -7.17906366e-02     -9.26254606e-02     
H    2.87324093e-01      7.47812180e-01      -4.33790257e-01     
H    3.43010527e-01      -1.54696241e-01     9.92312917e-01      
C    5.28877888e-01      -1.18858402e+00     -8.21420700e-01     
H    1.62771548e+00      -1.15059525e+00     -7.94549614e-01     
H    1.98333938e-01      -2.11637037e+00     -3.74694865e-01     
C    4.24548789e-02      -1.09320169e+00     -2.25146120e+00     
O    -6.57738443e-01     -1.90298613e-01     -2.67191847e+00     
O    4.93125764e-01      -2.12149575e+00     -2.94667471e+00     
H    1.40519957e-01      -2.05846388e+00     -3.88915022e+00     
O    1.00597452e+00      2.05320718e+00      -1.52345893e+00     
H    5.26749391e-01      2.07675600e+00      -2.35429090e+00     
H    1.33106229e+00      2.94378944e+00      -1.37586686e+00     
O    1.07006962e+00      -6.62257396e-01     2.36816568e+00      
H    1.16878363e+00      -1.61411369e+00     2.53413286e+00      
H    1.23434649e+00      -2.11463388e-01     3.19822170e+00      
O    -2.71872183e+00     -4.28308560e-01     -4.91948685e-01     
H    -2.88758711e+00     -2.25783675e-01     -1.41781604e+00     
H    -3.54901390e+00     -2.77581831e-01     -3.28255070e-02     
O    -4.32909952e-01     -2.04887407e+00     -5.42138570e+00     
H    -7.09348701e-01     -1.22283170e+00     -5.82392517e+00     
H    -8.79184595e-02     -2.58665775e+00     -6.14106372e+00     
O    1.17410120e+00      -3.42746402e+00     2.24714607e+00      
H    5.50187171e-01      -4.00496588e+00     2.69277163e+00      
H    2.00023036e+00      -3.91634453e+00     2.22614792e+00      
26
3150.199570
N    -9.40108757e-03     -4.91521397e-02     -5.68107766e-02     
H    -1.07220533e+00     -7.18677757e-02     -9.25338984e-02     
H    2.93770386e-01      7.65848175e-01      -4.41395605e-01     
H    3.39195954e-01      -1.53830817e-01     9.80257419e-01      
C    5.29097266e-01      -1.18852332e+00     -8.21433576e-01     
H    1.62537974e+00      -1.15064927e+00     -7.94707053e-01     
H    1.98001227e-01      -2.11711569e+00     -3.74175941e-01     
C    4.24561415e-02      -1.09319116e+00     -2.25149591e+00     
O    -6.57743720e-01     -1.90308211e-01     -2.67190933e+00     
O    4.93105159e-01      -2.12149852e+00     -2.94673240e+00     
H    1.40869743e-01      -2.05847075e+00     -3.88818578e+00     
O    1.00599288e+00      2.05319914e+00      -1.52344319e+00     
H    5.26638496e-01      2.07697774e+00      -2.35468959e+00     
H    1.33115403e+00      2.94407104e+00      -1.37609850e+00     
O    1.07007269e+00      -6.62274697e-01     2.36818029e+00      
H    1.16867850e+00      -1.61374553e+00     2.53387627e+00      
H    1.23426494e+00      -2.11408167e-01     3.19800171e+00      
O    -2.71871901e+00     -4.28302564e-01     -4.91961863e-01     
H    -2.88747820e+00     -2.25819116e-01     -1.41768004e+00     
H    -3.54898828e+00     -2.77565887e-01     -3.27509269e-02     
O    -4.32911021e-01     -2.04887315e+00     -5.42138638e+00     
H    -7.09338770e-01     -1.22283300e+00     -5.82388385e+00     
H    -8.78972036e-02     -2.58668160e+00     -6.14105861e+00     
O    1.17410411e+00      -3.42746201e+00     2.24714675e+00      
H    5.50256556e-01      -4.00495899e+00     2.69274652e+00      
H    2.00011846e+00      -3.91632486e+00     2.22617128e+00      
26
3150.199570
N    -9.98139437e-03     -5.05424920e-02     -5.53598528e-02     
H    -1.06700338e+00     -7.19449148e-02     -9.24423361e-02     
H    3.00216678e-01      7.83884170e-01      -4.49000953e-01     
H    3.35381381e-01      -1.52965394e-01     9.68201921e-01      
C    5.29316645e-01      -1.18846263e+00     -8.21446452e-01     
H    1.62304400e+00      -1.15070328e+00     -7.94864493e-01     
H    1.97668516e-01      -2.11786100e+00     -3.73657017e-01     
C    4.24574041e-02      -1.09318063e+00     -2.25153062e+00     
O    -6.57748998e-01     -1.90317808e-01     -2.67190019e+00     
O    4.93084554e-01      -2.12150128e+00     -2.94679008e+00     
H    1.41219529e-01      -2.05847763e+00     -3.88722133e+00     
O    1.00601125e+00      2.05319111e+00      -1.52342745e+00     
H    5.26527601e-01      2.07719948e+00      -2.35508827e+00     
H    1.33124577e+00      2.94435264e+00      -1.37633014e+00     
O    1.07007576e+00      -6.62291998e-01     2.36819490e+00      
H    1.16857338e+00      -1.61337738e+00     2.53361968e+00      
H    1.23418338e+00      -2.11352947e-01     3.19778173e+00      
O    -2.71871619e+00     -4.28296567e-01     -4.91975040e-01     
H    -2.88736928e+00     -2.25854558e-01     -1.41754404e+00     
H    -3.54896267e+00     -2.77549943e-01     -3.26763469e-02     
O    -4.32912089e-01     -2.04887224e+00     -5.42138707e+00     
H    -7.09328838e-01     -1.22283430e+00     -5.82384252e+00     
H    -8.78759476e-02     -2.58670545e+00     -6.14105350e+00     
O    1.17410701e+00      -3.42745999e+00     2.24714742e+00      
H    5.50325941e-01      -4.00495210e+00     2.69272140e+00      
H    2.00000657e+00      -3.91630518e+00     2.22619463e+00      
26
3150.199570
N    -1.05617012e-02     -5.19328443e-02     -5.39089290e-02     
H    -1.06180143e+00     -7.20220540e-02     -9.23507739e-02     
H    3.06662971e-01      8.01920165e-01      -4.56606300e-01     
H    3.31566809e-01      -1.52099971e-01     9.56146424e-01      
C    5.29536023e-01      -1.18840194e+00     -8.21459328e-01     
H    1.62070826e+00      -1.15075730e+00     -7.95021932e-01     
H    1.97335805e-01      -2.11860632e+00     -3.73138094e-01     
C    4.24586668e-02      -1.09317011e+00     -2.25156533e+00     
O    -6.57754275e-01     -1.90327405e-01     -2.67189106e+00     
O    4.93063948e-01      -2.12150405e+00     -2.94684776e+00     
H    1.41569316e-01      -2.05848450e+00     -3.88625689e+00     
O    1.00602962e+00      2.05318307e+00      -1.52341171e+00     
H    5.26416706e-01      2.07742122e+00      -2.35548696e+00     
H    1.33133751e+00      2.94463423e+00      -1.37656178e+00     
O    1.07007884e+00      -6.62309299e-01     2.36820951e+00      
H    1.16846826e+00      -1.61300923e+00     2.53336308e+00      
H    1.23410182e+00      -2.11297727e-01     3.19756175e+00      
O    -2.71871337e+00     -4.28290571e-01     -4.91988217e-01     
H    -2.88726036e+00     -2.25889999e-01     -1.41740805e+00     
H    -3.54893705e+00     -2.77533999e-01     -3.26017669e-02     
O    -4.32913158e-01     -2.04887132e+00     -5.42138775e+00     
H    -7.09318907e-01     -1.22283559e+00     -5.82380119e+00     
H    -8.78546916e-02     -2.58672930e+00     -6.14104840e+00     
O    1.17410992e+00      -3.42745798e+00     2.24714810e+00      
H    5.50395326e-01      -4.00494520e+00     2.69269629e+00      
H    1.99989468e+00      -3.91628550e+00     2.22621799e+00      
26
3150.199570
N    -1.08518546e-02     -5.26280204e-02     -5.31834671e-02     
H    -1.05920045e+00     -7.20606235e-02     -9.23049928e-02     
H    3.09886117e-01      8.10938163e-01      -4.60408974e-01     
H    3.29659522e-01      -1.51667259e-01     9.50118675e-01      
C    5.29645712e-01      -1.18837160e+00     -8.21465766e-01     
H    1.61954039e+00      -1.15078431e+00     -7.95100652e-01     
H    1.97169449e-01      -2.11897898e+00     -3.72878632e-01     
C    4.24592981e-02      -1.09316484e+00     -2.25158269e+00     
O    -6.57756914e-01     -1.90332204e-01     -2.67188649e+00     
O    4.93053646e-01      -2.12150543e+00     -2.94687661e+00     
H    1.41744209e-01      -2.05848794e+00     -3.88577467e+00     
O    1.00603880e+00      2.05317905e+00      -1.52340384e+00     
H    5.26361259e-01      2.07753209e+00      -2.35568631e+00     
H    1.33138338e+00      2.94477503e+00      -1.37667760e+00     
O    1.07008037e+00      -6.62317950e-01     2.36821682e+00      
H    1.16841570e+00      -1.61282516e+00     2.53323479e+00      
H    1.23406104e+00      -2.11270117e-01     3.19745175e+00      
O    -2.71871195e+00     -4.28287573e-01     -4.91994806e-01     
H    -2.88720590e+00     -2.25907720e-01     -1.41734005e+00     
H    -3.54892424e+00     -2.77526026e-01     -3.25644768e-02     
O    -4.32913693e-01     -2.04887086e+00     -5.42138809e+00     
H    -7.09313941e-01     -1.22283624e+00     -5.82378053e+00     
H    -8.78440636e-02     -2.58674122e+00     -6.14104584e+00     
O    1.17411138e+00      -3.42745697e+00     2.24714844e+00      
H    5.50430018e-01      -4.00494176e+00     2.69268374e+00      
H    1.99983873e+00      -3.91627566e+00     2.22622967e+00      
26
3150.199570
N    -1.11420080e-02     -5.33231966e-02     -5.24580052e-02     
H    -1.05659947e+00     -7.20991931e-02     -9.22592116e-02     
H    3.13109263e-01      8.19956160e-01      -4.64211648e-01     
H    3.27752236e-01      -1.51234547e-01     9.44090926e-01      
C    5.29755402e-01      -1.18834125e+00     -8.21472204e-01     
H    1.61837252e+00      -1.15081131e+00     -7.95179372e-01     
H    1.97003094e-01      -2.11935164e+00     -3.72619170e-01     
C    4.24599294e-02      -1.09315958e+00     -2.25160005e+00     
O    -6.57759553e-01     -1.90337003e-01     -2.67188192e+00     
O    4.93043343e-01      -2.12150681e+00     -2.94690545e+00     
H    1.41919102e-01      -2.05849138e+00     -3.88529244e+00     
O    1.00604798e+00      2.05317504e+00      -1.52339597e+00     
H    5.26305812e-01      2.07764296e+00      -2.35588565e+00     
H    1.33142925e+00      2.94491583e+00      -1.37679342e+00     
O    1.07008191e+00      -6.62326600e-01     2.36822412e+00      
H    1.16836314e+00      -1.61264108e+00     2.53310649e+00      
H    1.23402027e+00      -2.11242506e-01     3.19734176e+00      
O    -2.71871054e+00     -4.28284574e-01     -4.92001395e-01     
H    -2.88715145e+00     -2.25925441e-01     -1.41727205e+00     
H    -3.54891144e+00     -2.77518054e-01     -3.25271868e-02     
O    -4.32914227e-01     -2.04887041e+00     -5.42138844e+00     
H    -7.09308975e-01     -1.22283689e+00     -5.82375987e+00     
H    -8.78334357e-02     -2.58675315e+00     -6.14104329e+00     
O    1.17411283e+00      -3.42745596e+00     2.24714878e+00      
H    5.50464711e-01      -4.00493831e+00     2.69267118e+00      
H    1.99978278e+00      -3.91626582e+00     2.22624134e+00      
26
3150.199570
N    -1.23026216e-02     -5.61039012e-02     -4.95561576e-02     
H    -1.04619557e+00     -7.22534713e-02     -9.20760872e-02     
H    3.26001849e-01      8.56028150e-01      -4.79422344e-01     
H    3.20123090e-01      -1.49503701e-01     9.19979930e-01      
C    5.30194158e-01      -1.18821987e+00     -8.21497956e-01     
H    1.61370104e+00      -1.15091935e+00     -7.95494250e-01     
H    1.96337672e-01      -2.12084228e+00     -3.71581322e-01     
C    4.24624546e-02      -1.09313852e+00     -2.25166947e+00     
O    -6.57770107e-01     -1.90356197e-01     -2.67186364e+00     
O    4.93002133e-01      -2.12151235e+00     -2.94702081e+00     
H    1.42618674e-01      -2.05850512e+00     -3.88336356e+00     
O    1.00608472e+00      2.05315896e+00      -1.52336449e+00     
H    5.26084022e-01      2.07808644e+00      -2.35668303e+00     
H    1.33161273e+00      2.94547903e+00      -1.37725670e+00     
O    1.07008805e+00      -6.62361202e-01     2.36825334e+00      
H    1.16815290e+00      -1.61190478e+00     2.53259331e+00      
H    1.23385715e+00      -2.11132066e-01     3.19690180e+00      
O    -2.71870490e+00     -4.28272582e-01     -4.92027749e-01     
H    -2.88693361e+00     -2.25996323e-01     -1.41700005e+00     
H    -3.54886020e+00     -2.77486166e-01     -3.23780268e-02     
O    -4.32916365e-01     -2.04886857e+00     -5.42138980e+00     
H    -7.09289113e-01     -1.22283949e+00     -5.82367721e+00     
H    -8.77909237e-02     -2.58680085e+00     -6.14103307e+00     
O    1.17411865e+00      -3.42745194e+00     2.24715014e+00      
H    5.50603481e-01      -4.00492453e+00     2.69262096e+00      
H    1.99955900e+00      -3.91622646e+00     2.22628806e+00      
26
3150.199570
N    -1.25927750e-02     -5.67990774e-02     -4.88306957e-02     
H    -1.04359459e+00     -7.22920409e-02     -9.20303060e-02     
H    3.29224995e-01      8.65046147e-01      -4.83225018e-01     
H    3.18215804e-01      -1.49070989e-01     9.13952181e-01      
C    5.30303848e-01      -1.18818952e+00     -8.21504394e-01     
H    1.61253317e+00      -1.15094635e+00     -7.95572970e-01     
H    1.96171317e-01      -2.12121494e+00     -3.71321860e-01     
C    4.24630859e-02      -1.09313326e+00     -2.25168683e+00     
O    -6.57772746e-01     -1.90360996e-01     -2.67185907e+00     
O    4.92991830e-01      -2.12151373e+00     -2.94704965e+00     
H    1.42793567e-01      -2.05850856e+00     -3.88288133e+00     
O    1.00609390e+00      2.05315495e+00      -1.52335662e+00     
H    5.26028575e-01      2.07819731e+00      -2.35688237e+00     
H    1.33165860e+00      2.94561983e+00      -1.37737252e+00     
O    1.07008959e+00      -6.62369852e-01     2.36826064e+00      
H    1.16810034e+00      -1.61172070e+00     2.53246501e+00      
H    1.23381638e+00      -2.11104455e-01     3.19679181e+00      
O    -2.71870349e+00     -4.28269583e-01     -4.92034338e-01     
H    -2.88687916e+00     -2.26014044e-01     -1.41693205e+00     
H    -3.54884740e+00     -2.77478194e-01     -3.23407368e-02     
O    -4.32916899e-01     -2.04886812e+00     -5.42139015e+00     
H    -7.09284147e-01     -1.22284014e+00     -5.82365655e+00     
H    -8.77802958e-02     -2.58681278e+00     -6.14103052e+00     
O    1.17412010e+00      -3.42745093e+00     2.24715048e+00      
H    5.50638174e-01      -4.00492108e+00     2.69260840e+00      
H    1.99950305e+00      -3.91621662e+00     2.22629973e+00      
26
3150.199570
N    -1.28829284e-02     -5.74942535e-02     -4.81052338e-02     
H    -1.04099361e+00     -7.23306104e-02     -9.19845249e-02     
H    3.32448141e-01      8.74064145e-01      -4.87027692e-01     
H    3.16308517e-01      -1.48638277e-01     9.07924432e-01      
C    5.30413537e-01      -1.18815918e+00     -8.21510832e-01     
H    1.61136530e+00      -1.15097336e+00     -7.95651690e-01     
H    1.96004961e-01      -2.12158760e+00     -3.71062398e-01     
C    4.24637172e-02      -1.09312799e+00     -2.25170419e+00     
O    -6.57775385e-01     -1.90365795e-01     -2.67185450e+00     
O    4.92981528e-01      -2.12151511e+00     -2.94707850e+00     
H    1.42968460e-01      -2.05851200e+00     -3.88239911e+00     
O    1.00610308e+00      2.05315093e+00      -1.52334875e+00     
H    5.25973128e-01      2.07830818e+00      -2.35708172e+00     
H    1.33170447e+00      2.94576063e+00      -1.37748834e+00     
O    1.07009112e+00      -6.62378503e-01     2.36826795e+00      
H    1.16804778e+00      -1.61153663e+00     2.53233672e+00      
H    1.23377560e+00      -2.11076845e-01     3.19668181e+00      
O    -2.71870207e+00     -4.28266585e-01     -4.92040927e-01     
H    -2.88682470e+00     -2.26031765e-01     -1.41686405e+00     
H    -3.54883459e+00     -2.77470221e-01     -3.23034467e-02     
O    -4.32917434e-01     -2.04886766e+00     -5.42139049e+00     
H    -7.09279181e-01     -1.22284079e+00     -5.82363589e+00     
H    -8.77696678e-02     -2.58682470e+00     -6.14102796e+00     
O    1.17412156e+00      -3.42744992e+00     2.24715082e+00      
H    5.50672866e-01      -4.00491764e+00     2.69259585e+00      
H    1.99944710e+00      -3.91620678e+00     2.22631141e+00      
26
3150.199570
N    -1.34632352e-02     -5.88846058e-02     -4.66543100e-02     
H    -1.03579166e+00     -7.24077496e-02     -9.18929627e-02     
H    3.38894434e-01      8.92100140e-01      -4.94633039e-01     
H    3.12493945e-01      -1.47772854e-01     8.95868935e-01      
C    5.30632915e-01      -1.18809849e+00     -8.21523708e-01     
H    1.60902956e+00      -1.15102738e+00     -7.95809129e-01     
H    1.95672250e-01      -2.12233292e+00     -3.70543475e-01     
C    4.24649799e-02      -1.09311747e+00     -2.25173890e+00     
O    -6.57780662e-01     -1.90375392e-01     -2.67184537e+00     
O    4.92960922e-01      -2.12151788e+00     -2.94713618e+00     
H    1.43318247e-01      -2.05851887e+00     -3.88143467e+00     
O    1.00612145e+00      2.05314289e+00      -1.52333301e+00     
H    5.25862233e-01      2.07852992e+00      -2.35748041e+00     
H    1.33179621e+00      2.94604222e+00      -1.37771998e+00     
O    1.07009420e+00      -6.62395804e-01     2.36828256e+00      
H    1.16794266e+00      -1.61116848e+00     2.53208012e+00      
H    1.23369404e+00      -2.11021625e-01     3.19646183e+00      
O    -2.71869925e+00     -4.28260589e-01     -4.92054104e-01     
H    -2.88671578e+00     -2.26067206e-01     -1.41672806e+00     
H    -3.54880897e+00     -2.77454277e-01     -3.22288667e-02     
O    -4.32918503e-01     -2.04886674e+00     -5.42139117e+00     
H    -7.09269250e-01     -1.22284208e+00     -5.82359456e+00     
H    -8.77484118e-02     -2.58684855e+00     -6.14102286e+00     
O    1.17412447e+00      -3.42744791e+00     2.24715150e+00      
H    5.50742251e-01      -4.00491074e+00     2.69257074e+00      
H    1.99933521e+00      -3.91618710e+00     2.22633477e+00      
26
3150.199570
N    -1.40435420e-02     -6.02749581e-02     -4.52033862e-02     
H    -1.03058971e+00     -7.24848887e-02     -9.18014004e-02     
H    3.45340726e-01      9.10136135e-01      -5.02238387e-01     
H    3.08679372e-01      -1.46907431e-01     8.83813437e-01      
C    5.30852294e-01      -1.18803780e+00     -8.21536584e-01     
H    1.60669382e+00      -1.15108139e+00     -7.95966569e-01     
H    1.95339539e-01      -2.12307823e+00     -3.70024551e-01     
C    4.24662425e-02      -1.09310694e+00     -2.25177361e+00     
O    -6.57785940e-01     -1.90384989e-01     -2.67183623e+00     
O    4.92940317e-01      -2.12152064e+00     -2.94719386e+00     
H    1.43668033e-01      -2.05852575e+00     -3.88047022e+00     
O    1.00613982e+00      2.05313486e+00      -1.52331727e+00     
H    5.25751338e-01      2.07875166e+00      -2.35787909e+00     
H    1.33188795e+00      2.94632382e+00      -1.37795162e+00     
O    1.07009727e+00      -6.62413105e-01     2.36829717e+00      
H    1.16783754e+00      -1.61080033e+00     2.53182353e+00      
H    1.23361248e+00      -2.10966405e-01     3.19624185e+00      
O    -2.71869643e+00     -4.28254592e-01     -4.92067281e-01     
H    -2.88660686e+00     -2.26102648e-01     -1.41659206e+00     
H    -3.54878336e+00     -2.77438333e-01     -3.21542867e-02     
O    -4.32919571e-01     -2.04886583e+00     -5.42139186e+00     
H    -7.09259318e-01     -1.22284338e+00     -5.82355323e+00     
H    -8.77271558e-02     -2.58687240e+00     -6.14101775e+00     
O    1.17412737e+00      -3.42744589e+00     2.24715217e+00      
H    5.50811636e-01      -4.00490385e+00     2.69254562e+00      
H    1.99922332e+00      -3.91616742e+00     2.22635812e+00      
26
3150.199570
N    -1.46238488e-02     -6.16653105e-02     -4.37524624e-02     
H    -1.02538776e+00     -7.25620278e-02     -9.17098382e-02     
H    3.51787019e-01      9.28172130e-01      -5.09843735e-01     
H    3.04864799e-01      -1.46042007e-01     8.71757939e-01      
C    5.31071672e-01      -1.18797710e+00     -8.21549460e-01     
H    1.60435808e+00      -1.15113541e+00     -7.96124008e-01     
H    1.95006828e-01      -2.12382355e+00     -3.69505627e-01     
C    4.24675051e-02      -1.09309641e+00     -2.25180832e+00     
O    -6.57791217e-01     -1.90394587e-01     -2.67182709e+00     
O    4.92919712e-01      -2.12152341e+00     -2.94725155e+00     
H    1.44017819e-01      -2.05853262e+00     -3.87950578e+00     
O    1.00615818e+00      2.05312682e+00      -1.52330153e+00     
H    5.25640443e-01      2.07897340e+00      -2.35827778e+00     
H    1.33197969e+00      2.94660542e+00      -1.37818326e+00     
O    1.07010034e+00      -6.62430406e-01     2.36831178e+00      
H    1.16773241e+00      -1.61043217e+00     2.53156694e+00      
H    1.23353093e+00      -2.10911184e-01     3.19602186e+00      
O    -2.71869361e+00     -4.28248596e-01     -4.92080459e-01     
H    -2.88649795e+00     -2.26138089e-01     -1.41645606e+00     
H    -3.54875774e+00     -2.77422389e-01     -3.20797066e-02     
O    -4.32920640e-01     -2.04886491e+00     -5.42139254e+00     
H    -7.09249387e-01     -1.22284468e+00     -5.82351191e+00     
H    -8.77058999e-02     -2.58689625e+00     -6.14101264e+00     
O    1.17413028e+00      -3.42744388e+00     2.24715285e+00      
H    5.50881021e-01      -4.00489696e+00     2.69252051e+00      
H    1.99911142e+00      -3.91614775e+00     2.22638148e+00      
26
3150.199570
N    -1.52041557e-02     -6.30556628e-02     -4.23015386e-02     
H    -1.02018580e+00     -7.26391669e-02     -9.16182760e-02     
H    3.58233312e-01      9.46208125e-01      -5.17449083e-01     
H    3.01050226e-01      -1.45176584e-01     8.59702441e-01      
C    5.31291051e-01      -1.18791641e+00     -8.21562336e-01     
H    1.60202234e+00      -1.15118942e+00     -7.96281448e-01     
H    1.94674117e-01      -2.12456887e+00     -3.68986703e-01     
C    4.24687677e-02      -1.09308588e+00     -2.25184304e+00     
O    -6.57796494e-01     -1.90404184e-01     -2.67181795e+00     
O    4.92899107e-01      -2.12152618e+00     -2.94730923e+00     
H    1.44367605e-01      -2.05853950e+00     -3.87854133e+00     
O    1.00617655e+00      2.05311879e+00      -1.52328579e+00     
H    5.25529549e-01      2.07919514e+00      -2.35867647e+00     
H    1.33207143e+00      2.94688702e+00      -1.37841490e+00     
O    1.07010341e+00      -6.62447707e-01     2.36832639e+00      
H    1.16762729e+00      -1.61006402e+00     2.53131035e+00      
H    1.23344937e+00      -2.10855964e-01     3.19580188e+00      
O    -2.71869078e+00     -4.28242600e-01     -4.92093636e-01     
H    -2.88638903e+00     -2.26173530e-01     -1.41632006e+00     
H    -3.54873213e+00     -2.77406444e-01     -3.20051266e-02     
O    -4.32921709e-01     -2.04886400e+00     -5.42139323e+00     
H    -7.09239455e-01     -1.22284598e+00     -5.82347058e+00     
H    -8.76846439e-02     -2.58692010e+00     -6.14100753e+00     
O    1.17413319e+00      -3.42744186e+00     2.24715353e+00      
H    5.50950406e-01      -4.00489007e+00     2.69249540e+00      
H    1.99899953e+00      -3.91612807e+00     2.22640483e+00      
26
3150.199570
N    -1.63647693e-02     -6.58363674e-02     -3.93996910e-02     
H    -1.00978190e+00     -7.27934452e-02     -9.14351515e-02     
H    3.71125897e-01      9.82280115e-01      -5.32659779e-01     
H    2.93421081e-01      -1.43445737e-01     8.35591446e-01      
C    5.31729807e-01      -1.18779503e+00     -8.21588088e-01     
H    1.59735086e+00      -1.15129746e+00     -7.96596327e-01     
H    1.94008695e-01      -2.12605951e+00     -3.67948856e-01     
C    4.24712930e-02      -1.09306482e+00     -2.25191246e+00     
O    -6.57807049e-01     -1.90423379e-01     -2.67179968e+00     
O    4.92857896e-01      -2.12153171e+00     -2.94742459e+00     
H    1.45067177e-01      -2.05855325e+00     -3.87661244e+00     
O    1.00621328e+00      2.05310272e+00      -1.52325431e+00     
H    5.25307759e-01      2.07963861e+00      -2.35947385e+00     
H    1.33225492e+00      2.94745021e+00      -1.37887818e+00     
O    1.07010956e+00      -6.62482308e-01     2.36835560e+00      
H    1.16741705e+00      -1.60932772e+00     2.53079716e+00      
H    1.23328626e+00      -2.10745523e-01     3.19536192e+00      
O    -2.71868514e+00     -4.28230607e-01     -4.92119991e-01     
H    -2.88617120e+00     -2.26244413e-01     -1.41604807e+00     
H    -3.54868090e+00     -2.77374556e-01     -3.18559665e-02     
O    -4.32923847e-01     -2.04886217e+00     -5.42139460e+00     
H    -7.09219592e-01     -1.22284858e+00     -5.82338793e+00     
H    -8.76421320e-02     -2.58696780e+00     -6.14099731e+00     
O    1.17413901e+00      -3.42743784e+00     2.24715489e+00      
H    5.51089176e-01      -4.00487628e+00     2.69244518e+00      
H    1.99877574e+00      -3.91608871e+00     2.22645154e+00      
