26
3225.294090
N    -1.09266770e-02     -5.55088171e-02     -5.04901495e-02     
H    -1.06638820e+00     -7.17780448e-02     -9.20834212e-02     
H    3.23484478e-01      8.49656851e-01      -4.76519460e-01     
H    3.23502442e-01      -1.50125337e-01     9.31059759e-01      
C    5.29318482e-01      -1.18667044e+00     -8.22333011e-01     
H    1.63067180e+00      -1.15056680e+00     -7.94672641e-01     
H    1.90007136e-01      -2.13971280e+00     -3.62439377e-01     
C    4.24536539e-02      -1.09281237e+00     -2.25099695e+00     
O    -6.57567261e-01     -1.90662807e-01     -2.67188511e+00     
O    4.97208177e-01      -2.12201880e+00     -2.93526493e+00     
H    7.63696380e-02      -2.05082750e+00     -4.06927960e+00     
O    1.00606749e+00      2.05314781e+00      -1.52337779e+00     
H    5.26187792e-01      2.07813028e+00      -2.35642717e+00     
H    1.33153057e+00      2.94520010e+00      -1.37716055e+00     
O    1.07008397e+00      -6.62352885e-01     2.36822485e+00      
H    1.16822054e+00      -1.61218460e+00     2.53289376e+00      
H    1.23387407e+00      -2.11164760e-01     3.19696949e+00      
O    -2.71868814e+00     -4.28288920e-01     -4.92016227e-01     
H    -2.88735885e+00     -2.25877178e-01     -1.41721936e+00     
H    -3.54895950e+00     -2.77545259e-01     -3.25863154e-02     
O    -4.33106216e-01     -2.04879531e+00     -5.42128196e+00     
H    -7.11061274e-01     -1.21975650e+00     -5.82745506e+00     
H    -8.61129417e-02     -2.59060330e+00     -6.14805501e+00     
O    1.17410994e+00      -3.42746139e+00     2.24714201e+00      
H    5.50830017e-01      -4.00477162e+00     2.69255238e+00      
H    1.99944909e+00      -3.91621944e+00     2.22641739e+00      
26
3225.294090
N    -1.11255865e-02     -5.53100000e-02     -5.06193825e-02     
H    -1.06264053e+00     -7.18776166e-02     -9.21044782e-02     
H    3.22502248e-01      8.46740677e-01      -4.75343844e-01     
H    3.23611247e-01      -1.50186284e-01     9.31303676e-01      
C    5.29482556e-01      -1.18707297e+00     -8.22121028e-01     
H    1.62701305e+00      -1.15064143e+00     -7.94838684e-01     
H    1.91672948e-01      -2.13480884e+00     -3.64854594e-01     
C    4.24555385e-02      -1.09289654e+00     -2.25115640e+00     
O    -6.57616654e-01     -1.90583755e-01     -2.67188203e+00     
O    4.96161817e-01      -2.12189150e+00     -2.93818948e+00     
H    9.28444505e-02      -2.05274519e+00     -4.02304170e+00     
O    1.00606720e+00      2.05315261e+00      -1.52337840e+00     
H    5.26189573e-01      2.07806388e+00      -2.35639146e+00     
H    1.33152818e+00      2.94519943e+00      -1.37712668e+00     
O    1.07008422e+00      -6.62350639e-01     2.36822832e+00      
H    1.16822991e+00      -1.61220668e+00     2.53288279e+00      
H    1.23389023e+00      -2.11170391e-01     3.19700756e+00      
O    -2.71869303e+00     -4.28286334e-01     -4.92015813e-01     
H    -2.88727977e+00     -2.25898104e-01     -1.41719853e+00     
H    -3.54894108e+00     -2.77534472e-01     -3.25528882e-02     
O    -4.33058486e-01     -2.04881386e+00     -5.42130875e+00     
H    -7.10620716e-01     -1.22052693e+00     -5.82652093e+00     
H    -8.65377512e-02     -2.58964672e+00     -6.14630080e+00     
O    1.17411139e+00      -3.42745953e+00     2.24714388e+00      
H    5.50756037e-01      -4.00481157e+00     2.69257580e+00      
H    1.99950454e+00      -3.91622612e+00     2.22637922e+00      
26
3225.294090
N    -1.12250412e-02     -5.52105915e-02     -5.06839990e-02     
H    -1.06076669e+00     -7.19274026e-02     -9.21150068e-02     
H    3.22011132e-01      8.45282590e-01      -4.74756036e-01     
H    3.23665650e-01      -1.50216757e-01     9.31425635e-01      
C    5.29564594e-01      -1.18727423e+00     -8.22015037e-01     
H    1.62518367e+00      -1.15067875e+00     -7.94921705e-01     
H    1.92505854e-01      -2.13235686e+00     -3.66062203e-01     
C    4.24564807e-02      -1.09293862e+00     -2.25123613e+00     
O    -6.57641350e-01     -1.90544229e-01     -2.67188048e+00     
O    4.95638637e-01      -2.12182784e+00     -2.93965176e+00     
H    1.01081857e-01      -2.05370403e+00     -3.99992275e+00     
O    1.00606706e+00      2.05315501e+00      -1.52337870e+00     
H    5.26190464e-01      2.07803069e+00      -2.35637361e+00     
H    1.33152698e+00      2.94519910e+00      -1.37710974e+00     
O    1.07008435e+00      -6.62349516e-01     2.36823006e+00      
H    1.16823460e+00      -1.61221773e+00     2.53287731e+00      
H    1.23389831e+00      -2.11173207e-01     3.19702660e+00      
O    -2.71869548e+00     -4.28285042e-01     -4.92015606e-01     
H    -2.88724023e+00     -2.25908567e-01     -1.41718812e+00     
H    -3.54893187e+00     -2.77529078e-01     -3.25361747e-02     
O    -4.33034621e-01     -2.04882313e+00     -5.42132215e+00     
H    -7.10400437e-01     -1.22091214e+00     -5.82605387e+00     
H    -8.67501560e-02     -2.58916844e+00     -6.14542370e+00     
O    1.17411211e+00      -3.42745860e+00     2.24714481e+00      
H    5.50719047e-01      -4.00483154e+00     2.69258752e+00      
H    1.99953227e+00      -3.91622946e+00     2.22636013e+00      
26
3225.294090
N    -1.13244959e-02     -5.51111830e-02     -5.07486154e-02     
H    -1.05889286e+00     -7.19771885e-02     -9.21255353e-02     
H    3.21520017e-01      8.43824503e-01      -4.74168228e-01     
H    3.23720053e-01      -1.50247231e-01     9.31547593e-01      
C    5.29646631e-01      -1.18747550e+00     -8.21909045e-01     
H    1.62335429e+00      -1.15071607e+00     -7.95004726e-01     
H    1.93338760e-01      -2.12990488e+00     -3.67269811e-01     
C    4.24574230e-02      -1.09298071e+00     -2.25131585e+00     
O    -6.57666046e-01     -1.90504704e-01     -2.67187894e+00     
O    4.95115457e-01      -2.12176419e+00     -2.94111403e+00     
H    1.09319263e-01      -2.05466288e+00     -3.97680380e+00     
O    1.00606692e+00      2.05315740e+00      -1.52337901e+00     
H    5.26191354e-01      2.07799749e+00      -2.35635575e+00     
H    1.33152578e+00      2.94519876e+00      -1.37709281e+00     
O    1.07008448e+00      -6.62348393e-01     2.36823179e+00      
H    1.16823928e+00      -1.61222877e+00     2.53287183e+00      
H    1.23390639e+00      -2.11176023e-01     3.19704564e+00      
O    -2.71869793e+00     -4.28283749e-01     -4.92015400e-01     
H    -2.88720069e+00     -2.25919030e-01     -1.41717771e+00     
H    -3.54892266e+00     -2.77523685e-01     -3.25194611e-02     
O    -4.33010756e-01     -2.04883240e+00     -5.42133554e+00     
H    -7.10180159e-01     -1.22129735e+00     -5.82558680e+00     
H    -8.69625607e-02     -2.58869015e+00     -6.14454659e+00     
O    1.17411284e+00      -3.42745767e+00     2.24714574e+00      
H    5.50682056e-01      -4.00485152e+00     2.69259923e+00      
H    1.99955999e+00      -3.91623279e+00     2.22634104e+00      
26
3225.294090
N    -1.14239506e-02     -5.50117745e-02     -5.08132319e-02     
H    -1.05701902e+00     -7.20269744e-02     -9.21360638e-02     
H    3.21028902e-01      8.42366416e-01      -4.73580420e-01     
H    3.23774455e-01      -1.50277704e-01     9.31669552e-01      
C    5.29728668e-01      -1.18767676e+00     -8.21803054e-01     
H    1.62152491e+00      -1.15075338e+00     -7.95087747e-01     
H    1.94171665e-01      -2.12745290e+00     -3.68477420e-01     
C    4.24583652e-02      -1.09302279e+00     -2.25139558e+00     
O    -6.57690742e-01     -1.90465178e-01     -2.67187740e+00     
O    4.94592277e-01      -2.12170054e+00     -2.94257631e+00     
H    1.17556669e-01      -2.05562172e+00     -3.95368485e+00     
O    1.00606678e+00      2.05315980e+00      -1.52337931e+00     
H    5.26192245e-01      2.07796429e+00      -2.35633790e+00     
H    1.33152458e+00      2.94519843e+00      -1.37707587e+00     
O    1.07008460e+00      -6.62347270e-01     2.36823353e+00      
H    1.16824397e+00      -1.61223981e+00     2.53286635e+00      
H    1.23391447e+00      -2.11178839e-01     3.19706467e+00      
O    -2.71870038e+00     -4.28282456e-01     -4.92015193e-01     
H    -2.88716115e+00     -2.25929493e-01     -1.41716729e+00     
H    -3.54891345e+00     -2.77518291e-01     -3.25027475e-02     
O    -4.32986891e-01     -2.04884167e+00     -5.42134894e+00     
H    -7.09959880e-01     -1.22168256e+00     -5.82511974e+00     
H    -8.71749655e-02     -2.58821186e+00     -6.14366949e+00     
O    1.17411356e+00      -3.42745674e+00     2.24714667e+00      
H    5.50645066e-01      -4.00487149e+00     2.69261094e+00      
H    1.99958772e+00      -3.91623613e+00     2.22632196e+00      
26
3225.294090
N    -1.15234054e-02     -5.49123659e-02     -5.08778484e-02     
H    -1.05514519e+00     -7.20767603e-02     -9.21465923e-02     
H    3.20537787e-01      8.40908329e-01      -4.72992612e-01     
H    3.23828858e-01      -1.50308177e-01     9.31791511e-01      
C    5.29810705e-01      -1.18787803e+00     -8.21697063e-01     
H    1.61969554e+00      -1.15079070e+00     -7.95170769e-01     
H    1.95004571e-01      -2.12500092e+00     -3.69685029e-01     
C    4.24593075e-02      -1.09306488e+00     -2.25147531e+00     
O    -6.57715438e-01     -1.90425652e-01     -2.67187586e+00     
O    4.94069098e-01      -2.12163689e+00     -2.94403858e+00     
H    1.25794076e-01      -2.05658056e+00     -3.93056590e+00     
O    1.00606663e+00      2.05316220e+00      -1.52337962e+00     
H    5.26193136e-01      2.07793109e+00      -2.35632005e+00     
H    1.33152339e+00      2.94519810e+00      -1.37705893e+00     
O    1.07008473e+00      -6.62346147e-01     2.36823526e+00      
H    1.16824865e+00      -1.61225085e+00     2.53286086e+00      
H    1.23392255e+00      -2.11181654e-01     3.19708371e+00      
O    -2.71870282e+00     -4.28281163e-01     -4.92014986e-01     
H    -2.88712161e+00     -2.25939956e-01     -1.41715688e+00     
H    -3.54890424e+00     -2.77512897e-01     -3.24860339e-02     
O    -4.32963026e-01     -2.04885095e+00     -5.42136233e+00     
H    -7.09739601e-01     -1.22206777e+00     -5.82465267e+00     
H    -8.73873702e-02     -2.58773357e+00     -6.14279239e+00     
O    1.17411429e+00      -3.42745581e+00     2.24714760e+00      
H    5.50608076e-01      -4.00489147e+00     2.69262265e+00      
H    1.99961544e+00      -3.91623947e+00     2.22630287e+00      
26
3225.294090
N    -1.15731327e-02     -5.48626617e-02     -5.09101567e-02     
H    -1.05420827e+00     -7.21016533e-02     -9.21518566e-02     
H    3.20292229e-01      8.40179286e-01      -4.72698708e-01     
H    3.23856059e-01      -1.50323414e-01     9.31852490e-01      
C    5.29851724e-01      -1.18797866e+00     -8.21644067e-01     
H    1.61878085e+00      -1.15080936e+00     -7.95212279e-01     
H    1.95421024e-01      -2.12377493e+00     -3.70288833e-01     
C    4.24597786e-02      -1.09308592e+00     -2.25151517e+00     
O    -6.57727786e-01     -1.90405889e-01     -2.67187509e+00     
O    4.93807508e-01      -2.12160506e+00     -2.94476972e+00     
H    1.29912779e-01      -2.05705998e+00     -3.91900643e+00     
O    1.00606656e+00      2.05316340e+00      -1.52337977e+00     
H    5.26193581e-01      2.07791450e+00      -2.35631112e+00     
H    1.33152279e+00      2.94519793e+00      -1.37705046e+00     
O    1.07008479e+00      -6.62345585e-01     2.36823613e+00      
H    1.16825099e+00      -1.61225637e+00     2.53285812e+00      
H    1.23392659e+00      -2.11183062e-01     3.19709323e+00      
O    -2.71870405e+00     -4.28280517e-01     -4.92014882e-01     
H    -2.88710184e+00     -2.25945188e-01     -1.41715167e+00     
H    -3.54889964e+00     -2.77510200e-01     -3.24776772e-02     
O    -4.32951094e-01     -2.04885558e+00     -5.42136903e+00     
H    -7.09629462e-01     -1.22226037e+00     -5.82441914e+00     
H    -8.74935726e-02     -2.58749443e+00     -6.14235383e+00     
O    1.17411465e+00      -3.42745535e+00     2.24714806e+00      
H    5.50589581e-01      -4.00490146e+00     2.69262850e+00      
H    1.99962930e+00      -3.91624113e+00     2.22629333e+00      
26
3225.294090
N    -1.16228601e-02     -5.48129574e-02     -5.09424649e-02     
H    -1.05327135e+00     -7.21265463e-02     -9.21571209e-02     
H    3.20046671e-01      8.39450242e-01      -4.72404804e-01     
H    3.23883260e-01      -1.50338651e-01     9.31913469e-01      
C    5.29892743e-01      -1.18807929e+00     -8.21591071e-01     
H    1.61786616e+00      -1.15082801e+00     -7.95253790e-01     
H    1.95837477e-01      -2.12254894e+00     -3.70892637e-01     
C    4.24602497e-02      -1.09310696e+00     -2.25155503e+00     
O    -6.57740134e-01     -1.90386126e-01     -2.67187432e+00     
O    4.93545918e-01      -2.12157323e+00     -2.94550086e+00     
H    1.34031482e-01      -2.05753941e+00     -3.90744695e+00     
O    1.00606649e+00      2.05316460e+00      -1.52337992e+00     
H    5.26194026e-01      2.07789790e+00      -2.35630219e+00     
H    1.33152219e+00      2.94519776e+00      -1.37704200e+00     
O    1.07008485e+00      -6.62345024e-01     2.36823700e+00      
H    1.16825334e+00      -1.61226189e+00     2.53285538e+00      
H    1.23393063e+00      -2.11184470e-01     3.19710274e+00      
O    -2.71870527e+00     -4.28279871e-01     -4.92014779e-01     
H    -2.88708207e+00     -2.25950419e-01     -1.41714646e+00     
H    -3.54889503e+00     -2.77507504e-01     -3.24693204e-02     
O    -4.32939161e-01     -2.04886022e+00     -5.42137573e+00     
H    -7.09519323e-01     -1.22245298e+00     -5.82418561e+00     
H    -8.75997750e-02     -2.58725529e+00     -6.14191528e+00     
O    1.17411501e+00      -3.42745488e+00     2.24714853e+00      
H    5.50571086e-01      -4.00491144e+00     2.69263436e+00      
H    1.99964317e+00      -3.91624280e+00     2.22628379e+00      
26
3225.294090
N    -1.18217695e-02     -5.46141404e-02     -5.10716979e-02     
H    -1.04952369e+00     -7.22261181e-02     -9.21781779e-02     
H    3.19064441e-01      8.36534068e-01      -4.71229188e-01     
H    3.23992066e-01      -1.50399597e-01     9.32157387e-01      
C    5.30056817e-01      -1.18848183e+00     -8.21379089e-01     
H    1.61420740e+00      -1.15090265e+00     -7.95419832e-01     
H    1.97503289e-01      -2.11764498e+00     -3.73307855e-01     
C    4.24621343e-02      -1.09319114e+00     -2.25171449e+00     
O    -6.57789526e-01     -1.90307074e-01     -2.67187124e+00     
O    4.92499558e-01      -2.12144593e+00     -2.94842540e+00     
H    1.50506294e-01      -2.05945709e+00     -3.86120905e+00     
O    1.00606621e+00      2.05316940e+00      -1.52338054e+00     
H    5.26195808e-01      2.07783150e+00      -2.35626649e+00     
H    1.33151979e+00      2.94519710e+00      -1.37700812e+00     
O    1.07008511e+00      -6.62342778e-01     2.36824046e+00      
H    1.16826270e+00      -1.61228397e+00     2.53284442e+00      
H    1.23394679e+00      -2.11190102e-01     3.19714082e+00      
O    -2.71871017e+00     -4.28277285e-01     -4.92014365e-01     
H    -2.88700299e+00     -2.25971345e-01     -1.41712564e+00     
H    -3.54887661e+00     -2.77496716e-01     -3.24358932e-02     
O    -4.32891431e-01     -2.04887876e+00     -5.42140251e+00     
H    -7.09078765e-01     -1.22322340e+00     -5.82325147e+00     
H    -8.80245844e-02     -2.58629871e+00     -6.14016108e+00     
O    1.17411647e+00      -3.42745302e+00     2.24715039e+00      
H    5.50497106e-01      -4.00495140e+00     2.69265778e+00      
H    1.99969861e+00      -3.91624948e+00     2.22624561e+00      
26
3225.294090
N    -1.18714969e-02     -5.45644361e-02     -5.11040061e-02     
H    -1.04858677e+00     -7.22510111e-02     -9.21834422e-02     
H    3.18818883e-01      8.35805024e-01      -4.70935284e-01     
H    3.24019267e-01      -1.50414834e-01     9.32218366e-01      
C    5.30097836e-01      -1.18858246e+00     -8.21326093e-01     
H    1.61329271e+00      -1.15092130e+00     -7.95461343e-01     
H    1.97919742e-01      -2.11641899e+00     -3.73911659e-01     
C    4.24626054e-02      -1.09321218e+00     -2.25175435e+00     
O    -6.57801874e-01     -1.90287311e-01     -2.67187047e+00     
O    4.92237968e-01      -2.12141410e+00     -2.94915654e+00     
H    1.54624997e-01      -2.05993652e+00     -3.84964957e+00     
O    1.00606614e+00      2.05317060e+00      -1.52338069e+00     
H    5.26196253e-01      2.07781490e+00      -2.35625756e+00     
H    1.33151919e+00      2.94519693e+00      -1.37699966e+00     
O    1.07008517e+00      -6.62342217e-01     2.36824133e+00      
H    1.16826505e+00      -1.61228949e+00     2.53284168e+00      
H    1.23395083e+00      -2.11191510e-01     3.19715033e+00      
O    -2.71871139e+00     -4.28276639e-01     -4.92014262e-01     
H    -2.88698322e+00     -2.25976576e-01     -1.41712043e+00     
H    -3.54887200e+00     -2.77494020e-01     -3.24275364e-02     
O    -4.32879498e-01     -2.04888340e+00     -5.42140921e+00     
H    -7.08968626e-01     -1.22341601e+00     -5.82301794e+00     
H    -8.81307868e-02     -2.58605957e+00     -6.13972253e+00     
O    1.17411683e+00      -3.42745255e+00     2.24715086e+00      
H    5.50478611e-01      -4.00496138e+00     2.69266364e+00      
H    1.99971248e+00      -3.91625115e+00     2.22623607e+00      
26
3225.294090
N    -1.19212242e-02     -5.45147319e-02     -5.11363144e-02     
H    -1.04764985e+00     -7.22759041e-02     -9.21887065e-02     
H    3.18573325e-01      8.35075981e-01      -4.70641380e-01     
H    3.24046468e-01      -1.50430071e-01     9.32279345e-01      
C    5.30138855e-01      -1.18868309e+00     -8.21273097e-01     
H    1.61237802e+00      -1.15093996e+00     -7.95502853e-01     
H    1.98336195e-01      -2.11519300e+00     -3.74515463e-01     
C    4.24630765e-02      -1.09323322e+00     -2.25179421e+00     
O    -6.57814222e-01     -1.90267548e-01     -2.67186970e+00     
O    4.91976378e-01      -2.12138227e+00     -2.94988768e+00     
H    1.58743700e-01      -2.06041594e+00     -3.83809010e+00     
O    1.00606607e+00      2.05317180e+00      -1.52338084e+00     
H    5.26196698e-01      2.07779831e+00      -2.35624863e+00     
H    1.33151859e+00      2.94519676e+00      -1.37699119e+00     
O    1.07008523e+00      -6.62341655e-01     2.36824220e+00      
H    1.16826739e+00      -1.61229501e+00     2.53283894e+00      
H    1.23395487e+00      -2.11192918e-01     3.19715985e+00      
O    -2.71871262e+00     -4.28275993e-01     -4.92014158e-01     
H    -2.88696345e+00     -2.25981808e-01     -1.41711522e+00     
H    -3.54886740e+00     -2.77491323e-01     -3.24191797e-02     
O    -4.32867566e-01     -2.04888803e+00     -5.42141591e+00     
H    -7.08858487e-01     -1.22360861e+00     -5.82278441e+00     
H    -8.82369892e-02     -2.58582043e+00     -6.13928397e+00     
O    1.17411719e+00      -3.42745209e+00     2.24715132e+00      
H    5.50460116e-01      -4.00497137e+00     2.69266949e+00      
H    1.99972634e+00      -3.91625281e+00     2.22622653e+00      
26
3225.294090
N    -1.20206790e-02     -5.44153233e-02     -5.12009309e-02     
H    -1.04577602e+00     -7.23256900e-02     -9.21992350e-02     
H    3.18082210e-01      8.33617894e-01      -4.70053572e-01     
H    3.24100871e-01      -1.50460544e-01     9.32401304e-01      
C    5.30220892e-01      -1.18888436e+00     -8.21167106e-01     
H    1.61054865e+00      -1.15097728e+00     -7.95585875e-01     
H    1.99169101e-01      -2.11274102e+00     -3.75723072e-01     
C    4.24640188e-02      -1.09327531e+00     -2.25187394e+00     
O    -6.57838918e-01     -1.90228022e-01     -2.67186816e+00     
O    4.91453199e-01      -2.12131862e+00     -2.95134995e+00     
H    1.66981107e-01      -2.06137478e+00     -3.81497115e+00     
O    1.00606592e+00      2.05317420e+00      -1.52338115e+00     
H    5.26197589e-01      2.07776511e+00      -2.35623078e+00     
H    1.33151740e+00      2.94519643e+00      -1.37697425e+00     
O    1.07008536e+00      -6.62340532e-01     2.36824393e+00      
H    1.16827207e+00      -1.61230605e+00     2.53283345e+00      
H    1.23396295e+00      -2.11195733e-01     3.19717889e+00      
O    -2.71871506e+00     -4.28274700e-01     -4.92013951e-01     
H    -2.88692391e+00     -2.25992271e-01     -1.41710481e+00     
H    -3.54885819e+00     -2.77485929e-01     -3.24024661e-02     
O    -4.32843701e-01     -2.04889731e+00     -5.42142930e+00     
H    -7.08638208e-01     -1.22399382e+00     -5.82231734e+00     
H    -8.84493939e-02     -2.58534214e+00     -6.13840687e+00     
O    1.17411792e+00      -3.42745116e+00     2.24715225e+00      
H    5.50423126e-01      -4.00499135e+00     2.69268120e+00      
H    1.99975406e+00      -3.91625615e+00     2.22620744e+00      
26
3225.294090
N    -1.21201337e-02     -5.43159148e-02     -5.12655474e-02     
H    -1.04390218e+00     -7.23754759e-02     -9.22097635e-02     
H    3.17591095e-01      8.32159807e-01      -4.69465764e-01     
H    3.24155273e-01      -1.50491017e-01     9.32523263e-01      
C    5.30302929e-01      -1.18908562e+00     -8.21061115e-01     
H    1.60871927e+00      -1.15101459e+00     -7.95668896e-01     
H    2.00002006e-01      -2.11028904e+00     -3.76930681e-01     
C    4.24649610e-02      -1.09331739e+00     -2.25195367e+00     
O    -6.57863614e-01     -1.90188496e-01     -2.67186662e+00     
O    4.90930019e-01      -2.12125497e+00     -2.95281223e+00     
H    1.75218513e-01      -2.06233362e+00     -3.79185220e+00     
O    1.00606578e+00      2.05317660e+00      -1.52338145e+00     
H    5.26198480e-01      2.07773191e+00      -2.35621293e+00     
H    1.33151620e+00      2.94519610e+00      -1.37695731e+00     
O    1.07008548e+00      -6.62339409e-01     2.36824567e+00      
H    1.16827676e+00      -1.61231709e+00     2.53282797e+00      
H    1.23397103e+00      -2.11198549e-01     3.19719792e+00      
O    -2.71871751e+00     -4.28273407e-01     -4.92013744e-01     
H    -2.88688437e+00     -2.26002734e-01     -1.41709439e+00     
H    -3.54884898e+00     -2.77480535e-01     -3.23857525e-02     
O    -4.32819836e-01     -2.04890658e+00     -5.42144270e+00     
H    -7.08417929e-01     -1.22437903e+00     -5.82185028e+00     
H    -8.86617987e-02     -2.58486385e+00     -6.13752977e+00     
O    1.17411864e+00      -3.42745023e+00     2.24715318e+00      
H    5.50386136e-01      -4.00501132e+00     2.69269291e+00      
H    1.99978179e+00      -3.91625949e+00     2.22618836e+00      
26
3225.294090
N    -1.22195884e-02     -5.42165063e-02     -5.13301638e-02     
H    -1.04202835e+00     -7.24252618e-02     -9.22202920e-02     
H    3.17099980e-01      8.30701720e-01      -4.68877956e-01     
H    3.24209676e-01      -1.50521491e-01     9.32645221e-01      
C    5.30384966e-01      -1.18928689e+00     -8.20955123e-01     
H    1.60688989e+00      -1.15105191e+00     -7.95751917e-01     
H    2.00834912e-01      -2.10783706e+00     -3.78138289e-01     
C    4.24659033e-02      -1.09335948e+00     -2.25203339e+00     
O    -6.57888310e-01     -1.90148971e-01     -2.67186508e+00     
O    4.90406839e-01      -2.12119132e+00     -2.95427450e+00     
H    1.83455919e-01      -2.06329247e+00     -3.76873325e+00     
O    1.00606564e+00      2.05317899e+00      -1.52338176e+00     
H    5.26199370e-01      2.07769871e+00      -2.35619507e+00     
H    1.33151500e+00      2.94519576e+00      -1.37694038e+00     
O    1.07008561e+00      -6.62338286e-01     2.36824740e+00      
H    1.16828144e+00      -1.61232813e+00     2.53282249e+00      
H    1.23397911e+00      -2.11201365e-01     3.19721696e+00      
O    -2.71871996e+00     -4.28272114e-01     -4.92013538e-01     
H    -2.88684483e+00     -2.26013197e-01     -1.41708398e+00     
H    -3.54883977e+00     -2.77475142e-01     -3.23690389e-02     
O    -4.32795971e-01     -2.04891585e+00     -5.42145609e+00     
H    -7.08197651e-01     -1.22476424e+00     -5.82138321e+00     
H    -8.88742034e-02     -2.58438556e+00     -6.13665266e+00     
O    1.17411937e+00      -3.42744930e+00     2.24715411e+00      
H    5.50349145e-01      -4.00503130e+00     2.69270462e+00      
H    1.99980951e+00      -3.91626282e+00     2.22616927e+00      
26
3225.294090
N    -1.23190431e-02     -5.41170978e-02     -5.13947803e-02     
H    -1.04015451e+00     -7.24750478e-02     -9.22308206e-02     
H    3.16608864e-01      8.29243633e-01      -4.68290148e-01     
H    3.24264079e-01      -1.50551964e-01     9.32767180e-01      
C    5.30467004e-01      -1.18948815e+00     -8.20849132e-01     
H    1.60506051e+00      -1.15108923e+00     -7.95834938e-01     
H    2.01667818e-01      -2.10538508e+00     -3.79345898e-01     
C    4.24668455e-02      -1.09340156e+00     -2.25211312e+00     
O    -6.57913006e-01     -1.90109445e-01     -2.67186353e+00     
O    4.89883659e-01      -2.12112766e+00     -2.95573678e+00     
H    1.91693325e-01      -2.06425131e+00     -3.74561430e+00     
O    1.00606550e+00      2.05318139e+00      -1.52338206e+00     
H    5.26200261e-01      2.07766552e+00      -2.35617722e+00     
H    1.33151380e+00      2.94519543e+00      -1.37692344e+00     
O    1.07008574e+00      -6.62337163e-01     2.36824914e+00      
H    1.16828613e+00      -1.61233918e+00     2.53281701e+00      
H    1.23398719e+00      -2.11204181e-01     3.19723600e+00      
O    -2.71872241e+00     -4.28270822e-01     -4.92013331e-01     
H    -2.88680529e+00     -2.26023660e-01     -1.41707357e+00     
H    -3.54883056e+00     -2.77469748e-01     -3.23523254e-02     
O    -4.32772106e-01     -2.04892512e+00     -5.42146949e+00     
H    -7.07977372e-01     -1.22514945e+00     -5.82091615e+00     
H    -8.90866082e-02     -2.58390728e+00     -6.13577556e+00     
O    1.17412009e+00      -3.42744837e+00     2.24715504e+00      
H    5.50312155e-01      -4.00505127e+00     2.69271634e+00      
H    1.99983724e+00      -3.91626616e+00     2.22615018e+00      
26
3225.294090
N    -1.25179526e-02     -5.39182807e-02     -5.15240133e-02     
H    -1.03640684e+00     -7.25746196e-02     -9.22518776e-02     
H    3.15626634e-01      8.26327459e-01      -4.67114532e-01     
H    3.24372884e-01      -1.50612911e-01     9.33011097e-01      
C    5.30631078e-01      -1.18989068e+00     -8.20637149e-01     
H    1.60140176e+00      -1.15116386e+00     -7.96000981e-01     
H    2.03333630e-01      -2.10048112e+00     -3.81761115e-01     
C    4.24687301e-02      -1.09348573e+00     -2.25227257e+00     
O    -6.57962399e-01     -1.90030393e-01     -2.67186045e+00     
O    4.88837299e-01      -2.12100036e+00     -2.95866133e+00     
H    2.08168138e-01      -2.06616900e+00     -3.69937640e+00     
O    1.00606521e+00      2.05318619e+00      -1.52338267e+00     
H    5.26202042e-01      2.07759912e+00      -2.35614151e+00     
H    1.33151141e+00      2.94519476e+00      -1.37688957e+00     
O    1.07008599e+00      -6.62334917e-01     2.36825261e+00      
H    1.16829550e+00      -1.61236126e+00     2.53280604e+00      
H    1.23400335e+00      -2.11209812e-01     3.19727407e+00      
O    -2.71872730e+00     -4.28268236e-01     -4.92012917e-01     
H    -2.88672621e+00     -2.26044586e-01     -1.41705274e+00     
H    -3.54881214e+00     -2.77458961e-01     -3.23188982e-02     
O    -4.32724376e-01     -2.04894367e+00     -5.42149628e+00     
H    -7.07536814e-01     -1.22591988e+00     -5.81998202e+00     
H    -8.95114177e-02     -2.58295070e+00     -6.13402135e+00     
O    1.17412154e+00      -3.42744651e+00     2.24715691e+00      
H    5.50238175e-01      -4.00509122e+00     2.69273976e+00      
H    1.99989269e+00      -3.91627284e+00     2.22611201e+00      
