26
3680.961281
N    -1.15470993e-02     -5.47496629e-02     -5.06302772e-02     
H    -1.05257777e+00     -7.23893315e-02     -9.23786022e-02     
H    3.19692076e-01      8.38443302e-01      -4.72271357e-01     
H    3.22079178e-01      -1.49466809e-01     9.26254492e-01      
C    5.29963294e-01      -1.18822064e+00     -8.21521166e-01     
H    1.61629240e+00      -1.15109831e+00     -7.95391016e-01     
H    1.96618692e-01      -2.12090706e+00     -3.71795377e-01     
C    4.24598639e-02      -1.09316428e+00     -2.25165213e+00     
O    -6.57762502e-01     -1.90345496e-01     -2.67187101e+00     
O    4.93015264e-01      -2.12149653e+00     -2.94697011e+00     
H    1.42341383e-01      -2.05858071e+00     -3.88417808e+00     
O    1.00605667e+00      2.05311058e+00      -1.52335828e+00     
H    5.26002227e-01      2.07785582e+00      -2.35666220e+00     
H    1.33184708e+00      2.94607215e+00      -1.37693672e+00     
O    1.06854523e+00      -6.51508521e-01     2.36469920e+00      
H    1.18768408e+00      -1.80493744e+00     2.56247559e+00      
H    1.23948876e+00      -1.90418350e-01     3.22551293e+00      
O    -2.71862895e+00     -4.28291967e-01     -4.91999490e-01     
H    -2.88716609e+00     -2.25837845e-01     -1.41794528e+00     
H    -3.54996546e+00     -2.77374546e-01     -3.18534618e-02     
O    -4.32912475e-01     -2.04887272e+00     -5.42138960e+00     
H    -7.09321902e-01     -1.22279310e+00     -5.82375224e+00     
H    -8.78296963e-02     -2.58676458e+00     -6.14097879e+00     
O    1.17398199e+00      -3.42673128e+00     2.24686974e+00      
H    5.44795961e-01      -4.01128197e+00     2.69682171e+00      
H    2.00738688e+00      -3.92171947e+00     2.22610982e+00      
26
3680.961281
N    -1.15909032e-02     -5.47406344e-02     -5.07244782e-02     
H    -1.05228271e+00     -7.23360817e-02     -9.23258640e-02     
H    3.19657946e-01      8.38330515e-01      -4.72157767e-01     
H    3.22543799e-01      -1.49692388e-01     9.27699726e-01      
C    5.29966166e-01      -1.18823562e+00     -8.21512145e-01     
H    1.61622849e+00      -1.15104007e+00     -7.95377464e-01     
H    1.96631615e-01      -2.12070453e+00     -3.71871594e-01     
C    4.24601959e-02      -1.09316047e+00     -2.25164779e+00     
O    -6.57763084e-01     -1.90345772e-01     -2.67187146e+00     
O    4.93017132e-01      -2.12149979e+00     -2.94696837e+00     
H    1.42323259e-01      -2.05856009e+00     -3.88421556e+00     
O    1.00605909e+00      2.05312469e+00      -1.52336377e+00     
H    5.26050399e-01      2.07785804e+00      -2.35656774e+00     
H    1.33176556e+00      2.94585347e+00      -1.37695881e+00     
O    1.06893017e+00      -6.54217366e-01     2.36558408e+00      
H    1.18282757e+00      -1.75677131e+00     2.55506917e+00      
H    1.23810125e+00      -1.95610584e-01     3.21841514e+00      
O    -2.71864864e+00     -4.28288619e-01     -4.92003261e-01     
H    -2.88713520e+00     -2.25868604e-01     -1.41774297e+00     
H    -3.54969555e+00     -2.77406437e-01     -3.20032480e-02     
O    -4.32913180e-01     -2.04887191e+00     -5.42138948e+00     
H    -7.09316188e-01     -1.22280437e+00     -5.82374381e+00     
H    -8.78253171e-02     -2.58676769e+00     -6.14099364e+00     
O    1.17401543e+00      -3.42691195e+00     2.24693967e+00      
H    5.46230494e-01      -4.00969433e+00     2.69577780e+00      
H    2.00545788e+00      -3.92035114e+00     2.22614854e+00      
26
3680.961281
N    -1.16128051e-02     -5.47361201e-02     -5.07715788e-02     
H    -1.05213518e+00     -7.23094568e-02     -9.22994949e-02     
H    3.19640881e-01      8.38274122e-01      -4.72100972e-01     
H    3.22776110e-01      -1.49805177e-01     9.28422343e-01      
C    5.29967601e-01      -1.18824311e+00     -8.21507634e-01     
H    1.61619654e+00      -1.15101095e+00     -7.95370689e-01     
H    1.96638076e-01      -2.12060327e+00     -3.71909703e-01     
C    4.24603620e-02      -1.09315857e+00     -2.25164562e+00     
O    -6.57763375e-01     -1.90345910e-01     -2.67187168e+00     
O    4.93018067e-01      -2.12150142e+00     -2.94696749e+00     
H    1.42314197e-01      -2.05854979e+00     -3.88423430e+00     
O    1.00606030e+00      2.05313174e+00      -1.52336651e+00     
H    5.26074485e-01      2.07785915e+00      -2.35652050e+00     
H    1.33172480e+00      2.94574413e+00      -1.37696985e+00     
O    1.06912264e+00      -6.55571788e-01     2.36602652e+00      
H    1.18039931e+00      -1.73268825e+00     2.55136595e+00      
H    1.23740749e+00      -1.98206701e-01     3.21486625e+00      
O    -2.71865849e+00     -4.28286946e-01     -4.92005146e-01     
H    -2.88711975e+00     -2.25883984e-01     -1.41764182e+00     
H    -3.54956060e+00     -2.77422383e-01     -3.20781412e-02     
O    -4.32913533e-01     -2.04887151e+00     -5.42138942e+00     
H    -7.09313330e-01     -1.22281001e+00     -5.82373960e+00     
H    -8.78231275e-02     -2.58676924e+00     -6.14100106e+00     
O    1.17403215e+00      -3.42700228e+00     2.24697463e+00      
H    5.46947761e-01      -4.00890051e+00     2.69525585e+00      
H    2.00449338e+00      -3.91966697e+00     2.22616790e+00      
26
3680.961281
N    -1.16347070e-02     -5.47316059e-02     -5.08186793e-02     
H    -1.05198764e+00     -7.22828319e-02     -9.22731258e-02     
H    3.19623816e-01      8.38217728e-01      -4.72044177e-01     
H    3.23008420e-01      -1.49917967e-01     9.29144960e-01      
C    5.29969037e-01      -1.18825060e+00     -8.21503123e-01     
H    1.61616459e+00      -1.15098182e+00     -7.95363913e-01     
H    1.96644537e-01      -2.12050201e+00     -3.71947811e-01     
C    4.24605280e-02      -1.09315666e+00     -2.25164344e+00     
O    -6.57763666e-01     -1.90346048e-01     -2.67187190e+00     
O    4.93019001e-01      -2.12150305e+00     -2.94696662e+00     
H    1.42305135e-01      -2.05853948e+00     -3.88425304e+00     
O    1.00606151e+00      2.05313879e+00      -1.52336925e+00     
H    5.26098572e-01      2.07786026e+00      -2.35647327e+00     
H    1.33168403e+00      2.94563479e+00      -1.37698089e+00     
O    1.06931511e+00      -6.56926211e-01     2.36646897e+00      
H    1.17797105e+00      -1.70860519e+00     2.54766274e+00      
H    1.23671373e+00      -2.00802818e-01     3.21131735e+00      
O    -2.71866834e+00     -4.28285272e-01     -4.92007031e-01     
H    -2.88710431e+00     -2.25899364e-01     -1.41754066e+00     
H    -3.54942564e+00     -2.77438328e-01     -3.21530343e-02     
O    -4.32913885e-01     -2.04887111e+00     -5.42138936e+00     
H    -7.09310473e-01     -1.22281564e+00     -5.82373539e+00     
H    -8.78209380e-02     -2.58677079e+00     -6.14100848e+00     
O    1.17404887e+00      -3.42709261e+00     2.24700960e+00      
H    5.47665028e-01      -4.00810669e+00     2.69473389e+00      
H    2.00352889e+00      -3.91898281e+00     2.22618726e+00      
26
3680.961281
N    -1.16566090e-02     -5.47270916e-02     -5.08657798e-02     
H    -1.05184011e+00     -7.22562069e-02     -9.22467567e-02     
H    3.19606751e-01      8.38161335e-01      -4.71987382e-01     
H    3.23240731e-01      -1.50030756e-01     9.29867577e-01      
C    5.29970473e-01      -1.18825809e+00     -8.21498612e-01     
H    1.61613264e+00      -1.15095270e+00     -7.95357138e-01     
H    1.96650999e-01      -2.12040075e+00     -3.71985920e-01     
C    4.24606940e-02      -1.09315476e+00     -2.25164127e+00     
O    -6.57763957e-01     -1.90346186e-01     -2.67187212e+00     
O    4.93019935e-01      -2.12150469e+00     -2.94696575e+00     
H    1.42296073e-01      -2.05852917e+00     -3.88427178e+00     
O    1.00606272e+00      2.05314584e+00      -1.52337200e+00     
H    5.26122658e-01      2.07786137e+00      -2.35642604e+00     
H    1.33164327e+00      2.94552545e+00      -1.37699193e+00     
O    1.06950757e+00      -6.58280633e-01     2.36691141e+00      
H    1.17554279e+00      -1.68452212e+00     2.54395953e+00      
H    1.23601998e+00      -2.03398935e-01     3.20776846e+00      
O    -2.71867818e+00     -4.28283599e-01     -4.92008916e-01     
H    -2.88708886e+00     -2.25914743e-01     -1.41743951e+00     
H    -3.54929069e+00     -2.77454274e-01     -3.22279274e-02     
O    -4.32914238e-01     -2.04887070e+00     -5.42138930e+00     
H    -7.09307616e-01     -1.22282128e+00     -5.82373118e+00     
H    -8.78187484e-02     -2.58677234e+00     -6.14101591e+00     
O    1.17406559e+00      -3.42718295e+00     2.24704456e+00      
H    5.48382295e-01      -4.00731288e+00     2.69421194e+00      
H    2.00256439e+00      -3.91829864e+00     2.22620662e+00      
26
3680.961281
N    -1.16785109e-02     -5.47225774e-02     -5.09128803e-02     
H    -1.05169258e+00     -7.22295820e-02     -9.22203876e-02     
H    3.19589686e-01      8.38104942e-01      -4.71930586e-01     
H    3.23473042e-01      -1.50143545e-01     9.30590194e-01      
C    5.29971909e-01      -1.18826558e+00     -8.21494102e-01     
H    1.61610068e+00      -1.15092358e+00     -7.95350362e-01     
H    1.96657460e-01      -2.12029948e+00     -3.72024029e-01     
C    4.24608600e-02      -1.09315286e+00     -2.25163910e+00     
O    -6.57764248e-01     -1.90346324e-01     -2.67187234e+00     
O    4.93020869e-01      -2.12150632e+00     -2.94696488e+00     
H    1.42287012e-01      -2.05851886e+00     -3.88429052e+00     
O    1.00606393e+00      2.05315290e+00      -1.52337474e+00     
H    5.26146744e-01      2.07786248e+00      -2.35637881e+00     
H    1.33160251e+00      2.94541611e+00      -1.37700298e+00     
O    1.06970004e+00      -6.59635056e-01     2.36735385e+00      
H    1.17311454e+00      -1.66043906e+00     2.54025632e+00      
H    1.23532622e+00      -2.05995052e-01     3.20421957e+00      
O    -2.71868803e+00     -4.28281925e-01     -4.92010802e-01     
H    -2.88707342e+00     -2.25930123e-01     -1.41733836e+00     
H    -3.54915573e+00     -2.77470219e-01     -3.23028205e-02     
O    -4.32914591e-01     -2.04887030e+00     -5.42138924e+00     
H    -7.09304759e-01     -1.22282692e+00     -5.82372696e+00     
H    -8.78165588e-02     -2.58677390e+00     -6.14102333e+00     
O    1.17408230e+00      -3.42727328e+00     2.24707953e+00      
H    5.49099562e-01      -4.00651906e+00     2.69368998e+00      
H    2.00159989e+00      -3.91761447e+00     2.22622598e+00      
26
3680.961281
N    -1.16894619e-02     -5.47203203e-02     -5.09364306e-02     
H    -1.05161882e+00     -7.22162696e-02     -9.22072031e-02     
H    3.19581154e-01      8.38076745e-01      -4.71902189e-01     
H    3.23589197e-01      -1.50199940e-01     9.30951503e-01      
C    5.29972626e-01      -1.18826933e+00     -8.21491846e-01     
H    1.61608471e+00      -1.15090901e+00     -7.95346974e-01     
H    1.96660691e-01      -2.12024885e+00     -3.72043083e-01     
C    4.24609430e-02      -1.09315190e+00     -2.25163802e+00     
O    -6.57764394e-01     -1.90346393e-01     -2.67187245e+00     
O    4.93021337e-01      -2.12150713e+00     -2.94696444e+00     
H    1.42282481e-01      -2.05851371e+00     -3.88429989e+00     
O    1.00606454e+00      2.05315642e+00      -1.52337611e+00     
H    5.26158788e-01      2.07786304e+00      -2.35635519e+00     
H    1.33158213e+00      2.94536144e+00      -1.37700850e+00     
O    1.06979628e+00      -6.60312267e-01     2.36757507e+00      
H    1.17190041e+00      -1.64839753e+00     2.53840472e+00      
H    1.23497934e+00      -2.07293110e-01     3.20244512e+00      
O    -2.71869295e+00     -4.28281088e-01     -4.92011744e-01     
H    -2.88706570e+00     -2.25937813e-01     -1.41728778e+00     
H    -3.54908825e+00     -2.77478192e-01     -3.23402671e-02     
O    -4.32914767e-01     -2.04887010e+00     -5.42138921e+00     
H    -7.09303330e-01     -1.22282974e+00     -5.82372486e+00     
H    -8.78154641e-02     -2.58677467e+00     -6.14102704e+00     
O    1.17409066e+00      -3.42731845e+00     2.24709701e+00      
H    5.49458196e-01      -4.00612215e+00     2.69342900e+00      
H    2.00111764e+00      -3.91727239e+00     2.22623566e+00      
26
3680.961281
N    -1.17004129e-02     -5.47180631e-02     -5.09599809e-02     
H    -1.05154505e+00     -7.22029571e-02     -9.21940185e-02     
H    3.19572621e-01      8.38048548e-01      -4.71873791e-01     
H    3.23705352e-01      -1.50256335e-01     9.31312811e-01      
C    5.29973344e-01      -1.18827307e+00     -8.21489591e-01     
H    1.61606873e+00      -1.15089445e+00     -7.95343587e-01     
H    1.96663922e-01      -2.12019822e+00     -3.72062137e-01     
C    4.24610260e-02      -1.09315095e+00     -2.25163693e+00     
O    -6.57764539e-01     -1.90346462e-01     -2.67187256e+00     
O    4.93021804e-01      -2.12150795e+00     -2.94696400e+00     
H    1.42277950e-01      -2.05850856e+00     -3.88430926e+00     
O    1.00606514e+00      2.05315995e+00      -1.52337749e+00     
H    5.26170831e-01      2.07786359e+00      -2.35633157e+00     
H    1.33156175e+00      2.94530677e+00      -1.37701402e+00     
O    1.06989251e+00      -6.60989478e-01     2.36779629e+00      
H    1.17068628e+00      -1.63635599e+00     2.53655311e+00      
H    1.23463247e+00      -2.08591169e-01     3.20067067e+00      
O    -2.71869787e+00     -4.28280252e-01     -4.92012687e-01     
H    -2.88705797e+00     -2.25945502e-01     -1.41723720e+00     
H    -3.54902078e+00     -2.77486165e-01     -3.23777137e-02     
O    -4.32914943e-01     -2.04886989e+00     -5.42138918e+00     
H    -7.09301901e-01     -1.22283255e+00     -5.82372275e+00     
H    -8.78143693e-02     -2.58677545e+00     -6.14103076e+00     
O    1.17409902e+00      -3.42736362e+00     2.24711449e+00      
H    5.49816829e-01      -4.00572524e+00     2.69316803e+00      
H    2.00063539e+00      -3.91693031e+00     2.22624534e+00      
26
3680.961281
N    -1.17442167e-02     -5.47090347e-02     -5.10541819e-02     
H    -1.05124999e+00     -7.21497073e-02     -9.21412803e-02     
H    3.19538491e-01      8.37935762e-01      -4.71760201e-01     
H    3.24169974e-01      -1.50481913e-01     9.32758045e-01      
C    5.29976216e-01      -1.18828805e+00     -8.21480569e-01     
H    1.61600483e+00      -1.15083621e+00     -7.95330035e-01     
H    1.96676844e-01      -2.11999570e+00     -3.72138355e-01     
C    4.24613580e-02      -1.09314715e+00     -2.25163259e+00     
O    -6.57765121e-01     -1.90346738e-01     -2.67187300e+00     
O    4.93023672e-01      -2.12151121e+00     -2.94696226e+00     
H    1.42259826e-01      -2.05848794e+00     -3.88434674e+00     
O    1.00606756e+00      2.05317405e+00      -1.52338297e+00     
H    5.26219003e-01      2.07786581e+00      -2.35623711e+00     
H    1.33148023e+00      2.94508809e+00      -1.37703610e+00     
O    1.07027745e+00      -6.63698324e-01     2.36868117e+00      
H    1.16582976e+00      -1.58818987e+00     2.52914669e+00      
H    1.23324495e+00      -2.13783403e-01     3.19357289e+00      
O    -2.71871757e+00     -4.28276904e-01     -4.92016457e-01     
H    -2.88702709e+00     -2.25976262e-01     -1.41703490e+00     
H    -3.54875086e+00     -2.77518055e-01     -3.25274999e-02     
O    -4.32915649e-01     -2.04886909e+00     -5.42138906e+00     
H    -7.09296187e-01     -1.22284383e+00     -5.82371433e+00     
H    -8.78099901e-02     -2.58677855e+00     -6.14104560e+00     
O    1.17413246e+00      -3.42754428e+00     2.24718443e+00      
H    5.51251363e-01      -4.00413760e+00     2.69212411e+00      
H    1.99870639e+00      -3.91556197e+00     2.22628406e+00      
26
3680.961281
N    -1.17551677e-02     -5.47067775e-02     -5.10777322e-02     
H    -1.05117622e+00     -7.21363948e-02     -9.21280957e-02     
H    3.19529958e-01      8.37907565e-01      -4.71731803e-01     
H    3.24286129e-01      -1.50538308e-01     9.33119353e-01      
C    5.29976934e-01      -1.18829179e+00     -8.21478314e-01     
H    1.61598885e+00      -1.15082165e+00     -7.95326648e-01     
H    1.96680075e-01      -2.11994507e+00     -3.72157409e-01     
C    4.24614410e-02      -1.09314620e+00     -2.25163150e+00     
O    -6.57765266e-01     -1.90346807e-01     -2.67187311e+00     
O    4.93024139e-01      -2.12151203e+00     -2.94696182e+00     
H    1.42255295e-01      -2.05848279e+00     -3.88435611e+00     
O    1.00606816e+00      2.05317758e+00      -1.52338435e+00     
H    5.26231046e-01      2.07786636e+00      -2.35621349e+00     
H    1.33145985e+00      2.94503342e+00      -1.37704162e+00     
O    1.07037368e+00      -6.64375535e-01     2.36890239e+00      
H    1.16461563e+00      -1.57614833e+00     2.52729508e+00      
H    1.23289808e+00      -2.15081462e-01     3.19179844e+00      
O    -2.71872249e+00     -4.28276068e-01     -4.92017400e-01     
H    -2.88701936e+00     -2.25983951e-01     -1.41698432e+00     
H    -3.54868339e+00     -2.77526028e-01     -3.25649465e-02     
O    -4.32915825e-01     -2.04886888e+00     -5.42138903e+00     
H    -7.09294758e-01     -1.22284664e+00     -5.82371222e+00     
H    -8.78088953e-02     -2.58677933e+00     -6.14104932e+00     
O    1.17414082e+00      -3.42758945e+00     2.24720191e+00      
H    5.51609996e-01      -4.00374069e+00     2.69186314e+00      
H    1.99822414e+00      -3.91521989e+00     2.22629374e+00      
26
3680.961281
N    -1.17661187e-02     -5.47045204e-02     -5.11012825e-02     
H    -1.05110246e+00     -7.21230824e-02     -9.21149112e-02     
H    3.19521426e-01      8.37879368e-01      -4.71703406e-01     
H    3.24402284e-01      -1.50594703e-01     9.33480662e-01      
C    5.29977651e-01      -1.18829554e+00     -8.21476058e-01     
H    1.61597288e+00      -1.15080708e+00     -7.95323260e-01     
H    1.96683306e-01      -2.11989444e+00     -3.72176463e-01     
C    4.24615240e-02      -1.09314524e+00     -2.25163042e+00     
O    -6.57765412e-01     -1.90346876e-01     -2.67187322e+00     
O    4.93024607e-01      -2.12151284e+00     -2.94696138e+00     
H    1.42250764e-01      -2.05847764e+00     -3.88436548e+00     
O    1.00606877e+00      2.05318110e+00      -1.52338572e+00     
H    5.26243090e-01      2.07786692e+00      -2.35618987e+00     
H    1.33143947e+00      2.94497875e+00      -1.37704714e+00     
O    1.07046992e+00      -6.65052746e-01     2.36912361e+00      
H    1.16340150e+00      -1.56410680e+00     2.52544348e+00      
H    1.23255120e+00      -2.16379520e-01     3.19002399e+00      
O    -2.71872741e+00     -4.28275231e-01     -4.92018342e-01     
H    -2.88701164e+00     -2.25991641e-01     -1.41693374e+00     
H    -3.54861591e+00     -2.77534001e-01     -3.26023931e-02     
O    -4.32916001e-01     -2.04886868e+00     -5.42138900e+00     
H    -7.09293329e-01     -1.22284946e+00     -5.82371012e+00     
H    -8.78078006e-02     -2.58678010e+00     -6.14105303e+00     
O    1.17414918e+00      -3.42763462e+00     2.24721939e+00      
H    5.51968630e-01      -4.00334378e+00     2.69160216e+00      
H    1.99774189e+00      -3.91487781e+00     2.22630342e+00      
26
3680.961281
N    -1.17880206e-02     -5.47000062e-02     -5.11483830e-02     
H    -1.05095493e+00     -7.20964575e-02     -9.20885421e-02     
H    3.19504361e-01      8.37822975e-01      -4.71646610e-01     
H    3.24634595e-01      -1.50707492e-01     9.34203279e-01      
C    5.29979087e-01      -1.18830303e+00     -8.21471548e-01     
H    1.61594092e+00      -1.15077796e+00     -7.95316484e-01     
H    1.96689767e-01      -2.11979317e+00     -3.72214572e-01     
C    4.24616900e-02      -1.09314334e+00     -2.25162825e+00     
O    -6.57765703e-01     -1.90347014e-01     -2.67187344e+00     
O    4.93025541e-01      -2.12151447e+00     -2.94696051e+00     
H    1.42241703e-01      -2.05846733e+00     -3.88438422e+00     
O    1.00606998e+00      2.05318816e+00      -1.52338846e+00     
H    5.26267176e-01      2.07786803e+00      -2.35614264e+00     
H    1.33139871e+00      2.94486941e+00      -1.37705819e+00     
O    1.07066239e+00      -6.66407169e-01     2.36956605e+00      
H    1.16097325e+00      -1.54002374e+00     2.52174027e+00      
H    1.23185744e+00      -2.18975637e-01     3.18647510e+00      
O    -2.71873726e+00     -4.28273557e-01     -4.92020228e-01     
H    -2.88699620e+00     -2.26007021e-01     -1.41683259e+00     
H    -3.54848095e+00     -2.77549946e-01     -3.26772862e-02     
O    -4.32916354e-01     -2.04886828e+00     -5.42138894e+00     
H    -7.09290472e-01     -1.22285510e+00     -5.82370590e+00     
H    -8.78056110e-02     -2.58678166e+00     -6.14106045e+00     
O    1.17416589e+00      -3.42772495e+00     2.24725436e+00      
H    5.52685897e-01      -4.00254996e+00     2.69108020e+00      
H    1.99677739e+00      -3.91419364e+00     2.22632278e+00      
26
3680.961281
N    -1.18099226e-02     -5.46954919e-02     -5.11954835e-02     
H    -1.05080740e+00     -7.20698325e-02     -9.20621730e-02     
H    3.19487296e-01      8.37766582e-01      -4.71589815e-01     
H    3.24866906e-01      -1.50820281e-01     9.34925896e-01      
C    5.29980523e-01      -1.18831052e+00     -8.21467037e-01     
H    1.61590897e+00      -1.15074884e+00     -7.95309709e-01     
H    1.96696229e-01      -2.11969191e+00     -3.72252681e-01     
C    4.24618560e-02      -1.09314144e+00     -2.25162608e+00     
O    -6.57765994e-01     -1.90347152e-01     -2.67187366e+00     
O    4.93026475e-01      -2.12151611e+00     -2.94695964e+00     
H    1.42232641e-01      -2.05845702e+00     -3.88440296e+00     
O    1.00607119e+00      2.05319521e+00      -1.52339121e+00     
H    5.26291262e-01      2.07786914e+00      -2.35609541e+00     
H    1.33135795e+00      2.94476007e+00      -1.37706923e+00     
O    1.07085485e+00      -6.67761591e-01     2.37000849e+00      
H    1.15854499e+00      -1.51594067e+00     2.51803706e+00      
H    1.23116369e+00      -2.21571754e-01     3.18292621e+00      
O    -2.71874710e+00     -4.28271884e-01     -4.92022113e-01     
H    -2.88698075e+00     -2.26022400e-01     -1.41673144e+00     
H    -3.54834600e+00     -2.77565892e-01     -3.27521793e-02     
O    -4.32916707e-01     -2.04886787e+00     -5.42138888e+00     
H    -7.09287615e-01     -1.22286074e+00     -5.82370169e+00     
H    -8.78034214e-02     -2.58678321e+00     -6.14106788e+00     
O    1.17418261e+00      -3.42781529e+00     2.24728932e+00      
H    5.53403164e-01      -4.00175615e+00     2.69055825e+00      
H    1.99581289e+00      -3.91350947e+00     2.22634214e+00      
26
3680.961281
N    -1.18318245e-02     -5.46909777e-02     -5.12425840e-02     
H    -1.05065986e+00     -7.20432076e-02     -9.20358039e-02     
H    3.19470231e-01      8.37710188e-01      -4.71533020e-01     
H    3.25099216e-01      -1.50933071e-01     9.35648513e-01      
C    5.29981959e-01      -1.18831801e+00     -8.21462526e-01     
H    1.61587702e+00      -1.15071971e+00     -7.95302933e-01     
H    1.96702690e-01      -2.11959065e+00     -3.72290789e-01     
C    4.24620220e-02      -1.09313953e+00     -2.25162390e+00     
O    -6.57766285e-01     -1.90347290e-01     -2.67187388e+00     
O    4.93027409e-01      -2.12151774e+00     -2.94695877e+00     
H    1.42223579e-01      -2.05844671e+00     -3.88442170e+00     
O    1.00607240e+00      2.05320226e+00      -1.52339395e+00     
H    5.26315349e-01      2.07787025e+00      -2.35604818e+00     
H    1.33131718e+00      2.94465073e+00      -1.37708027e+00     
O    1.07104732e+00      -6.69116014e-01     2.37045094e+00      
H    1.15611673e+00      -1.49185761e+00     2.51433385e+00      
H    1.23046993e+00      -2.24167871e-01     3.17937731e+00      
O    -2.71875695e+00     -4.28270210e-01     -4.92023998e-01     
H    -2.88696531e+00     -2.26037780e-01     -1.41663028e+00     
H    -3.54821104e+00     -2.77581837e-01     -3.28270724e-02     
O    -4.32917059e-01     -2.04886747e+00     -5.42138882e+00     
H    -7.09284758e-01     -1.22286637e+00     -5.82369748e+00     
H    -8.78012319e-02     -2.58678476e+00     -6.14107530e+00     
O    1.17419933e+00      -3.42790562e+00     2.24732429e+00      
H    5.54120431e-01      -4.00096233e+00     2.69003629e+00      
H    1.99484840e+00      -3.91282531e+00     2.22636150e+00      
26
3680.961281
N    -1.18537264e-02     -5.46864634e-02     -5.12896846e-02     
H    -1.05051233e+00     -7.20165827e-02     -9.20094348e-02     
H    3.19453166e-01      8.37653795e-01      -4.71476225e-01     
H    3.25331527e-01      -1.51045860e-01     9.36371130e-01      
C    5.29983394e-01      -1.18832550e+00     -8.21458015e-01     
H    1.61584507e+00      -1.15069059e+00     -7.95296158e-01     
H    1.96709151e-01      -2.11948939e+00     -3.72328898e-01     
C    4.24621881e-02      -1.09313763e+00     -2.25162173e+00     
O    -6.57766576e-01     -1.90347428e-01     -2.67187410e+00     
O    4.93028344e-01      -2.12151937e+00     -2.94695789e+00     
H    1.42214517e-01      -2.05843641e+00     -3.88444044e+00     
O    1.00607361e+00      2.05320931e+00      -1.52339669e+00     
H    5.26339435e-01      2.07787136e+00      -2.35600094e+00     
H    1.33127642e+00      2.94454139e+00      -1.37709131e+00     
O    1.07123979e+00      -6.70470436e-01     2.37089338e+00      
H    1.15368847e+00      -1.46777455e+00     2.51063063e+00      
H    1.22977617e+00      -2.26763988e-01     3.17582842e+00      
O    -2.71876680e+00     -4.28268537e-01     -4.92025883e-01     
H    -2.88694986e+00     -2.26053160e-01     -1.41652913e+00     
H    -3.54807609e+00     -2.77597783e-01     -3.29019656e-02     
O    -4.32917412e-01     -2.04886707e+00     -5.42138876e+00     
H    -7.09281900e-01     -1.22287201e+00     -5.82369327e+00     
H    -8.77990423e-02     -2.58678631e+00     -6.14108272e+00     
O    1.17421605e+00      -3.42799595e+00     2.24735925e+00      
H    5.54837698e-01      -4.00016851e+00     2.68951434e+00      
H    1.99388390e+00      -3.91214114e+00     2.22638086e+00      
26
3680.961281
N    -1.18975303e-02     -5.46774349e-02     -5.13838856e-02     
H    -1.05021727e+00     -7.19633329e-02     -9.19566966e-02     
H    3.19419036e-01      8.37541008e-01      -4.71362635e-01     
H    3.25796148e-01      -1.51271439e-01     9.37816364e-01      
C    5.29986266e-01      -1.18834048e+00     -8.21448994e-01     
H    1.61578116e+00      -1.15063235e+00     -7.95282606e-01     
H    1.96722074e-01      -2.11928686e+00     -3.72405115e-01     
C    4.24625201e-02      -1.09313382e+00     -2.25161739e+00     
O    -6.57767158e-01     -1.90347704e-01     -2.67187455e+00     
O    4.93030212e-01      -2.12152263e+00     -2.94695615e+00     
H    1.42196393e-01      -2.05841579e+00     -3.88447792e+00     
O    1.00607603e+00      2.05322342e+00      -1.52340218e+00     
H    5.26387607e-01      2.07787358e+00      -2.35590648e+00     
H    1.33119490e+00      2.94432271e+00      -1.37711340e+00     
O    1.07162473e+00      -6.73179281e-01     2.37177826e+00      
H    1.14883196e+00      -1.41960842e+00     2.50322421e+00      
H    1.22838866e+00      -2.31956222e-01     3.16873063e+00      
O    -2.71878649e+00     -4.28265189e-01     -4.92029654e-01     
H    -2.88691897e+00     -2.26083919e-01     -1.41632682e+00     
H    -3.54780618e+00     -2.77629674e-01     -3.30517518e-02     
O    -4.32918117e-01     -2.04886626e+00     -5.42138864e+00     
H    -7.09276186e-01     -1.22288328e+00     -5.82368484e+00     
H    -8.77946631e-02     -2.58678942e+00     -6.14109757e+00     
O    1.17424949e+00      -3.42817662e+00     2.24742918e+00      
H    5.56272231e-01      -3.99858087e+00     2.68847043e+00      
H    1.99195490e+00      -3.91077281e+00     2.22641958e+00      
