26
3013.980319
N    -9.43979038e-03     -6.10370731e-02     -5.70189720e-02     
H    -1.15557590e+00     -7.25289256e-02     -9.24596127e-02     
H    3.53981549e-01      9.31678137e-01      -5.11309744e-01     
H    3.63131313e-01      -1.56548878e-01     1.05642207e+00      
C    5.29376050e-01      -1.18768040e+00     -8.22153185e-01     
H    1.62586609e+00      -1.14903550e+00     -7.93182588e-01     
H    1.92988519e-01      -2.12760034e+00     -3.66047843e-01     
C    4.23829388e-02      -1.09324420e+00     -2.25207094e+00     
O    -6.57737577e-01     -1.90334575e-01     -2.67175795e+00     
O    4.92654438e-01      -2.12137545e+00     -2.94780200e+00     
H    1.47634662e-01      -2.05933262e+00     -3.86955939e+00     
O    1.00614374e+00      2.05312295e+00      -1.52324346e+00     
H    5.25693519e-01      2.07908245e+00      -2.35845168e+00     
H    1.33184607e+00      2.94584996e+00      -1.37823823e+00     
O    1.07001804e+00      -6.62184435e-01     2.36806597e+00      
H    1.16944636e+00      -1.61471124e+00     2.53540985e+00      
H    1.23472562e+00      -2.12485252e-01     3.19819051e+00      
O    -2.71864442e+00     -4.28328578e-01     -4.91876020e-01     
H    -2.88868850e+00     -2.25585513e-01     -1.41899685e+00     
H    -3.54996125e+00     -2.77804996e-01     -3.31997455e-02     
O    -4.32868417e-01     -2.04887708e+00     -5.42133594e+00     
H    -7.08998706e-01     -1.22356615e+00     -5.82364753e+00     
H    -8.82682835e-02     -2.58594049e+00     -6.14043119e+00     
O    1.17409906e+00      -3.42746046e+00     2.24712217e+00      
H    5.50852891e-01      -4.00499458e+00     2.69267055e+00      
H    1.99958542e+00      -3.91642936e+00     2.22647713e+00      
26
3013.980319
N    -1.00104215e-02     -5.94561920e-02     -5.55159993e-02     
H    -1.12953131e+00     -7.24407773e-02     -9.23866219e-02     
H    3.45375050e-01      9.08256642e-01      -5.01436557e-01     
H    3.53332900e-01      -1.55003940e-01     1.02532541e+00      
C    5.29525733e-01      -1.18783044e+00     -8.21986159e-01     
H    1.62340876e+00      -1.14949296e+00     -7.93721144e-01     
H    1.93908985e-01      -2.12572450e+00     -3.67560943e-01     
C    4.24025021e-02      -1.09322041e+00     -2.25196190e+00     
O    -6.57744390e-01     -1.90337581e-01     -2.67178666e+00     
O    4.92746513e-01      -2.12140899e+00     -2.94759228e+00     
H    1.46293218e-01      -2.05912403e+00     -3.87325154e+00     
O    1.00612439e+00      2.05313396e+00      -1.52327765e+00     
H    5.25818868e-01      2.07877801e+00      -2.35790984e+00     
H    1.33176480e+00      2.94568683e+00      -1.37793494e+00     
O    1.07003477e+00      -6.62224302e-01     2.36810916e+00      
H    1.16914928e+00      -1.61410166e+00     2.53476986e+00      
H    1.23452889e+00      -2.12160760e-01     3.19792333e+00      
O    -2.71866025e+00     -4.28316078e-01     -4.91910658e-01     
H    -2.88827701e+00     -2.25679355e-01     -1.41853165e+00     
H    -3.54969239e+00     -2.77729275e-01     -3.30129608e-02     
O    -4.32880137e-01     -2.04887518e+00     -5.42134924e+00     
H    -7.09073791e-01     -1.22338416e+00     -5.82366528e+00     
H    -8.81542576e-02     -2.58614962e+00     -6.14058294e+00     
O    1.17410323e+00      -3.42745883e+00     2.24712899e+00      
H    5.50773192e-01      -4.00497879e+00     2.69266443e+00      
H    1.99960679e+00      -3.91638355e+00     2.22642402e+00      
26
3013.980319
N    -1.02957370e-02     -5.86657515e-02     -5.47645130e-02     
H    -1.11650901e+00     -7.23967031e-02     -9.23501265e-02     
H    3.41071801e-01      8.96545894e-01      -4.96499964e-01     
H    3.48433694e-01      -1.54231470e-01     1.00977708e+00      
C    5.29600574e-01      -1.18790546e+00     -8.21902646e-01     
H    1.62218010e+00      -1.14972168e+00     -7.93990422e-01     
H    1.94369218e-01      -2.12478658e+00     -3.68317494e-01     
C    4.24122838e-02      -1.09320852e+00     -2.25190737e+00     
O    -6.57747797e-01     -1.90339084e-01     -2.67180101e+00     
O    4.92792551e-01      -2.12142575e+00     -2.94748742e+00     
H    1.45622497e-01      -2.05901973e+00     -3.87509762e+00     
O    1.00611472e+00      2.05313947e+00      -1.52329475e+00     
H    5.25881543e-01      2.07862579e+00      -2.35763893e+00     
H    1.33172416e+00      2.94560526e+00      -1.37778329e+00     
O    1.07004314e+00      -6.62244235e-01     2.36813075e+00      
H    1.16900073e+00      -1.61379687e+00     2.53444987e+00      
H    1.23443053e+00      -2.11998515e-01     3.19778974e+00      
O    -2.71866816e+00     -4.28309828e-01     -4.91927977e-01     
H    -2.88807126e+00     -2.25726276e-01     -1.41829905e+00     
H    -3.54955796e+00     -2.77691414e-01     -3.29195685e-02     
O    -4.32885997e-01     -2.04887423e+00     -5.42135588e+00     
H    -7.09111333e-01     -1.22329317e+00     -5.82367416e+00     
H    -8.80972446e-02     -2.58625418e+00     -6.14065881e+00     
O    1.17410532e+00      -3.42745802e+00     2.24713240e+00      
H    5.50733343e-01      -4.00497090e+00     2.69266137e+00      
H    1.99961747e+00      -3.91636065e+00     2.22639747e+00      
26
3013.980319
N    -1.05810526e-02     -5.78753110e-02     -5.40130267e-02     
H    -1.10348671e+00     -7.23526289e-02     -9.23136311e-02     
H    3.36768552e-01      8.84835146e-01      -4.91563370e-01     
H    3.43534488e-01      -1.53459001e-01     9.94228750e-01      
C    5.29675415e-01      -1.18798048e+00     -8.21819133e-01     
H    1.62095143e+00      -1.14995041e+00     -7.94259699e-01     
H    1.94829451e-01      -2.12384865e+00     -3.69074044e-01     
C    4.24220654e-02      -1.09319663e+00     -2.25185285e+00     
O    -6.57751204e-01     -1.90340588e-01     -2.67181536e+00     
O    4.92838588e-01      -2.12144252e+00     -2.94738256e+00     
H    1.44951775e-01      -2.05891543e+00     -3.87694370e+00     
O    1.00610504e+00      2.05314497e+00      -1.52331185e+00     
H    5.25944218e-01      2.07847358e+00      -2.35736801e+00     
H    1.33168353e+00      2.94552369e+00      -1.37763165e+00     
O    1.07005151e+00      -6.62264168e-01     2.36815235e+00      
H    1.16885219e+00      -1.61349209e+00     2.53412987e+00      
H    1.23433217e+00      -2.11836269e-01     3.19765614e+00      
O    -2.71867607e+00     -4.28303578e-01     -4.91945296e-01     
H    -2.88786551e+00     -2.25773197e-01     -1.41806645e+00     
H    -3.54942353e+00     -2.77653553e-01     -3.28261761e-02     
O    -4.32891857e-01     -2.04887329e+00     -5.42136253e+00     
H    -7.09148875e-01     -1.22320217e+00     -5.82368304e+00     
H    -8.80402316e-02     -2.58635875e+00     -6.14073469e+00     
O    1.17410740e+00      -3.42745720e+00     2.24713582e+00      
H    5.50693494e-01      -4.00496300e+00     2.69265831e+00      
H    1.99962815e+00      -3.91633775e+00     2.22637092e+00      
26
3013.980319
N    -1.08663681e-02     -5.70848705e-02     -5.32615404e-02     
H    -1.09046441e+00     -7.23085547e-02     -9.22771356e-02     
H    3.32465303e-01      8.73124398e-01      -4.86626777e-01     
H    3.38635282e-01      -1.52686532e-01     9.78680419e-01      
C    5.29750256e-01      -1.18805550e+00     -8.21735620e-01     
H    1.61972277e+00      -1.15017914e+00     -7.94528977e-01     
H    1.95289684e-01      -2.12291073e+00     -3.69830595e-01     
C    4.24318471e-02      -1.09318473e+00     -2.25179833e+00     
O    -6.57754610e-01     -1.90342091e-01     -2.67182972e+00     
O    4.92884626e-01      -2.12145928e+00     -2.94727770e+00     
H    1.44281053e-01      -2.05881114e+00     -3.87878977e+00     
O    1.00609537e+00      2.05315048e+00      -1.52332894e+00     
H    5.26006893e-01      2.07832136e+00      -2.35709709e+00     
H    1.33164289e+00      2.94544213e+00      -1.37748000e+00     
O    1.07005988e+00      -6.62284101e-01     2.36817394e+00      
H    1.16870365e+00      -1.61318730e+00     2.53380988e+00      
H    1.23423380e+00      -2.11674023e-01     3.19752255e+00      
O    -2.71868398e+00     -4.28297328e-01     -4.91962615e-01     
H    -2.88765977e+00     -2.25820118e-01     -1.41783385e+00     
H    -3.54928910e+00     -2.77615692e-01     -3.27327838e-02     
O    -4.32897717e-01     -2.04887234e+00     -5.42136918e+00     
H    -7.09186417e-01     -1.22311118e+00     -5.82369191e+00     
H    -8.79832186e-02     -2.58646331e+00     -6.14081056e+00     
O    1.17410949e+00      -3.42745639e+00     2.24713923e+00      
H    5.50653644e-01      -4.00495511e+00     2.69265525e+00      
H    1.99963884e+00      -3.91631485e+00     2.22634436e+00      
26
3013.980319
N    -1.11516837e-02     -5.62944299e-02     -5.25100540e-02     
H    -1.07744212e+00     -7.22644806e-02     -9.22406402e-02     
H    3.28162054e-01      8.61413651e-01      -4.81690183e-01     
H    3.33736075e-01      -1.51914063e-01     9.63132089e-01      
C    5.29825098e-01      -1.18813052e+00     -8.21652106e-01     
H    1.61849411e+00      -1.15040787e+00     -7.94798255e-01     
H    1.95749917e-01      -2.12197281e+00     -3.70587145e-01     
C    4.24416287e-02      -1.09317284e+00     -2.25174381e+00     
O    -6.57758017e-01     -1.90343594e-01     -2.67184407e+00     
O    4.92930663e-01      -2.12147605e+00     -2.94717285e+00     
H    1.43610331e-01      -2.05870684e+00     -3.88063585e+00     
O    1.00608570e+00      2.05315599e+00      -1.52334604e+00     
H    5.26069567e-01      2.07816914e+00      -2.35682617e+00     
H    1.33160226e+00      2.94536056e+00      -1.37732835e+00     
O    1.07006824e+00      -6.62304035e-01     2.36819554e+00      
H    1.16855511e+00      -1.61288251e+00     2.53348989e+00      
H    1.23413544e+00      -2.11511777e-01     3.19738896e+00      
O    -2.71869190e+00     -4.28291078e-01     -4.91979934e-01     
H    -2.88745402e+00     -2.25867040e-01     -1.41760125e+00     
H    -3.54915468e+00     -2.77577832e-01     -3.26393915e-02     
O    -4.32903576e-01     -2.04887139e+00     -5.42137583e+00     
H    -7.09223960e-01     -1.22302018e+00     -5.82370079e+00     
H    -8.79262057e-02     -2.58656787e+00     -6.14088643e+00     
O    1.17411157e+00      -3.42745558e+00     2.24714264e+00      
H    5.50613795e-01      -4.00494721e+00     2.69265219e+00      
H    1.99964952e+00      -3.91629194e+00     2.22631781e+00      
26
3013.980319
N    -1.12943415e-02     -5.58992097e-02     -5.21343109e-02     
H    -1.07093097e+00     -7.22424435e-02     -9.22223925e-02     
H    3.26010430e-01      8.55558277e-01      -4.79221886e-01     
H    3.31286472e-01      -1.51527828e-01     9.55357924e-01      
C    5.29862518e-01      -1.18816803e+00     -8.21610350e-01     
H    1.61787978e+00      -1.15052224e+00     -7.94932894e-01     
H    1.95980034e-01      -2.12150384e+00     -3.70965420e-01     
C    4.24465195e-02      -1.09316689e+00     -2.25171654e+00     
O    -6.57759720e-01     -1.90344345e-01     -2.67185125e+00     
O    4.92953682e-01      -2.12148443e+00     -2.94712042e+00     
H    1.43274971e-01      -2.05865469e+00     -3.88155889e+00     
O    1.00608086e+00      2.05315874e+00      -1.52335459e+00     
H    5.26100905e-01      2.07809303e+00      -2.35669072e+00     
H    1.33158194e+00      2.94531978e+00      -1.37725253e+00     
O    1.07007243e+00      -6.62314001e-01     2.36820634e+00      
H    1.16848083e+00      -1.61273011e+00     2.53332989e+00      
H    1.23408626e+00      -2.11430655e-01     3.19732217e+00      
O    -2.71869585e+00     -4.28287953e-01     -4.91988594e-01     
H    -2.88735115e+00     -2.25890500e-01     -1.41748495e+00     
H    -3.54908746e+00     -2.77558901e-01     -3.25926953e-02     
O    -4.32906506e-01     -2.04887091e+00     -5.42137915e+00     
H    -7.09242731e-01     -1.22297468e+00     -5.82370523e+00     
H    -8.78976992e-02     -2.58662015e+00     -6.14092437e+00     
O    1.17411261e+00      -3.42745517e+00     2.24714434e+00      
H    5.50593870e-01      -4.00494326e+00     2.69265066e+00      
H    1.99965486e+00      -3.91628049e+00     2.22630453e+00      
26
3013.980319
N    -1.14369992e-02     -5.55039894e-02     -5.17585677e-02     
H    -1.06441982e+00     -7.22204064e-02     -9.22041448e-02     
H    3.23858805e-01      8.49702903e-01      -4.76753590e-01     
H    3.28836869e-01      -1.51141593e-01     9.47583758e-01      
C    5.29899939e-01      -1.18820554e+00     -8.21568593e-01     
H    1.61726544e+00      -1.15063660e+00     -7.95067533e-01     
H    1.96210150e-01      -2.12103488e+00     -3.71343696e-01     
C    4.24514104e-02      -1.09316094e+00     -2.25168928e+00     
O    -6.57761423e-01     -1.90345097e-01     -2.67185843e+00     
O    4.92976701e-01      -2.12149281e+00     -2.94706799e+00     
H    1.42939610e-01      -2.05860255e+00     -3.88248192e+00     
O    1.00607602e+00      2.05316149e+00      -1.52336313e+00     
H    5.26132242e-01      2.07801692e+00      -2.35655526e+00     
H    1.33156162e+00      2.94527900e+00      -1.37717671e+00     
O    1.07007661e+00      -6.62323968e-01     2.36821713e+00      
H    1.16840656e+00      -1.61257772e+00     2.53316989e+00      
H    1.23403707e+00      -2.11349532e-01     3.19725537e+00      
O    -2.71869981e+00     -4.28284828e-01     -4.91997253e-01     
H    -2.88724828e+00     -2.25913961e-01     -1.41736865e+00     
H    -3.54902025e+00     -2.77539971e-01     -3.25459991e-02     
O    -4.32909436e-01     -2.04887044e+00     -5.42138247e+00     
H    -7.09261502e-01     -1.22292919e+00     -5.82370966e+00     
H    -8.78691927e-02     -2.58667244e+00     -6.14096231e+00     
O    1.17411366e+00      -3.42745476e+00     2.24714605e+00      
H    5.50573945e-01      -4.00493932e+00     2.69264913e+00      
H    1.99966021e+00      -3.91626904e+00     2.22629125e+00      
26
3013.980319
N    -1.20076304e-02     -5.39231084e-02     -5.02555951e-02     
H    -1.03837522e+00     -7.21322580e-02     -9.21311540e-02     
H    3.15252307e-01      8.26281407e-01      -4.66880402e-01     
H    3.19038457e-01      -1.49596655e-01     9.16487098e-01      
C    5.30049621e-01      -1.18835558e+00     -8.21401567e-01     
H    1.61480812e+00      -1.15109406e+00     -7.95606089e-01     
H    1.97130616e-01      -2.11915904e+00     -3.72856796e-01     
C    4.24709736e-02      -1.09313716e+00     -2.25158024e+00     
O    -6.57768237e-01     -1.90348103e-01     -2.67188713e+00     
O    4.93068775e-01      -2.12152635e+00     -2.94685827e+00     
H    1.41598166e-01      -2.05839395e+00     -3.88617408e+00     
O    1.00605668e+00      2.05317251e+00      -1.52339733e+00     
H    5.26257592e-01      2.07771248e+00      -2.35601342e+00     
H    1.33148036e+00      2.94511586e+00      -1.37687341e+00     
O    1.07009335e+00      -6.62363834e-01     2.36826033e+00      
H    1.16810948e+00      -1.61196814e+00     2.53252991e+00      
H    1.23384035e+00      -2.11025040e-01     3.19698819e+00      
O    -2.71871563e+00     -4.28272328e-01     -4.92031891e-01     
H    -2.88683678e+00     -2.26007803e-01     -1.41690345e+00     
H    -3.54875139e+00     -2.77464249e-01     -3.23592145e-02     
O    -4.32921156e-01     -2.04886854e+00     -5.42139577e+00     
H    -7.09336586e-01     -1.22274719e+00     -5.82372742e+00     
H    -8.77551667e-02     -2.58688156e+00     -6.14111405e+00     
O    1.17411782e+00      -3.42745314e+00     2.24715287e+00      
H    5.50494247e-01      -4.00492352e+00     2.69264301e+00      
H    1.99968157e+00      -3.91622324e+00     2.22623815e+00      
26
3013.980319
N    -1.21502881e-02     -5.35278881e-02     -4.98798519e-02     
H    -1.03186407e+00     -7.21102209e-02     -9.21129063e-02     
H    3.13100682e-01      8.20426033e-01      -4.64412106e-01     
H    3.16588854e-01      -1.49210420e-01     9.08712932e-01      
C    5.30087042e-01      -1.18839309e+00     -8.21359810e-01     
H    1.61419378e+00      -1.15120842e+00     -7.95740728e-01     
H    1.97360732e-01      -2.11869008e+00     -3.73235072e-01     
C    4.24758645e-02      -1.09313121e+00     -2.25155298e+00     
O    -6.57769940e-01     -1.90348855e-01     -2.67189431e+00     
O    4.93091794e-01      -2.12153473e+00     -2.94680584e+00     
H    1.41262805e-01      -2.05834181e+00     -3.88709711e+00     
O    1.00605184e+00      2.05317526e+00      -1.52340587e+00     
H    5.26288929e-01      2.07763637e+00      -2.35587796e+00     
H    1.33146004e+00      2.94507508e+00      -1.37679759e+00     
O    1.07009753e+00      -6.62373801e-01     2.36827112e+00      
H    1.16803521e+00      -1.61181575e+00     2.53236991e+00      
H    1.23379116e+00      -2.10943917e-01     3.19692139e+00      
O    -2.71871959e+00     -4.28269203e-01     -4.92040550e-01     
H    -2.88673391e+00     -2.26031264e-01     -1.41678715e+00     
H    -3.54868418e+00     -2.77445319e-01     -3.23125183e-02     
O    -4.32924086e-01     -2.04886807e+00     -5.42139909e+00     
H    -7.09355357e-01     -1.22270170e+00     -5.82373185e+00     
H    -8.77266602e-02     -2.58693385e+00     -6.14115199e+00     
O    1.17411887e+00      -3.42745273e+00     2.24715458e+00      
H    5.50474322e-01      -4.00491958e+00     2.69264148e+00      
H    1.99968692e+00      -3.91621179e+00     2.22622487e+00      
26
3013.980319
N    -1.22929459e-02     -5.31326679e-02     -4.95041088e-02     
H    -1.02535292e+00     -7.20881838e-02     -9.20946586e-02     
H    3.10949058e-01      8.14570659e-01      -4.61943809e-01     
H    3.14139251e-01      -1.48824185e-01     9.00938767e-01      
C    5.30124462e-01      -1.18843060e+00     -8.21318054e-01     
H    1.61357945e+00      -1.15132279e+00     -7.95875367e-01     
H    1.97590849e-01      -2.11822111e+00     -3.73613347e-01     
C    4.24807553e-02      -1.09312526e+00     -2.25152571e+00     
O    -6.57771643e-01     -1.90349606e-01     -2.67190149e+00     
O    4.93114813e-01      -2.12154311e+00     -2.94675341e+00     
H    1.40927445e-01      -2.05828966e+00     -3.88802015e+00     
O    1.00604700e+00      2.05317801e+00      -1.52341442e+00     
H    5.26320267e-01      2.07756026e+00      -2.35574251e+00     
H    1.33143972e+00      2.94503430e+00      -1.37672177e+00     
O    1.07010172e+00      -6.62383767e-01     2.36828192e+00      
H    1.16796093e+00      -1.61166335e+00     2.53220991e+00      
H    1.23374198e+00      -2.10862795e-01     3.19685460e+00      
O    -2.71872354e+00     -4.28266078e-01     -4.92049210e-01     
H    -2.88663104e+00     -2.26054724e-01     -1.41667085e+00     
H    -3.54861696e+00     -2.77426388e-01     -3.22658221e-02     
O    -4.32927016e-01     -2.04886759e+00     -5.42140241e+00     
H    -7.09374128e-01     -1.22265620e+00     -5.82373629e+00     
H    -8.76981537e-02     -2.58698613e+00     -6.14118993e+00     
O    1.17411991e+00      -3.42745232e+00     2.24715628e+00      
H    5.50454397e-01      -4.00491563e+00     2.69263995e+00      
H    1.99969226e+00      -3.91620034e+00     2.22621159e+00      
26
3013.980319
N    -1.25782615e-02     -5.23422273e-02     -4.87526224e-02     
H    -1.01233063e+00     -7.20441097e-02     -9.20581632e-02     
H    3.06645809e-01      8.02859912e-01      -4.57007215e-01     
H    3.09240044e-01      -1.48051716e-01     8.85390437e-01      
C    5.30199304e-01      -1.18850562e+00     -8.21234540e-01     
H    1.61235079e+00      -1.15155152e+00     -7.96144645e-01     
H    1.98051082e-01      -2.11728319e+00     -3.74369897e-01     
C    4.24905369e-02      -1.09311337e+00     -2.25147119e+00     
O    -6.57775050e-01     -1.90351109e-01     -2.67191584e+00     
O    4.93160850e-01      -2.12155988e+00     -2.94664856e+00     
H    1.40256723e-01      -2.05818536e+00     -3.88986623e+00     
O    1.00603733e+00      2.05318352e+00      -1.52343152e+00     
H    5.26382941e-01      2.07740804e+00      -2.35547159e+00     
H    1.33139909e+00      2.94495273e+00      -1.37657012e+00     
O    1.07011008e+00      -6.62403701e-01     2.36830352e+00      
H    1.16781239e+00      -1.61135856e+00     2.53188992e+00      
H    1.23364362e+00      -2.10700549e-01     3.19672101e+00      
O    -2.71873146e+00     -4.28259828e-01     -4.92066529e-01     
H    -2.88642529e+00     -2.26101646e-01     -1.41643825e+00     
H    -3.54848254e+00     -2.77388528e-01     -3.21724298e-02     
O    -4.32932875e-01     -2.04886664e+00     -5.42140906e+00     
H    -7.09411671e-01     -1.22256520e+00     -5.82374517e+00     
H    -8.76411408e-02     -2.58709069e+00     -6.14126580e+00     
O    1.17412199e+00      -3.42745151e+00     2.24715969e+00      
H    5.50414548e-01      -4.00490773e+00     2.69263689e+00      
H    1.99970294e+00      -3.91617743e+00     2.22618504e+00      
26
3013.980319
N    -1.28635770e-02     -5.15517868e-02     -4.80011361e-02     
H    -9.99308328e-01     -7.20000355e-02     -9.20216677e-02     
H    3.02342560e-01      7.91149164e-01      -4.52070622e-01     
H    3.04340838e-01      -1.47279247e-01     8.69842106e-01      
C    5.30274145e-01      -1.18858064e+00     -8.21151027e-01     
H    1.61112213e+00      -1.15178025e+00     -7.96413923e-01     
H    1.98511315e-01      -2.11634527e+00     -3.75126448e-01     
C    4.25003186e-02      -1.09310147e+00     -2.25141667e+00     
O    -6.57778456e-01     -1.90352612e-01     -2.67193020e+00     
O    4.93206888e-01      -2.12157664e+00     -2.94654370e+00     
H    1.39586001e-01      -2.05808107e+00     -3.89171230e+00     
O    1.00602766e+00      2.05318903e+00      -1.52344861e+00     
H    5.26445616e-01      2.07725582e+00      -2.35520067e+00     
H    1.33135845e+00      2.94487117e+00      -1.37641847e+00     
O    1.07011845e+00      -6.62423634e-01     2.36832511e+00      
H    1.16766385e+00      -1.61105377e+00     2.53156993e+00      
H    1.23354525e+00      -2.10538303e-01     3.19658742e+00      
O    -2.71873937e+00     -4.28253578e-01     -4.92083848e-01     
H    -2.88621955e+00     -2.26148567e-01     -1.41620565e+00     
H    -3.54834811e+00     -2.77350667e-01     -3.20790375e-02     
O    -4.32938735e-01     -2.04886569e+00     -5.42141571e+00     
H    -7.09449213e-01     -1.22247421e+00     -5.82375404e+00     
H    -8.75841278e-02     -2.58719525e+00     -6.14134167e+00     
O    1.17412408e+00      -3.42745070e+00     2.24716310e+00      
H    5.50374698e-01      -4.00489984e+00     2.69263383e+00      
H    1.99971363e+00      -3.91615453e+00     2.22615848e+00      
26
3013.980319
N    -1.31488926e-02     -5.07613463e-02     -4.72496498e-02     
H    -9.86286030e-01     -7.19559613e-02     -9.19851723e-02     
H    2.98039311e-01      7.79438416e-01      -4.47134028e-01     
H    2.99441632e-01      -1.46506778e-01     8.54293776e-01      
C    5.30348986e-01      -1.18865566e+00     -8.21067514e-01     
H    1.60989346e+00      -1.15200898e+00     -7.96683200e-01     
H    1.98971548e-01      -2.11540734e+00     -3.75882998e-01     
C    4.25101002e-02      -1.09308958e+00     -2.25136215e+00     
O    -6.57781863e-01     -1.90354116e-01     -2.67194455e+00     
O    4.93252925e-01      -2.12159341e+00     -2.94643884e+00     
H    1.38915279e-01      -2.05797677e+00     -3.89355838e+00     
O    1.00601798e+00      2.05319453e+00      -1.52346571e+00     
H    5.26508291e-01      2.07710361e+00      -2.35492975e+00     
H    1.33131782e+00      2.94478960e+00      -1.37626683e+00     
O    1.07012682e+00      -6.62443567e-01     2.36834671e+00      
H    1.16751531e+00      -1.61074899e+00     2.53124993e+00      
H    1.23344689e+00      -2.10376057e-01     3.19645382e+00      
O    -2.71874728e+00     -4.28247328e-01     -4.92101167e-01     
H    -2.88601380e+00     -2.26195488e-01     -1.41597305e+00     
H    -3.54821368e+00     -2.77312806e-01     -3.19856451e-02     
O    -4.32944595e-01     -2.04886475e+00     -5.42142236e+00     
H    -7.09486755e-01     -1.22238321e+00     -5.82376292e+00     
H    -8.75271148e-02     -2.58729982e+00     -6.14141755e+00     
O    1.17412616e+00      -3.42744988e+00     2.24716652e+00      
H    5.50334849e-01      -4.00489194e+00     2.69263077e+00      
H    1.99972431e+00      -3.91613163e+00     2.22613193e+00      
26
3013.980319
N    -1.34342081e-02     -4.99709058e-02     -4.64981635e-02     
H    -9.73263732e-01     -7.19118871e-02     -9.19486769e-02     
H    2.93736062e-01      7.67727668e-01      -4.42197435e-01     
H    2.94542426e-01      -1.45734308e-01     8.38745445e-01      
C    5.30423827e-01      -1.18873068e+00     -8.20984001e-01     
H    1.60866480e+00      -1.15223770e+00     -7.96952478e-01     
H    1.99431781e-01      -2.11446942e+00     -3.76639549e-01     
C    4.25198819e-02      -1.09307769e+00     -2.25130762e+00     
O    -6.57785270e-01     -1.90355619e-01     -2.67195890e+00     
O    4.93298963e-01      -2.12161017e+00     -2.94633398e+00     
H    1.38244558e-01      -2.05787247e+00     -3.89540446e+00     
O    1.00600831e+00      2.05320004e+00      -1.52348281e+00     
H    5.26570966e-01      2.07695139e+00      -2.35465884e+00     
H    1.33127718e+00      2.94470803e+00      -1.37611518e+00     
O    1.07013519e+00      -6.62463500e-01     2.36836830e+00      
H    1.16736676e+00      -1.61044420e+00     2.53092994e+00      
H    1.23334853e+00      -2.10213812e-01     3.19632023e+00      
O    -2.71875519e+00     -4.28241078e-01     -4.92118486e-01     
H    -2.88580805e+00     -2.26242409e-01     -1.41574045e+00     
H    -3.54807925e+00     -2.77274945e-01     -3.18922528e-02     
O    -4.32950455e-01     -2.04886380e+00     -5.42142900e+00     
H    -7.09524297e-01     -1.22229222e+00     -5.82377180e+00     
H    -8.74701018e-02     -2.58740438e+00     -6.14149342e+00     
O    1.17412825e+00      -3.42744907e+00     2.24716993e+00      
H    5.50295000e-01      -4.00488405e+00     2.69262771e+00      
H    1.99973499e+00      -3.91610873e+00     2.22610538e+00      
26
3013.980319
N    -1.40048392e-02     -4.83900247e-02     -4.49951908e-02     
H    -9.47219136e-01     -7.18237388e-02     -9.18756861e-02     
H    2.85129563e-01      7.44306173e-01      -4.32324248e-01     
H    2.84744013e-01      -1.44189370e-01     8.07648784e-01      
C    5.30573510e-01      -1.18888072e+00     -8.20816975e-01     
H    1.60620747e+00      -1.15269516e+00     -7.97491034e-01     
H    2.00352247e-01      -2.11259358e+00     -3.78152649e-01     
C    4.25394452e-02      -1.09305390e+00     -2.25119858e+00     
O    -6.57792083e-01     -1.90358625e-01     -2.67198761e+00     
O    4.93391038e-01      -2.12164371e+00     -2.94612426e+00     
H    1.36903114e-01      -2.05766388e+00     -3.89909661e+00     
O    1.00598896e+00      2.05321105e+00      -1.52351700e+00     
H    5.26696315e-01      2.07664695e+00      -2.35411700e+00     
H    1.33119591e+00      2.94454490e+00      -1.37581189e+00     
O    1.07015192e+00      -6.62503367e-01     2.36841149e+00      
H    1.16706968e+00      -1.60983462e+00     2.53028995e+00      
H    1.23315180e+00      -2.09889320e-01     3.19605305e+00      
O    -2.71877102e+00     -4.28228578e-01     -4.92153124e-01     
H    -2.88539656e+00     -2.26336251e-01     -1.41527525e+00     
H    -3.54781039e+00     -2.77199224e-01     -3.17054681e-02     
O    -4.32962175e-01     -2.04886190e+00     -5.42144230e+00     
H    -7.09599382e-01     -1.22211023e+00     -5.82378955e+00     
H    -8.73560759e-02     -2.58761351e+00     -6.14164517e+00     
O    1.17413242e+00      -3.42744744e+00     2.24717675e+00      
H    5.50215301e-01      -4.00486826e+00     2.69262159e+00      
H    1.99975636e+00      -3.91606292e+00     2.22605227e+00      
