26
3775.237830
N    -1.17048636e-02     -5.46978705e-02     -5.09048038e-02     
H    -1.05138694e+00     -7.22022927e-02     -9.24156146e-02     
H    3.19478433e-01      8.37887128e-01      -4.72027758e-01     
H    3.23732583e-01      -1.50372067e-01     9.31273394e-01      
C    5.29957449e-01      -1.18827940e+00     -8.21523138e-01     
H    1.61623351e+00      -1.15079439e+00     -7.95305600e-01     
H    1.96577001e-01      -2.12018874e+00     -3.72029209e-01     
C    4.25037076e-02      -1.09323276e+00     -2.25166877e+00     
O    -6.57771437e-01     -1.90328275e-01     -2.67187481e+00     
O    4.93140075e-01      -2.12149131e+00     -2.94654863e+00     
H    1.40133969e-01      -2.05806785e+00     -3.89302637e+00     
O    1.00606296e+00      2.05314573e+00      -1.52337530e+00     
H    5.26101778e-01      2.07781277e+00      -2.35643563e+00     
H    1.33167983e+00      2.94559385e+00      -1.37694314e+00     
O    1.07008554e+00      -6.62348415e-01     2.36823842e+00      
H    1.16824556e+00      -1.61222152e+00     2.53282512e+00      
H    1.23394274e+00      -2.11159694e-01     3.19716021e+00      
O    -2.71870846e+00     -4.28272851e-01     -4.92041274e-01     
H    -2.88694491e+00     -2.26071906e-01     -1.41674033e+00     
H    -3.54896711e+00     -2.77491774e-01     -3.24185335e-02     
O    -4.31150392e-01     -2.04949432e+00     -5.43107584e+00     
H    -6.75743489e-01     -1.31523612e+00     -5.78842845e+00     
H    -1.49391372e-01     -2.48455850e+00     -6.01991249e+00     
O    1.17411274e+00      -3.42744735e+00     2.24714811e+00      
H    5.50472101e-01      -4.00497717e+00     2.69268022e+00      
H    1.99978026e+00      -3.91630509e+00     2.22625538e+00      
26
3775.237830
N    -1.17092264e-02     -5.47017901e-02     -5.09303732e-02     
H    -1.05138958e+00     -7.21958026e-02     -9.23536233e-02     
H    3.19497714e-01      8.37913385e-01      -4.71975067e-01     
H    3.23783853e-01      -1.50371331e-01     9.31463903e-01      
C    5.29961782e-01      -1.18827969e+00     -8.21513624e-01     
H    1.61618432e+00      -1.15081213e+00     -7.95313403e-01     
H    1.96600347e-01      -2.12016580e+00     -3.72046968e-01     
C    4.24930787e-02      -1.09321183e+00     -2.25166027e+00     
O    -6.57769785e-01     -1.90332856e-01     -2.67187430e+00     
O    4.93110741e-01      -2.12149588e+00     -2.94665226e+00     
H    1.40667699e-01      -2.05817545e+00     -3.89085177e+00     
O    1.00606381e+00      2.05315105e+00      -1.52337653e+00     
H    5.26125063e-01      2.07782576e+00      -2.35639781e+00     
H    1.33164012e+00      2.94549474e+00      -1.37696362e+00     
O    1.07008540e+00      -6.62347287e-01     2.36823850e+00      
H    1.16824868e+00      -1.61223437e+00     2.53283131e+00      
H    1.23394173e+00      -2.11166592e-01     3.19715060e+00      
O    -2.71870827e+00     -4.28274283e-01     -4.92034599e-01     
H    -2.88696932e+00     -2.26044150e-01     -1.41683926e+00     
H    -3.54894679e+00     -2.77494358e-01     -3.24270518e-02     
O    -4.31591618e-01     -2.04933812e+00     -5.42865416e+00     
H    -6.84132378e-01     -1.29213664e+00     -5.79725097e+00     
H    -1.33996574e-01     -2.51011312e+00     -6.05019391e+00     
O    1.17411349e+00      -3.42744900e+00     2.24714845e+00      
H    5.50487599e-01      -4.00496573e+00     2.69267168e+00      
H    1.99975292e+00      -3.91629035e+00     2.22625771e+00      
26
3775.237830
N    -1.17114078e-02     -5.47037499e-02     -5.09431579e-02     
H    -1.05139091e+00     -7.21925575e-02     -9.23226276e-02     
H    3.19507354e-01      8.37926513e-01      -4.71948722e-01     
H    3.23809488e-01      -1.50370963e-01     9.31559157e-01      
C    5.29963948e-01      -1.18827983e+00     -8.21508866e-01     
H    1.61615973e+00      -1.15082100e+00     -7.95317304e-01     
H    1.96612019e-01      -2.12015433e+00     -3.72055848e-01     
C    4.24877643e-02      -1.09320137e+00     -2.25165602e+00     
O    -6.57768960e-01     -1.90335147e-01     -2.67187405e+00     
O    4.93096074e-01      -2.12149816e+00     -2.94670407e+00     
H    1.40934564e-01      -2.05822925e+00     -3.88976448e+00     
O    1.00606423e+00      2.05315371e+00      -1.52337715e+00     
H    5.26136705e-01      2.07783225e+00      -2.35637890e+00     
H    1.33162027e+00      2.94544519e+00      -1.37697386e+00     
O    1.07008533e+00      -6.62346722e-01     2.36823854e+00      
H    1.16825023e+00      -1.61224080e+00     2.53283441e+00      
H    1.23394123e+00      -2.11170041e-01     3.19714580e+00      
O    -2.71870818e+00     -4.28274998e-01     -4.92031261e-01     
H    -2.88698152e+00     -2.26030272e-01     -1.41688873e+00     
H    -3.54893663e+00     -2.77495650e-01     -3.24313110e-02     
O    -4.31812231e-01     -2.04926001e+00     -5.42744332e+00     
H    -6.88326822e-01     -1.28058690e+00     -5.80166223e+00     
H    -1.26299175e-01     -2.52289044e+00     -6.06533462e+00     
O    1.17411386e+00      -3.42744982e+00     2.24714862e+00      
H    5.50495349e-01      -4.00496001e+00     2.69266741e+00      
H    1.99973925e+00      -3.91628299e+00     2.22625887e+00      
26
3775.237830
N    -1.17135892e-02     -5.47057097e-02     -5.09559426e-02     
H    -1.05139223e+00     -7.21893125e-02     -9.22916320e-02     
H    3.19516994e-01      8.37939642e-01      -4.71922377e-01     
H    3.23835123e-01      -1.50370595e-01     9.31654411e-01      
C    5.29966115e-01      -1.18827998e+00     -8.21504109e-01     
H    1.61613514e+00      -1.15082986e+00     -7.95321206e-01     
H    1.96623692e-01      -2.12014285e+00     -3.72064727e-01     
C    4.24824498e-02      -1.09319090e+00     -2.25165177e+00     
O    -6.57768134e-01     -1.90337438e-01     -2.67187379e+00     
O    4.93081407e-01      -2.12150044e+00     -2.94675588e+00     
H    1.41201429e-01      -2.05828305e+00     -3.88867718e+00     
O    1.00606466e+00      2.05315637e+00      -1.52337776e+00     
H    5.26148347e-01      2.07783874e+00      -2.35635999e+00     
H    1.33160041e+00      2.94539564e+00      -1.37698410e+00     
O    1.07008526e+00      -6.62346158e-01     2.36823858e+00      
H    1.16825179e+00      -1.61224722e+00     2.53283751e+00      
H    1.23394073e+00      -2.11173490e-01     3.19714099e+00      
O    -2.71870809e+00     -4.28275714e-01     -4.92027923e-01     
H    -2.88699372e+00     -2.26016394e-01     -1.41693819e+00     
H    -3.54892647e+00     -2.77496942e-01     -3.24355701e-02     
O    -4.32032844e-01     -2.04918191e+00     -5.42623248e+00     
H    -6.92521266e-01     -1.26903716e+00     -5.80607349e+00     
H    -1.18601776e-01     -2.53566775e+00     -6.08047533e+00     
O    1.17411424e+00      -3.42745065e+00     2.24714879e+00      
H    5.50503098e-01      -4.00495430e+00     2.69266314e+00      
H    1.99972558e+00      -3.91627562e+00     2.22626004e+00      
26
3775.237830
N    -1.17157706e-02     -5.47076695e-02     -5.09687273e-02     
H    -1.05139355e+00     -7.21860674e-02     -9.22606363e-02     
H    3.19526635e-01      8.37952770e-01      -4.71896032e-01     
H    3.23860758e-01      -1.50370227e-01     9.31749665e-01      
C    5.29968281e-01      -1.18828012e+00     -8.21499352e-01     
H    1.61611055e+00      -1.15083873e+00     -7.95325107e-01     
H    1.96635365e-01      -2.12013138e+00     -3.72073607e-01     
C    4.24771354e-02      -1.09318044e+00     -2.25164751e+00     
O    -6.57767308e-01     -1.90339728e-01     -2.67187354e+00     
O    4.93066739e-01      -2.12150273e+00     -2.94680769e+00     
H    1.41468293e-01      -2.05833685e+00     -3.88758989e+00     
O    1.00606508e+00      2.05315902e+00      -1.52337838e+00     
H    5.26159990e-01      2.07784523e+00      -2.35634107e+00     
H    1.33158056e+00      2.94534609e+00      -1.37699434e+00     
O    1.07008519e+00      -6.62345594e-01     2.36823862e+00      
H    1.16825335e+00      -1.61225365e+00     2.53284061e+00      
H    1.23394022e+00      -2.11176939e-01     3.19713619e+00      
O    -2.71870800e+00     -4.28276430e-01     -4.92024585e-01     
H    -2.88700592e+00     -2.26002516e-01     -1.41698766e+00     
H    -3.54891630e+00     -2.77498234e-01     -3.24398293e-02     
O    -4.32253457e-01     -2.04910380e+00     -5.42502164e+00     
H    -6.96715711e-01     -1.25748741e+00     -5.81048476e+00     
H    -1.10904377e-01     -2.54844506e+00     -6.09561605e+00     
O    1.17411461e+00      -3.42745147e+00     2.24714895e+00      
H    5.50510848e-01      -4.00494858e+00     2.69265888e+00      
H    1.99971191e+00      -3.91626825e+00     2.22626120e+00      
26
3775.237830
N    -1.17179520e-02     -5.47096293e-02     -5.09815120e-02     
H    -1.05139487e+00     -7.21828223e-02     -9.22296407e-02     
H    3.19536275e-01      8.37965898e-01      -4.71869686e-01     
H    3.23886393e-01      -1.50369860e-01     9.31844920e-01      
C    5.29970447e-01      -1.18828027e+00     -8.21494595e-01     
H    1.61608596e+00      -1.15084760e+00     -7.95329008e-01     
H    1.96647038e-01      -2.12011991e+00     -3.72082487e-01     
C    4.24718209e-02      -1.09316998e+00     -2.25164326e+00     
O    -6.57766482e-01     -1.90342019e-01     -2.67187329e+00     
O    4.93052072e-01      -2.12150501e+00     -2.94685951e+00     
H    1.41735158e-01      -2.05839065e+00     -3.88650259e+00     
O    1.00606550e+00      2.05316168e+00      -1.52337900e+00     
H    5.26171632e-01      2.07785172e+00      -2.35632216e+00     
H    1.33156070e+00      2.94529653e+00      -1.37700458e+00     
O    1.07008512e+00      -6.62345030e-01     2.36823865e+00      
H    1.16825491e+00      -1.61226008e+00     2.53284370e+00      
H    1.23393972e+00      -2.11180388e-01     3.19713139e+00      
O    -2.71870790e+00     -4.28277146e-01     -4.92021248e-01     
H    -2.88701813e+00     -2.25988638e-01     -1.41703712e+00     
H    -3.54890614e+00     -2.77499526e-01     -3.24440885e-02     
O    -4.32474070e-01     -2.04902570e+00     -5.42381080e+00     
H    -7.00910155e-01     -1.24593767e+00     -5.81489602e+00     
H    -1.03206978e-01     -2.56122237e+00     -6.11075676e+00     
O    1.17411499e+00      -3.42745230e+00     2.24714912e+00      
H    5.50518597e-01      -4.00494286e+00     2.69265461e+00      
H    1.99969823e+00      -3.91626088e+00     2.22626237e+00      
26
3775.237830
N    -1.17190427e-02     -5.47106092e-02     -5.09879043e-02     
H    -1.05139554e+00     -7.21811998e-02     -9.22141429e-02     
H    3.19541095e-01      8.37972463e-01      -4.71856514e-01     
H    3.23899210e-01      -1.50369676e-01     9.31892547e-01      
C    5.29971530e-01      -1.18828034e+00     -8.21492216e-01     
H    1.61607367e+00      -1.15085203e+00     -7.95330959e-01     
H    1.96652874e-01      -2.12011417e+00     -3.72086927e-01     
C    4.24691637e-02      -1.09316475e+00     -2.25164114e+00     
O    -6.57766069e-01     -1.90343164e-01     -2.67187316e+00     
O    4.93044739e-01      -2.12150615e+00     -2.94688541e+00     
H    1.41868591e-01      -2.05841755e+00     -3.88595894e+00     
O    1.00606571e+00      2.05316301e+00      -1.52337931e+00     
H    5.26177453e-01      2.07785496e+00      -2.35631271e+00     
H    1.33155077e+00      2.94527176e+00      -1.37700970e+00     
O    1.07008509e+00      -6.62344747e-01     2.36823867e+00      
H    1.16825568e+00      -1.61226329e+00     2.53284525e+00      
H    1.23393947e+00      -2.11182113e-01     3.19712899e+00      
O    -2.71870786e+00     -4.28277504e-01     -4.92019579e-01     
H    -2.88702423e+00     -2.25981699e-01     -1.41706185e+00     
H    -3.54890106e+00     -2.77500172e-01     -3.24462180e-02     
O    -4.32584376e-01     -2.04898665e+00     -5.42320538e+00     
H    -7.03007377e-01     -1.24016280e+00     -5.81710165e+00     
H    -9.93582782e-02     -2.56761103e+00     -6.11832711e+00     
O    1.17411518e+00      -3.42745271e+00     2.24714921e+00      
H    5.50522472e-01      -4.00494000e+00     2.69265247e+00      
H    1.99969140e+00      -3.91625719e+00     2.22626295e+00      
26
3775.237830
N    -1.17201334e-02     -5.47115891e-02     -5.09942967e-02     
H    -1.05139620e+00     -7.21795773e-02     -9.21986450e-02     
H    3.19545916e-01      8.37979027e-01      -4.71843341e-01     
H    3.23912028e-01      -1.50369492e-01     9.31940174e-01      
C    5.29972614e-01      -1.18828041e+00     -8.21489837e-01     
H    1.61606137e+00      -1.15085646e+00     -7.95332910e-01     
H    1.96658710e-01      -2.12010843e+00     -3.72091366e-01     
C    4.24665065e-02      -1.09315951e+00     -2.25163901e+00     
O    -6.57765656e-01     -1.90344309e-01     -2.67187303e+00     
O    4.93037405e-01      -2.12150730e+00     -2.94691132e+00     
H    1.42002023e-01      -2.05844445e+00     -3.88541530e+00     
O    1.00606593e+00      2.05316434e+00      -1.52337961e+00     
H    5.26183275e-01      2.07785821e+00      -2.35630325e+00     
H    1.33154085e+00      2.94524698e+00      -1.37701482e+00     
O    1.07008505e+00      -6.62344465e-01     2.36823869e+00      
H    1.16825646e+00      -1.61226650e+00     2.53284680e+00      
H    1.23393921e+00      -2.11183837e-01     3.19712658e+00      
O    -2.71870781e+00     -4.28277862e-01     -4.92017910e-01     
H    -2.88703033e+00     -2.25974760e-01     -1.41708659e+00     
H    -3.54889598e+00     -2.77500818e-01     -3.24483476e-02     
O    -4.32694683e-01     -2.04894759e+00     -5.42259996e+00     
H    -7.05104600e-01     -1.23438793e+00     -5.81930728e+00     
H    -9.55095787e-02     -2.57399969e+00     -6.12589747e+00     
O    1.17411536e+00      -3.42745312e+00     2.24714929e+00      
H    5.50526347e-01      -4.00493714e+00     2.69265034e+00      
H    1.99968456e+00      -3.91625351e+00     2.22626353e+00      
26
3775.237830
N    -1.17244962e-02     -5.47155087e-02     -5.10198661e-02     
H    -1.05139884e+00     -7.21730871e-02     -9.21366538e-02     
H    3.19565196e-01      8.38005283e-01      -4.71790651e-01     
H    3.23963298e-01      -1.50368756e-01     9.32130682e-01      
C    5.29976946e-01      -1.18828071e+00     -8.21480323e-01     
H    1.61601219e+00      -1.15087420e+00     -7.95340712e-01     
H    1.96682056e-01      -2.12008549e+00     -3.72109126e-01     
C    4.24558775e-02      -1.09313859e+00     -2.25163051e+00     
O    -6.57764004e-01     -1.90348891e-01     -2.67187253e+00     
O    4.93008071e-01      -2.12151186e+00     -2.94701494e+00     
H    1.42535753e-01      -2.05855205e+00     -3.88324070e+00     
O    1.00606677e+00      2.05316966e+00      -1.52338085e+00     
H    5.26206559e-01      2.07787119e+00      -2.35626543e+00     
H    1.33150113e+00      2.94514788e+00      -1.37703530e+00     
O    1.07008491e+00      -6.62343337e-01     2.36823877e+00      
H    1.16825958e+00      -1.61227936e+00     2.53285300e+00      
H    1.23393821e+00      -2.11190735e-01     3.19711698e+00      
O    -2.71870763e+00     -4.28279294e-01     -4.92011234e-01     
H    -2.88705473e+00     -2.25947004e-01     -1.41718551e+00     
H    -3.54887566e+00     -2.77503402e-01     -3.24568660e-02     
O    -4.33135909e-01     -2.04879139e+00     -5.42017828e+00     
H    -7.13493488e-01     -1.21128845e+00     -5.82812980e+00     
H    -8.01147807e-02     -2.59955431e+00     -6.15617889e+00     
O    1.17411612e+00      -3.42745478e+00     2.24714963e+00      
H    5.50541845e-01      -4.00492570e+00     2.69264180e+00      
H    1.99965722e+00      -3.91623877e+00     2.22626587e+00      
26
3775.237830
N    -1.17255869e-02     -5.47164886e-02     -5.10262585e-02     
H    -1.05139950e+00     -7.21714646e-02     -9.21211559e-02     
H    3.19570017e-01      8.38011847e-01      -4.71777478e-01     
H    3.23976116e-01      -1.50368572e-01     9.32178309e-01      
C    5.29978030e-01      -1.18828078e+00     -8.21477944e-01     
H    1.61599989e+00      -1.15087863e+00     -7.95342663e-01     
H    1.96687892e-01      -2.12007975e+00     -3.72113565e-01     
C    4.24532203e-02      -1.09313335e+00     -2.25162838e+00     
O    -6.57763591e-01     -1.90350036e-01     -2.67187240e+00     
O    4.93000737e-01      -2.12151301e+00     -2.94704085e+00     
H    1.42669185e-01      -2.05857895e+00     -3.88269706e+00     
O    1.00606699e+00      2.05317099e+00      -1.52338115e+00     
H    5.26212381e-01      2.07787444e+00      -2.35625597e+00     
H    1.33149121e+00      2.94512310e+00      -1.37704042e+00     
O    1.07008487e+00      -6.62343055e-01     2.36823879e+00      
H    1.16826036e+00      -1.61228257e+00     2.53285455e+00      
H    1.23393795e+00      -2.11192459e-01     3.19711457e+00      
O    -2.71870758e+00     -4.28279652e-01     -4.92009565e-01     
H    -2.88706083e+00     -2.25940065e-01     -1.41721025e+00     
H    -3.54887058e+00     -2.77504048e-01     -3.24589956e-02     
O    -4.33246216e-01     -2.04875233e+00     -5.41957286e+00     
H    -7.15590711e-01     -1.20551358e+00     -5.83033543e+00     
H    -7.62660812e-02     -2.60594297e+00     -6.16374925e+00     
O    1.17411630e+00      -3.42745519e+00     2.24714971e+00      
H    5.50545720e-01      -4.00492284e+00     2.69263967e+00      
H    1.99965038e+00      -3.91623509e+00     2.22626645e+00      
26
3775.237830
N    -1.17266776e-02     -5.47174685e-02     -5.10326508e-02     
H    -1.05140017e+00     -7.21698421e-02     -9.21056581e-02     
H    3.19574837e-01      8.38018412e-01      -4.71764306e-01     
H    3.23988933e-01      -1.50368388e-01     9.32225936e-01      
C    5.29979113e-01      -1.18828085e+00     -8.21475565e-01     
H    1.61598760e+00      -1.15088306e+00     -7.95344614e-01     
H    1.96693728e-01      -2.12007401e+00     -3.72118005e-01     
C    4.24505631e-02      -1.09312812e+00     -2.25162626e+00     
O    -6.57763178e-01     -1.90351181e-01     -2.67187227e+00     
O    4.92993404e-01      -2.12151415e+00     -2.94706675e+00     
H    1.42802618e-01      -2.05860585e+00     -3.88215341e+00     
O    1.00606720e+00      2.05317232e+00      -1.52338146e+00     
H    5.26218202e-01      2.07787768e+00      -2.35624652e+00     
H    1.33148128e+00      2.94509833e+00      -1.37704554e+00     
O    1.07008484e+00      -6.62342772e-01     2.36823881e+00      
H    1.16826113e+00      -1.61228578e+00     2.53285610e+00      
H    1.23393770e+00      -2.11194184e-01     3.19711217e+00      
O    -2.71870754e+00     -4.28280010e-01     -4.92007896e-01     
H    -2.88706693e+00     -2.25933126e-01     -1.41723498e+00     
H    -3.54886550e+00     -2.77504694e-01     -3.24611251e-02     
O    -4.33356522e-01     -2.04871328e+00     -5.41896744e+00     
H    -7.17687933e-01     -1.19973871e+00     -5.83254106e+00     
H    -7.24173817e-02     -2.61233163e+00     -6.17131960e+00     
O    1.17411649e+00      -3.42745560e+00     2.24714980e+00      
H    5.50549595e-01      -4.00491998e+00     2.69263753e+00      
H    1.99964355e+00      -3.91623140e+00     2.22626703e+00      
26
3775.237830
N    -1.17288590e-02     -5.47194283e-02     -5.10454355e-02     
H    -1.05140149e+00     -7.21665970e-02     -9.20746625e-02     
H    3.19584477e-01      8.38031540e-01      -4.71737960e-01     
H    3.24014568e-01      -1.50368021e-01     9.32321191e-01      
C    5.29981279e-01      -1.18828100e+00     -8.21470808e-01     
H    1.61596301e+00      -1.15089193e+00     -7.95348515e-01     
H    1.96705401e-01      -2.12006254e+00     -3.72126885e-01     
C    4.24452486e-02      -1.09311766e+00     -2.25162201e+00     
O    -6.57762352e-01     -1.90353472e-01     -2.67187202e+00     
O    4.92978737e-01      -2.12151643e+00     -2.94711857e+00     
H    1.43069483e-01      -2.05865965e+00     -3.88106611e+00     
O    1.00606762e+00      2.05317498e+00      -1.52338208e+00     
H    5.26229844e-01      2.07788417e+00      -2.35622761e+00     
H    1.33146142e+00      2.94504877e+00      -1.37705578e+00     
O    1.07008477e+00      -6.62342208e-01     2.36823884e+00      
H    1.16826269e+00      -1.61229221e+00     2.53285919e+00      
H    1.23393720e+00      -2.11197633e-01     3.19710737e+00      
O    -2.71870744e+00     -4.28280726e-01     -4.92004559e-01     
H    -2.88707914e+00     -2.25919248e-01     -1.41728444e+00     
H    -3.54885534e+00     -2.77505986e-01     -3.24653843e-02     
O    -4.33577135e-01     -2.04863518e+00     -5.41775660e+00     
H    -7.21882377e-01     -1.18818897e+00     -5.83695232e+00     
H    -6.47199827e-02     -2.62510894e+00     -6.18646031e+00     
O    1.17411687e+00      -3.42745643e+00     2.24714997e+00      
H    5.50557344e-01      -4.00491426e+00     2.69263326e+00      
H    1.99962987e+00      -3.91622403e+00     2.22626820e+00      
26
3775.237830
N    -1.17310404e-02     -5.47213881e-02     -5.10582202e-02     
H    -1.05140281e+00     -7.21633519e-02     -9.20436668e-02     
H    3.19594118e-01      8.38044668e-01      -4.71711615e-01     
H    3.24040203e-01      -1.50367653e-01     9.32416445e-01      
C    5.29983445e-01      -1.18828114e+00     -8.21466051e-01     
H    1.61593842e+00      -1.15090080e+00     -7.95352416e-01     
H    1.96717074e-01      -2.12005107e+00     -3.72135765e-01     
C    4.24399342e-02      -1.09310720e+00     -2.25161775e+00     
O    -6.57761526e-01     -1.90355762e-01     -2.67187177e+00     
O    4.92964069e-01      -2.12151872e+00     -2.94717038e+00     
H    1.43336347e-01      -2.05871345e+00     -3.87997882e+00     
O    1.00606804e+00      2.05317763e+00      -1.52338270e+00     
H    5.26241487e-01      2.07789066e+00      -2.35620869e+00     
H    1.33144157e+00      2.94499922e+00      -1.37706602e+00     
O    1.07008470e+00      -6.62341644e-01     2.36823888e+00      
H    1.16826425e+00      -1.61229864e+00     2.53286229e+00      
H    1.23393669e+00      -2.11201082e-01     3.19710257e+00      
O    -2.71870735e+00     -4.28281442e-01     -4.92001221e-01     
H    -2.88709134e+00     -2.25905370e-01     -1.41733391e+00     
H    -3.54884517e+00     -2.77507278e-01     -3.24696435e-02     
O    -4.33797748e-01     -2.04855707e+00     -5.41654576e+00     
H    -7.26076822e-01     -1.17663922e+00     -5.84136359e+00     
H    -5.70225837e-02     -2.63788625e+00     -6.20160103e+00     
O    1.17411724e+00      -3.42745725e+00     2.24715013e+00      
H    5.50565094e-01      -4.00490854e+00     2.69262900e+00      
H    1.99961620e+00      -3.91621666e+00     2.22626936e+00      
26
3775.237830
N    -1.17332218e-02     -5.47233479e-02     -5.10710049e-02     
H    -1.05140413e+00     -7.21601069e-02     -9.20126712e-02     
H    3.19603758e-01      8.38057797e-01      -4.71685270e-01     
H    3.24065838e-01      -1.50367285e-01     9.32511699e-01      
C    5.29985612e-01      -1.18828129e+00     -8.21461294e-01     
H    1.61591383e+00      -1.15090966e+00     -7.95356318e-01     
H    1.96728747e-01      -2.12003959e+00     -3.72144644e-01     
C    4.24346197e-02      -1.09309673e+00     -2.25161350e+00     
O    -6.57760700e-01     -1.90358053e-01     -2.67187151e+00     
O    4.92949402e-01      -2.12152100e+00     -2.94722219e+00     
H    1.43603212e-01      -2.05876725e+00     -3.87889152e+00     
O    1.00606847e+00      2.05318029e+00      -1.52338331e+00     
H    5.26253129e-01      2.07789715e+00      -2.35618978e+00     
H    1.33142171e+00      2.94494967e+00      -1.37707626e+00     
O    1.07008463e+00      -6.62341080e-01     2.36823892e+00      
H    1.16826581e+00      -1.61230506e+00     2.53286539e+00      
H    1.23393619e+00      -2.11204531e-01     3.19709776e+00      
O    -2.71870726e+00     -4.28282158e-01     -4.91997883e-01     
H    -2.88710354e+00     -2.25891492e-01     -1.41738337e+00     
H    -3.54883501e+00     -2.77508570e-01     -3.24739026e-02     
O    -4.34018361e-01     -2.04847897e+00     -5.41533492e+00     
H    -7.30271266e-01     -1.16508948e+00     -5.84577485e+00     
H    -4.93251846e-02     -2.65066356e+00     -6.21674174e+00     
O    1.17411762e+00      -3.42745808e+00     2.24715030e+00      
H    5.50572843e-01      -4.00490283e+00     2.69262473e+00      
H    1.99960253e+00      -3.91620929e+00     2.22627053e+00      
26
3775.237830
N    -1.17354032e-02     -5.47253077e-02     -5.10837896e-02     
H    -1.05140546e+00     -7.21568618e-02     -9.19816755e-02     
H    3.19613398e-01      8.38070925e-01      -4.71658925e-01     
H    3.24091473e-01      -1.50366917e-01     9.32606953e-01      
C    5.29987778e-01      -1.18828143e+00     -8.21456536e-01     
H    1.61588924e+00      -1.15091853e+00     -7.95360219e-01     
H    1.96740419e-01      -2.12002812e+00     -3.72153524e-01     
C    4.24293053e-02      -1.09308627e+00     -2.25160925e+00     
O    -6.57759875e-01     -1.90360344e-01     -2.67187126e+00     
O    4.92934735e-01      -2.12152328e+00     -2.94727400e+00     
H    1.43870077e-01      -2.05882105e+00     -3.87780423e+00     
O    1.00606889e+00      2.05318295e+00      -1.52338393e+00     
H    5.26264771e-01      2.07790364e+00      -2.35617087e+00     
H    1.33140186e+00      2.94490012e+00      -1.37708650e+00     
O    1.07008456e+00      -6.62340515e-01     2.36823896e+00      
H    1.16826736e+00      -1.61231149e+00     2.53286849e+00      
H    1.23393569e+00      -2.11207980e-01     3.19709296e+00      
O    -2.71870717e+00     -4.28282873e-01     -4.91994545e-01     
H    -2.88711574e+00     -2.25877614e-01     -1.41743284e+00     
H    -3.54882485e+00     -2.77509862e-01     -3.24781618e-02     
O    -4.34238974e-01     -2.04840086e+00     -5.41412408e+00     
H    -7.34465710e-01     -1.15353974e+00     -5.85018611e+00     
H    -4.16277856e-02     -2.66344088e+00     -6.23188245e+00     
O    1.17411799e+00      -3.42745890e+00     2.24715047e+00      
H    5.50580593e-01      -4.00489711e+00     2.69262046e+00      
H    1.99958886e+00      -3.91620193e+00     2.22627169e+00      
26
3775.237830
N    -1.17397660e-02     -5.47292273e-02     -5.11093590e-02     
H    -1.05140810e+00     -7.21503717e-02     -9.19196842e-02     
H    3.19632679e-01      8.38097182e-01      -4.71606234e-01     
H    3.24142743e-01      -1.50366181e-01     9.32797462e-01      
C    5.29992111e-01      -1.18828172e+00     -8.21447022e-01     
H    1.61584005e+00      -1.15093627e+00     -7.95368022e-01     
H    1.96763765e-01      -2.12000518e+00     -3.72171283e-01     
C    4.24186764e-02      -1.09306534e+00     -2.25160075e+00     
O    -6.57758223e-01     -1.90364925e-01     -2.67187075e+00     
O    4.92905401e-01      -2.12152785e+00     -2.94737763e+00     
H    1.44403807e-01      -2.05892865e+00     -3.87562963e+00     
O    1.00606974e+00      2.05318827e+00      -1.52338516e+00     
H    5.26288056e-01      2.07791663e+00      -2.35613305e+00     
H    1.33136215e+00      2.94480101e+00      -1.37710698e+00     
O    1.07008442e+00      -6.62339387e-01     2.36823904e+00      
H    1.16827048e+00      -1.61232434e+00     2.53287468e+00      
H    1.23393468e+00      -2.11214878e-01     3.19708335e+00      
O    -2.71870698e+00     -4.28284305e-01     -4.91987870e-01     
H    -2.88714015e+00     -2.25849858e-01     -1.41753177e+00     
H    -3.54880453e+00     -2.77512446e-01     -3.24866801e-02     
O    -4.34680200e-01     -2.04824466e+00     -5.41170240e+00     
H    -7.42854599e-01     -1.13044026e+00     -5.85900863e+00     
H    -2.62329876e-02     -2.68899550e+00     -6.26216387e+00     
O    1.17411874e+00      -3.42746055e+00     2.24715081e+00      
H    5.50596091e-01      -4.00488567e+00     2.69261192e+00      
H    1.99956152e+00      -3.91618719e+00     2.22627402e+00      
