26
3220.001428
N    -1.33856996e-02     -5.58179833e-02     -5.05829688e-02     
H    -1.03317684e+00     -7.31849845e-02     -9.29966929e-02     
H    3.24769101e-01      8.54817508e-01      -4.77556552e-01     
H    3.24631256e-01      -1.50159611e-01     9.32326692e-01      
C    5.14856100e-01      -1.19876098e+00     -8.16920537e-01     
H    1.75393132e+00      -1.14620990e+00     -7.90093281e-01     
H    2.39033392e-01      -1.99974819e+00     -4.31874941e-01     
C    4.23923896e-02      -1.09320167e+00     -2.25157052e+00     
O    -6.57802720e-01     -1.90368770e-01     -2.67187239e+00     
O    4.93157841e-01      -2.12152799e+00     -2.94657542e+00     
H    1.40106216e-01      -2.05824399e+00     -3.89044191e+00     
O    1.00608471e+00      2.05314194e+00      -1.52336878e+00     
H    5.26212920e-01      2.07829699e+00      -2.35639370e+00     
H    1.33134228e+00      2.94506916e+00      -1.37735699e+00     
O    1.07009585e+00      -6.62292412e-01     2.36823287e+00      
H    1.16826206e+00      -1.61277154e+00     2.53303454e+00      
H    1.23384625e+00      -2.11374513e-01     3.19707776e+00      
O    -2.71872707e+00     -4.28254674e-01     -4.92025980e-01     
H    -2.88663491e+00     -2.26102302e-01     -1.41713754e+00     
H    -3.54892238e+00     -2.77516642e-01     -3.20696142e-02     
O    -4.32914888e-01     -2.04886429e+00     -5.42138665e+00     
H    -7.09445184e-01     -1.22272512e+00     -5.82383937e+00     
H    -8.77907528e-02     -2.58696996e+00     -6.14126855e+00     
O    1.17412921e+00      -3.42745940e+00     2.24715264e+00      
H    5.50322756e-01      -4.00497624e+00     2.69272130e+00      
H    1.99968894e+00      -3.91625871e+00     2.22621859e+00      
26
3220.001428
N    -1.29698534e-02     -5.55418747e-02     -5.06889969e-02     
H    -1.03773201e+00     -7.29328214e-02     -9.27894320e-02     
H    3.23465715e-01      8.50611170e-01      -4.76121663e-01     
H    3.24457858e-01      -1.50211989e-01     9.32253876e-01      
C    5.18635770e-01      -1.19614087e+00     -8.18061673e-01     
H    1.71945768e+00      -1.14737376e+00     -7.91404164e-01     
H    2.28442640e-01      -2.02983538e+00     -4.16931267e-01     
C    4.24095902e-02      -1.09318852e+00     -2.25158658e+00     
O    -6.57793248e-01     -1.90363227e-01     -2.67187249e+00     
O    4.93124066e-01      -2.12152339e+00     -2.94667234e+00     
H    1.40646884e-01      -2.05830755e+00     -3.88891343e+00     
O    1.00608012e+00      2.05314820e+00      -1.52337165e+00     
H    5.26208419e-01      2.07818892e+00      -2.35636636e+00     
H    1.33138696e+00      2.94510123e+00      -1.37727401e+00     
O    1.07009313e+00      -6.62305284e-01     2.36823433e+00      
H    1.16826105e+00      -1.61264689e+00     2.53298838e+00      
H    1.23386936e+00      -2.11327706e-01     3.19708877e+00      
O    -2.71872223e+00     -4.28260650e-01     -4.92023128e-01     
H    -2.88673682e+00     -2.26066947e-01     -1.41713716e+00     
H    -3.54891324e+00     -2.77513009e-01     -3.21653623e-02     
O    -4.32914990e-01     -2.04886559e+00     -5.42138727e+00     
H    -7.09408649e-01     -1.22275339e+00     -5.82380916e+00     
H    -8.77961095e-02     -2.58692172e+00     -6.14121096e+00     
O    1.17412584e+00      -3.42745803e+00     2.24715185e+00      
H    5.50375591e-01      -4.00496503e+00     2.69270249e+00      
H    1.99968443e+00      -3.91625557e+00     2.22623012e+00      
26
3220.001428
N    -1.27619303e-02     -5.54038204e-02     -5.07420110e-02     
H    -1.04000960e+00     -7.28067399e-02     -9.26858016e-02     
H    3.22814022e-01      8.48508001e-01      -4.75404219e-01     
H    3.24371159e-01      -1.50238179e-01     9.32217468e-01      
C    5.20525605e-01      -1.19483082e+00     -8.18632241e-01     
H    1.70222087e+00      -1.14795569e+00     -7.92059605e-01     
H    2.23147264e-01      -2.04487898e+00     -4.09459430e-01     
C    4.24181905e-02      -1.09318194e+00     -2.25159461e+00     
O    -6.57788511e-01     -1.90360456e-01     -2.67187254e+00     
O    4.93107178e-01      -2.12152109e+00     -2.94672081e+00     
H    1.40917218e-01      -2.05833934e+00     -3.88814919e+00     
O    1.00607782e+00      2.05315134e+00      -1.52337308e+00     
H    5.26206169e-01      2.07813488e+00      -2.35635269e+00     
H    1.33140930e+00      2.94511726e+00      -1.37723252e+00     
O    1.07009177e+00      -6.62311720e-01     2.36823507e+00      
H    1.16826055e+00      -1.61258456e+00     2.53296530e+00      
H    1.23388092e+00      -2.11304303e-01     3.19709427e+00      
O    -2.71871981e+00     -4.28263638e-01     -4.92021702e-01     
H    -2.88678777e+00     -2.26049270e-01     -1.41713698e+00     
H    -3.54890867e+00     -2.77511192e-01     -3.22132364e-02     
O    -4.32915041e-01     -2.04886624e+00     -5.42138758e+00     
H    -7.09390382e-01     -1.22276752e+00     -5.82379406e+00     
H    -8.77987879e-02     -2.58689760e+00     -6.14118216e+00     
O    1.17412416e+00      -3.42745735e+00     2.24715145e+00      
H    5.50402008e-01      -4.00495943e+00     2.69269309e+00      
H    1.99968217e+00      -3.91625400e+00     2.22623588e+00      
26
3220.001428
N    -1.25540072e-02     -5.52657661e-02     -5.07950251e-02     
H    -1.04228718e+00     -7.26806583e-02     -9.25821712e-02     
H    3.22162329e-01      8.46404832e-01      -4.74686774e-01     
H    3.24284459e-01      -1.50264368e-01     9.32181060e-01      
C    5.22415440e-01      -1.19352077e+00     -8.19202808e-01     
H    1.68498405e+00      -1.14853762e+00     -7.92715046e-01     
H    2.17851888e-01      -2.05992257e+00     -4.01987594e-01     
C    4.24267908e-02      -1.09317536e+00     -2.25160264e+00     
O    -6.57783775e-01     -1.90357685e-01     -2.67187259e+00     
O    4.93090290e-01      -2.12151879e+00     -2.94676927e+00     
H    1.41187552e-01      -2.05837112e+00     -3.88738495e+00     
O    1.00607553e+00      2.05315447e+00      -1.52337451e+00     
H    5.26203919e-01      2.07808085e+00      -2.35633902e+00     
H    1.33143164e+00      2.94513329e+00      -1.37719103e+00     
O    1.07009041e+00      -6.62318156e-01     2.36823580e+00      
H    1.16826004e+00      -1.61252224e+00     2.53294222e+00      
H    1.23389248e+00      -2.11280900e-01     3.19709977e+00      
O    -2.71871739e+00     -4.28266626e-01     -4.92020276e-01     
H    -2.88683872e+00     -2.26031592e-01     -1.41713679e+00     
H    -3.54890410e+00     -2.77509376e-01     -3.22611105e-02     
O    -4.32915092e-01     -2.04886689e+00     -5.42138789e+00     
H    -7.09372114e-01     -1.22278165e+00     -5.82377895e+00     
H    -8.78014663e-02     -2.58687348e+00     -6.14115337e+00     
O    1.17412247e+00      -3.42745667e+00     2.24715105e+00      
H    5.50428426e-01      -4.00495383e+00     2.69268368e+00      
H    1.99967992e+00      -3.91625243e+00     2.22624165e+00      
26
3220.001428
N    -1.23460841e-02     -5.51277118e-02     -5.08480392e-02     
H    -1.04456477e+00     -7.25545768e-02     -9.24785407e-02     
H    3.21510636e-01      8.44301663e-01      -4.73969330e-01     
H    3.24197760e-01      -1.50290557e-01     9.32144652e-01      
C    5.24305275e-01      -1.19221072e+00     -8.19773376e-01     
H    1.66774723e+00      -1.14911954e+00     -7.93370487e-01     
H    2.12556511e-01      -2.07496617e+00     -3.94515757e-01     
C    4.24353911e-02      -1.09316878e+00     -2.25161067e+00     
O    -6.57779039e-01     -1.90354914e-01     -2.67187263e+00     
O    4.93073402e-01      -2.12151648e+00     -2.94681774e+00     
H    1.41457886e-01      -2.05840290e+00     -3.88662072e+00     
O    1.00607323e+00      2.05315760e+00      -1.52337594e+00     
H    5.26201668e-01      2.07802681e+00      -2.35632535e+00     
H    1.33145398e+00      2.94514933e+00      -1.37714953e+00     
O    1.07008906e+00      -6.62324593e-01     2.36823653e+00      
H    1.16825954e+00      -1.61245991e+00     2.53291914e+00      
H    1.23390404e+00      -2.11257496e-01     3.19710527e+00      
O    -2.71871498e+00     -4.28269614e-01     -4.92018850e-01     
H    -2.88688967e+00     -2.26013915e-01     -1.41713661e+00     
H    -3.54889953e+00     -2.77507559e-01     -3.23089846e-02     
O    -4.32915143e-01     -2.04886754e+00     -5.42138819e+00     
H    -7.09353847e-01     -1.22279579e+00     -5.82376385e+00     
H    -8.78041446e-02     -2.58684936e+00     -6.14112457e+00     
O    1.17412079e+00      -3.42745599e+00     2.24715065e+00      
H    5.50454843e-01      -4.00494823e+00     2.69267428e+00      
H    1.99967766e+00      -3.91625085e+00     2.22624741e+00      
26
3220.001428
N    -1.21381610e-02     -5.49896575e-02     -5.09010532e-02     
H    -1.04684235e+00     -7.24284953e-02     -9.23749103e-02     
H    3.20858942e-01      8.42198493e-01      -4.73251885e-01     
H    3.24111061e-01      -1.50316746e-01     9.32108244e-01      
C    5.26195110e-01      -1.19090066e+00     -8.20343944e-01     
H    1.65051041e+00      -1.14970147e+00     -7.94025929e-01     
H    2.07261135e-01      -2.09000977e+00     -3.87043920e-01     
C    4.24439914e-02      -1.09316221e+00     -2.25161870e+00     
O    -6.57774303e-01     -1.90352142e-01     -2.67187268e+00     
O    4.93056514e-01      -2.12151418e+00     -2.94686620e+00     
H    1.41728220e-01      -2.05843468e+00     -3.88585648e+00     
O    1.00607094e+00      2.05316073e+00      -1.52337737e+00     
H    5.26199418e-01      2.07797277e+00      -2.35631168e+00     
H    1.33147631e+00      2.94516536e+00      -1.37710804e+00     
O    1.07008770e+00      -6.62331029e-01     2.36823726e+00      
H    1.16825903e+00      -1.61239758e+00     2.53289606e+00      
H    1.23391559e+00      -2.11234093e-01     3.19711078e+00      
O    -2.71871256e+00     -4.28272602e-01     -4.92017424e-01     
H    -2.88694063e+00     -2.25996237e-01     -1.41713642e+00     
H    -3.54889496e+00     -2.77505743e-01     -3.23568586e-02     
O    -4.32915194e-01     -2.04886819e+00     -5.42138850e+00     
H    -7.09335579e-01     -1.22280992e+00     -5.82374875e+00     
H    -8.78068230e-02     -2.58682524e+00     -6.14109577e+00     
O    1.17411911e+00      -3.42745531e+00     2.24715026e+00      
H    5.50481261e-01      -4.00494262e+00     2.69266488e+00      
H    1.99967540e+00      -3.91624928e+00     2.22625317e+00      
26
3220.001428
N    -1.20341994e-02     -5.49206303e-02     -5.09275603e-02     
H    -1.04798114e+00     -7.23654545e-02     -9.23230951e-02     
H    3.20533096e-01      8.41146909e-01      -4.72893163e-01     
H    3.24067712e-01      -1.50329840e-01     9.32090040e-01      
C    5.27140028e-01      -1.19024564e+00     -8.20629228e-01     
H    1.64189201e+00      -1.14999244e+00     -7.94353649e-01     
H    2.04613447e-01      -2.09753157e+00     -3.83308001e-01     
C    4.24482916e-02      -1.09315892e+00     -2.25162271e+00     
O    -6.57771934e-01     -1.90350757e-01     -2.67187271e+00     
O    4.93048070e-01      -2.12151303e+00     -2.94689043e+00     
H    1.41863387e-01      -2.05845058e+00     -3.88547436e+00     
O    1.00606979e+00      2.05316230e+00      -1.52337808e+00     
H    5.26198293e-01      2.07794575e+00      -2.35630484e+00     
H    1.33148748e+00      2.94517338e+00      -1.37708730e+00     
O    1.07008702e+00      -6.62334247e-01     2.36823763e+00      
H    1.16825878e+00      -1.61236642e+00     2.53288452e+00      
H    1.23392137e+00      -2.11222391e-01     3.19711353e+00      
O    -2.71871135e+00     -4.28274096e-01     -4.92016711e-01     
H    -2.88696610e+00     -2.25987398e-01     -1.41713633e+00     
H    -3.54889267e+00     -2.77504835e-01     -3.23807957e-02     
O    -4.32915220e-01     -2.04886851e+00     -5.42138866e+00     
H    -7.09326445e-01     -1.22281699e+00     -5.82374120e+00     
H    -8.78081622e-02     -2.58681318e+00     -6.14108138e+00     
O    1.17411827e+00      -3.42745497e+00     2.24715006e+00      
H    5.50494470e-01      -4.00493982e+00     2.69266018e+00      
H    1.99967427e+00      -3.91624850e+00     2.22625605e+00      
26
3220.001428
N    -1.19302379e-02     -5.48516032e-02     -5.09540673e-02     
H    -1.04911994e+00     -7.23024137e-02     -9.22712798e-02     
H    3.20207249e-01      8.40095324e-01      -4.72534441e-01     
H    3.24024362e-01      -1.50342935e-01     9.32071836e-01      
C    5.28084945e-01      -1.18959061e+00     -8.20914512e-01     
H    1.63327360e+00      -1.15028340e+00     -7.94681370e-01     
H    2.01965759e-01      -2.10505336e+00     -3.79572083e-01     
C    4.24525917e-02      -1.09315563e+00     -2.25162673e+00     
O    -6.57769566e-01     -1.90349371e-01     -2.67187273e+00     
O    4.93039626e-01      -2.12151188e+00     -2.94691467e+00     
H    1.41998554e-01      -2.05846647e+00     -3.88509224e+00     
O    1.00606864e+00      2.05316387e+00      -1.52337880e+00     
H    5.26197167e-01      2.07791874e+00      -2.35629801e+00     
H    1.33149865e+00      2.94518140e+00      -1.37706655e+00     
O    1.07008634e+00      -6.62337465e-01     2.36823800e+00      
H    1.16825853e+00      -1.61233526e+00     2.53287298e+00      
H    1.23392715e+00      -2.11210689e-01     3.19711628e+00      
O    -2.71871014e+00     -4.28275590e-01     -4.92015998e-01     
H    -2.88699158e+00     -2.25978560e-01     -1.41713624e+00     
H    -3.54889039e+00     -2.77503926e-01     -3.24047327e-02     
O    -4.32915245e-01     -2.04886884e+00     -5.42138881e+00     
H    -7.09317312e-01     -1.22282406e+00     -5.82373364e+00     
H    -8.78095013e-02     -2.58680112e+00     -6.14106698e+00     
O    1.17411742e+00      -3.42745463e+00     2.24714986e+00      
H    5.50507678e-01      -4.00493702e+00     2.69265547e+00      
H    1.99967315e+00      -3.91624771e+00     2.22625894e+00      
26
3220.001428
N    -1.15143917e-02     -5.45754946e-02     -5.10600955e-02     
H    -1.05367510e+00     -7.20502507e-02     -9.20640190e-02     
H    3.18903863e-01      8.35888986e-01      -4.71099551e-01     
H    3.23850964e-01      -1.50395313e-01     9.31999020e-01      
C    5.31864615e-01      -1.18697051e+00     -8.22055648e-01     
H    1.59879996e+00      -1.15144726e+00     -7.95992252e-01     
H    1.91375007e-01      -2.13514056e+00     -3.64628409e-01     
C    4.24697923e-02      -1.09314247e+00     -2.25164279e+00     
O    -6.57760094e-01     -1.90343829e-01     -2.67187283e+00     
O    4.93005850e-01      -2.12150728e+00     -2.94701159e+00     
H    1.42539222e-01      -2.05853003e+00     -3.88356376e+00     
O    1.00606406e+00      2.05317013e+00      -1.52338166e+00     
H    5.26192667e-01      2.07781066e+00      -2.35627067e+00     
H    1.33154333e+00      2.94521346e+00      -1.37698357e+00     
O    1.07008362e+00      -6.62350337e-01     2.36823946e+00      
H    1.16825751e+00      -1.61221060e+00     2.53282682e+00      
H    1.23395027e+00      -2.11163883e-01     3.19712728e+00      
O    -2.71870530e+00     -4.28281566e-01     -4.92013146e-01     
H    -2.88709348e+00     -2.25943204e-01     -1.41713586e+00     
H    -3.54888125e+00     -2.77500294e-01     -3.25004809e-02     
O    -4.32915347e-01     -2.04887014e+00     -5.42138943e+00     
H    -7.09280776e-01     -1.22285232e+00     -5.82370344e+00     
H    -8.78148581e-02     -2.58675288e+00     -6.14100938e+00     
O    1.17411406e+00      -3.42745327e+00     2.24714906e+00      
H    5.50560514e-01      -4.00492582e+00     2.69263667e+00      
H    1.99966863e+00      -3.91624457e+00     2.22627046e+00      
26
3220.001428
N    -1.14104302e-02     -5.45064675e-02     -5.10866025e-02     
H    -1.05481390e+00     -7.19872099e-02     -9.20122037e-02     
H    3.18578016e-01      8.34837401e-01      -4.70740829e-01     
H    3.23807614e-01      -1.50408408e-01     9.31980816e-01      
C    5.32809532e-01      -1.18631548e+00     -8.22340932e-01     
H    1.59018155e+00      -1.15173822e+00     -7.96319973e-01     
H    1.88727319e-01      -2.14266235e+00     -3.60892491e-01     
C    4.24740924e-02      -1.09313918e+00     -2.25164681e+00     
O    -6.57757726e-01     -1.90342443e-01     -2.67187285e+00     
O    4.92997406e-01      -2.12150613e+00     -2.94703583e+00     
H    1.42674389e-01      -2.05854592e+00     -3.88318164e+00     
O    1.00606291e+00      2.05317170e+00      -1.52338238e+00     
H    5.26191541e-01      2.07778365e+00      -2.35626384e+00     
H    1.33155450e+00      2.94522148e+00      -1.37696282e+00     
O    1.07008294e+00      -6.62353555e-01     2.36823983e+00      
H    1.16825726e+00      -1.61217944e+00     2.53281528e+00      
H    1.23395605e+00      -2.11152181e-01     3.19713003e+00      
O    -2.71870409e+00     -4.28283060e-01     -4.92012433e-01     
H    -2.88711896e+00     -2.25934366e-01     -1.41713577e+00     
H    -3.54887897e+00     -2.77499385e-01     -3.25244179e-02     
O    -4.32915372e-01     -2.04887047e+00     -5.42138958e+00     
H    -7.09271643e-01     -1.22285939e+00     -5.82369588e+00     
H    -8.78161972e-02     -2.58674082e+00     -6.14099498e+00     
O    1.17411321e+00      -3.42745293e+00     2.24714886e+00      
H    5.50573722e-01      -4.00492302e+00     2.69263196e+00      
H    1.99966751e+00      -3.91624378e+00     2.22627335e+00      
26
3220.001428
N    -1.13064686e-02     -5.44374403e-02     -5.11131096e-02     
H    -1.05595269e+00     -7.19241691e-02     -9.19603885e-02     
H    3.18252170e-01      8.33785817e-01      -4.70382107e-01     
H    3.23764265e-01      -1.50421502e-01     9.31962612e-01      
C    5.33754450e-01      -1.18566046e+00     -8.22626216e-01     
H    1.58156315e+00      -1.15202919e+00     -7.96647693e-01     
H    1.86079631e-01      -2.15018415e+00     -3.57156572e-01     
C    4.24783926e-02      -1.09313589e+00     -2.25165082e+00     
O    -6.57755357e-01     -1.90341058e-01     -2.67187288e+00     
O    4.92988962e-01      -2.12150498e+00     -2.94706006e+00     
H    1.42809556e-01      -2.05856182e+00     -3.88279952e+00     
O    1.00606176e+00      2.05317327e+00      -1.52338309e+00     
H    5.26190416e-01      2.07775663e+00      -2.35625700e+00     
H    1.33156567e+00      2.94522950e+00      -1.37694208e+00     
O    1.07008226e+00      -6.62356773e-01     2.36824020e+00      
H    1.16825701e+00      -1.61214828e+00     2.53280374e+00      
H    1.23396183e+00      -2.11140479e-01     3.19713278e+00      
O    -2.71870288e+00     -4.28284554e-01     -4.92011720e-01     
H    -2.88714443e+00     -2.25925527e-01     -1.41713568e+00     
H    -3.54887668e+00     -2.77498477e-01     -3.25483550e-02     
O    -4.32915398e-01     -2.04887079e+00     -5.42138974e+00     
H    -7.09262509e-01     -1.22286646e+00     -5.82368833e+00     
H    -8.78175364e-02     -2.58672876e+00     -6.14098059e+00     
O    1.17411237e+00      -3.42745259e+00     2.24714866e+00      
H    5.50586931e-01      -4.00492022e+00     2.69262726e+00      
H    1.99966638e+00      -3.91624300e+00     2.22627623e+00      
26
3220.001428
N    -1.10985455e-02     -5.42993860e-02     -5.11661236e-02     
H    -1.05823027e+00     -7.17980876e-02     -9.18567581e-02     
H    3.17600476e-01      8.31682647e-01      -4.69664662e-01     
H    3.23677566e-01      -1.50447691e-01     9.31926204e-01      
C    5.35644285e-01      -1.18435040e+00     -8.23196784e-01     
H    1.56432633e+00      -1.15261112e+00     -7.97303135e-01     
H    1.80784255e-01      -2.16522775e+00     -3.49684735e-01     
C    4.24869929e-02      -1.09312932e+00     -2.25165885e+00     
O    -6.57750621e-01     -1.90338286e-01     -2.67187293e+00     
O    4.92972074e-01      -2.12150268e+00     -2.94710852e+00     
H    1.43079890e-01      -2.05859360e+00     -3.88203528e+00     
O    1.00605947e+00      2.05317640e+00      -1.52338452e+00     
H    5.26188166e-01      2.07770259e+00      -2.35624333e+00     
H    1.33158800e+00      2.94524553e+00      -1.37690059e+00     
O    1.07008090e+00      -6.62363209e-01     2.36824093e+00      
H    1.16825650e+00      -1.61208595e+00     2.53278066e+00      
H    1.23397338e+00      -2.11117076e-01     3.19713829e+00      
O    -2.71870046e+00     -4.28287542e-01     -4.92010294e-01     
H    -2.88719539e+00     -2.25907849e-01     -1.41713549e+00     
H    -3.54887211e+00     -2.77496661e-01     -3.25962290e-02     
O    -4.32915449e-01     -2.04887144e+00     -5.42139005e+00     
H    -7.09244241e-01     -1.22288059e+00     -5.82367323e+00     
H    -8.78202148e-02     -2.58670464e+00     -6.14095179e+00     
O    1.17411069e+00      -3.42745191e+00     2.24714827e+00      
H    5.50613349e-01      -4.00491461e+00     2.69261786e+00      
H    1.99966412e+00      -3.91624143e+00     2.22628199e+00      
26
3220.001428
N    -1.08906224e-02     -5.41613317e-02     -5.12191377e-02     
H    -1.06050786e+00     -7.16720061e-02     -9.17531276e-02     
H    3.16948783e-01      8.29579478e-01      -4.68947218e-01     
H    3.23590867e-01      -1.50473880e-01     9.31889796e-01      
C    5.37534120e-01      -1.18304035e+00     -8.23767352e-01     
H    1.54708951e+00      -1.15319304e+00     -7.97958576e-01     
H    1.75488878e-01      -2.18027135e+00     -3.42212898e-01     
C    4.24955932e-02      -1.09312274e+00     -2.25166688e+00     
O    -6.57745885e-01     -1.90335515e-01     -2.67187297e+00     
O    4.92955186e-01      -2.12150037e+00     -2.94715699e+00     
H    1.43350224e-01      -2.05862538e+00     -3.88127105e+00     
O    1.00605717e+00      2.05317953e+00      -1.52338595e+00     
H    5.26185915e-01      2.07764855e+00      -2.35622966e+00     
H    1.33161034e+00      2.94526157e+00      -1.37685909e+00     
O    1.07007955e+00      -6.62369646e-01     2.36824166e+00      
H    1.16825600e+00      -1.61202362e+00     2.53275758e+00      
H    1.23398494e+00      -2.11093672e-01     3.19714379e+00      
O    -2.71869805e+00     -4.28290530e-01     -4.92008868e-01     
H    -2.88724634e+00     -2.25890172e-01     -1.41713531e+00     
H    -3.54886754e+00     -2.77494844e-01     -3.26441031e-02     
O    -4.32915500e-01     -2.04887209e+00     -5.42139035e+00     
H    -7.09225974e-01     -1.22289473e+00     -5.82365813e+00     
H    -8.78228931e-02     -2.58668052e+00     -6.14092299e+00     
O    1.17410901e+00      -3.42745123e+00     2.24714787e+00      
H    5.50639766e-01      -4.00490901e+00     2.69260846e+00      
H    1.99966186e+00      -3.91623985e+00     2.22628775e+00      
26
3220.001428
N    -1.06826993e-02     -5.40232774e-02     -5.12721518e-02     
H    -1.06278544e+00     -7.15459245e-02     -9.16494972e-02     
H    3.16297090e-01      8.27476309e-01      -4.68229773e-01     
H    3.23504167e-01      -1.50500069e-01     9.31853388e-01      
C    5.39423955e-01      -1.18173030e+00     -8.24337919e-01     
H    1.52985269e+00      -1.15377497e+00     -7.98614017e-01     
H    1.70193502e-01      -2.19531494e+00     -3.34741062e-01     
C    4.25041935e-02      -1.09311616e+00     -2.25167491e+00     
O    -6.57741149e-01     -1.90332744e-01     -2.67187302e+00     
O    4.92938298e-01      -2.12149807e+00     -2.94720545e+00     
H    1.43620558e-01      -2.05865716e+00     -3.88050681e+00     
O    1.00605488e+00      2.05318266e+00      -1.52338738e+00     
H    5.26183665e-01      2.07759452e+00      -2.35621599e+00     
H    1.33163268e+00      2.94527760e+00      -1.37681760e+00     
O    1.07007819e+00      -6.62376082e-01     2.36824239e+00      
H    1.16825549e+00      -1.61196130e+00     2.53273450e+00      
H    1.23399650e+00      -2.11070269e-01     3.19714929e+00      
O    -2.71869563e+00     -4.28293518e-01     -4.92007442e-01     
H    -2.88729729e+00     -2.25872494e-01     -1.41713512e+00     
H    -3.54886297e+00     -2.77493028e-01     -3.26919772e-02     
O    -4.32915551e-01     -2.04887274e+00     -5.42139066e+00     
H    -7.09207706e-01     -1.22290886e+00     -5.82364302e+00     
H    -8.78255715e-02     -2.58665640e+00     -6.14089420e+00     
O    1.17410732e+00      -3.42745055e+00     2.24714747e+00      
H    5.50666184e-01      -4.00490341e+00     2.69259905e+00      
H    1.99965961e+00      -3.91623828e+00     2.22629352e+00      
26
3220.001428
N    -1.04747762e-02     -5.38852231e-02     -5.13251659e-02     
H    -1.06506303e+00     -7.14198430e-02     -9.15458668e-02     
H    3.15645397e-01      8.25373140e-01      -4.67512329e-01     
H    3.23417468e-01      -1.50526259e-01     9.31816980e-01      
C    5.41313790e-01      -1.18042025e+00     -8.24908487e-01     
H    1.51261588e+00      -1.15435690e+00     -7.99269458e-01     
H    1.64898126e-01      -2.21035854e+00     -3.27269225e-01     
C    4.25127938e-02      -1.09310958e+00     -2.25168294e+00     
O    -6.57736412e-01     -1.90329973e-01     -2.67187307e+00     
O    4.92921410e-01      -2.12149577e+00     -2.94725392e+00     
H    1.43890892e-01      -2.05868895e+00     -3.87974257e+00     
O    1.00605258e+00      2.05318580e+00      -1.52338881e+00     
H    5.26181415e-01      2.07754048e+00      -2.35620232e+00     
H    1.33165502e+00      2.94529363e+00      -1.37677611e+00     
O    1.07007683e+00      -6.62382518e-01     2.36824313e+00      
H    1.16825499e+00      -1.61189897e+00     2.53271142e+00      
H    1.23400806e+00      -2.11046866e-01     3.19715479e+00      
O    -2.71869321e+00     -4.28296506e-01     -4.92006016e-01     
H    -2.88734824e+00     -2.25854817e-01     -1.41713494e+00     
H    -3.54885840e+00     -2.77491211e-01     -3.27398513e-02     
O    -4.32915602e-01     -2.04887339e+00     -5.42139097e+00     
H    -7.09189439e-01     -1.22292299e+00     -5.82362792e+00     
H    -8.78282499e-02     -2.58663228e+00     -6.14086540e+00     
O    1.17410564e+00      -3.42744987e+00     2.24714707e+00      
H    5.50692601e-01      -4.00489781e+00     2.69258965e+00      
H    1.99965735e+00      -3.91623671e+00     2.22629928e+00      
26
3220.001428
N    -1.00589300e-02     -5.36091145e-02     -5.14311940e-02     
H    -1.06961820e+00     -7.11676799e-02     -9.13386059e-02     
H    3.14342011e-01      8.21166802e-01      -4.66077440e-01     
H    3.23244070e-01      -1.50578637e-01     9.31744164e-01      
C    5.45093460e-01      -1.17780014e+00     -8.26049623e-01     
H    1.47814224e+00      -1.15552076e+00     -8.00580341e-01     
H    1.54307374e-01      -2.24044573e+00     -3.12325551e-01     
C    4.25299944e-02      -1.09309643e+00     -2.25169900e+00     
O    -6.57726940e-01     -1.90324430e-01     -2.67187317e+00     
O    4.92887635e-01      -2.12149117e+00     -2.94735084e+00     
H    1.44431560e-01      -2.05875251e+00     -3.87821409e+00     
O    1.00604799e+00      2.05319206e+00      -1.52339168e+00     
H    5.26176914e-01      2.07743241e+00      -2.35617498e+00     
H    1.33169970e+00      2.94532570e+00      -1.37669313e+00     
O    1.07007411e+00      -6.62395390e-01     2.36824459e+00      
H    1.16825398e+00      -1.61177432e+00     2.53266526e+00      
H    1.23403117e+00      -2.11000059e-01     3.19716580e+00      
O    -2.71868837e+00     -4.28302482e-01     -4.92003164e-01     
H    -2.88745015e+00     -2.25819462e-01     -1.41713456e+00     
H    -3.54884926e+00     -2.77487578e-01     -3.28355994e-02     
O    -4.32915704e-01     -2.04887469e+00     -5.42139159e+00     
H    -7.09152904e-01     -1.22295126e+00     -5.82359771e+00     
H    -8.78336066e-02     -2.58658404e+00     -6.14080781e+00     
O    1.17410227e+00      -3.42744850e+00     2.24714628e+00      
H    5.50745436e-01      -4.00488660e+00     2.69257084e+00      
H    1.99965284e+00      -3.91623357e+00     2.22631081e+00      
