26
3891.481421
N    -1.17252251e-02     -5.47899490e-02     -5.09799142e-02     
H    -1.05155050e+00     -7.18819566e-02     -9.21234215e-02     
H    3.19693998e-01      8.38671333e-01      -4.71848925e-01     
H    3.24124490e-01      -1.50730369e-01     9.31402301e-01      
C    5.29964113e-01      -1.18828452e+00     -8.21479321e-01     
H    1.61629736e+00      -1.15078596e+00     -7.95394813e-01     
H    1.96611172e-01      -2.12010790e+00     -3.72172600e-01     
C    4.24495372e-02      -1.09313677e+00     -2.25165559e+00     
O    -6.57760330e-01     -1.90352668e-01     -2.67186914e+00     
O    4.93022763e-01      -2.12150922e+00     -2.94695903e+00     
H    1.42277839e-01      -2.05851770e+00     -3.88435468e+00     
O    1.00617017e+00      2.05334126e+00      -1.52328433e+00     
H    5.25645273e-01      2.07798113e+00      -2.35728732e+00     
H    1.33042370e+00      2.94230094e+00      -1.37754842e+00     
O    1.06825085e+00      -6.70349859e-01     2.35836249e+00      
H    1.16388305e+00      -1.58191955e+00     2.52172830e+00      
H    1.26719752e+00      -1.14311730e-01     3.36514515e+00      
O    -2.71869109e+00     -4.28260335e-01     -4.92160047e-01     
H    -2.88672084e+00     -2.26389755e-01     -1.41502947e+00     
H    -3.54945408e+00     -2.77368897e-01     -3.22295327e-02     
O    -4.32950626e-01     -2.04878761e+00     -5.42138174e+00     
H    -7.08984828e-01     -1.22375898e+00     -5.82328081e+00     
H    -8.75613830e-02     -2.58716109e+00     -6.14158699e+00     
O    1.17400913e+00      -3.42721559e+00     2.24709178e+00      
H    5.48347763e-01      -4.00650784e+00     2.69405789e+00      
H    2.00360388e+00      -3.91820356e+00     2.22604400e+00      
26
3891.481421
N    -1.17244975e-02     -5.47708490e-02     -5.09867060e-02     
H    -1.05151226e+00     -7.19555505e-02     -9.21344784e-02     
H    3.19659388e-01      8.38501538e-01      -4.71840943e-01     
H    3.24077783e-01      -1.50640058e-01     9.31560583e-01      
C    5.29966780e-01      -1.18828353e+00     -8.21480760e-01     
H    1.61623221e+00      -1.15080581e+00     -7.95380313e-01     
H    1.96625975e-01      -2.12010516e+00     -3.72154512e-01     
C    4.24524509e-02      -1.09313984e+00     -2.25165038e+00     
O    -6.57761455e-01     -1.90351151e-01     -2.67187005e+00     
O    4.93022757e-01      -2.12150931e+00     -2.94696005e+00     
H    1.42275601e-01      -2.05851283e+00     -3.88434801e+00     
O    1.00614421e+00      2.05329770e+00      -1.52330831e+00     
H    5.25782684e-01      2.07795202e+00      -2.35703658e+00     
H    1.33069803e+00      2.94302506e+00      -1.37741758e+00     
O    1.06870938e+00      -6.68348370e-01     2.36083155e+00      
H    1.16497680e+00      -1.58950790e+00     2.52450870e+00      
H    1.25888282e+00      -1.38530619e-01     3.32313931e+00      
O    -2.71869525e+00     -4.28264896e-01     -4.92123678e-01     
H    -2.88680127e+00     -2.26282537e-01     -1.41555612e+00     
H    -3.54931202e+00     -2.77402200e-01     -3.22853012e-02     
O    -4.32941794e-01     -2.04880808e+00     -5.42138358e+00     
H    -7.09063382e-01     -1.22352878e+00     -5.82339024e+00     
H    -8.76240822e-02     -2.58706507e+00     -6.14144979e+00     
O    1.17403578e+00      -3.42727518e+00     2.24710620e+00      
H    5.48894347e-01      -4.00611374e+00     2.69370493e+00      
H    2.00262064e+00      -3.91771420e+00     2.22609918e+00      
26
3891.481421
N    -1.17241337e-02     -5.47612990e-02     -5.09901019e-02     
H    -1.05149313e+00     -7.19923475e-02     -9.21400069e-02     
H    3.19642082e-01      8.38416641e-01      -4.71836952e-01     
H    3.24054430e-01      -1.50594902e-01     9.31639724e-01      
C    5.29968113e-01      -1.18828303e+00     -8.21481480e-01     
H    1.61619964e+00      -1.15081573e+00     -7.95373062e-01     
H    1.96633376e-01      -2.12010380e+00     -3.72145467e-01     
C    4.24539077e-02      -1.09314137e+00     -2.25164778e+00     
O    -6.57762017e-01     -1.90350393e-01     -2.67187050e+00     
O    4.93022754e-01      -2.12150936e+00     -2.94696057e+00     
H    1.42274482e-01      -2.05851040e+00     -3.88434467e+00     
O    1.00613124e+00      2.05327591e+00      -1.52332029e+00     
H    5.25851389e-01      2.07793747e+00      -2.35691120e+00     
H    1.33083519e+00      2.94338712e+00      -1.37735216e+00     
O    1.06893865e+00      -6.67347625e-01     2.36206608e+00      
H    1.16552367e+00      -1.59330207e+00     2.52589890e+00      
H    1.25472546e+00      -1.50640063e-01     3.30213639e+00      
O    -2.71869733e+00     -4.28267176e-01     -4.92105494e-01     
H    -2.88684148e+00     -2.26228927e-01     -1.41581944e+00     
H    -3.54924098e+00     -2.77418852e-01     -3.23131855e-02     
O    -4.32937377e-01     -2.04881832e+00     -5.42138451e+00     
H    -7.09102659e-01     -1.22341368e+00     -5.82344496e+00     
H    -8.76554318e-02     -2.58701706e+00     -6.14138119e+00     
O    1.17404911e+00      -3.42730497e+00     2.24711341e+00      
H    5.49167638e-01      -4.00591668e+00     2.69352846e+00      
H    2.00212901e+00      -3.91746953e+00     2.22612676e+00      
26
3891.481421
N    -1.17237700e-02     -5.47517490e-02     -5.09934978e-02     
H    -1.05147401e+00     -7.20291444e-02     -9.21455354e-02     
H    3.19624777e-01      8.38331744e-01      -4.71832961e-01     
H    3.24031077e-01      -1.50549747e-01     9.31718865e-01      
C    5.29969446e-01      -1.18828254e+00     -8.21482200e-01     
H    1.61616707e+00      -1.15082565e+00     -7.95365812e-01     
H    1.96640777e-01      -2.12010243e+00     -3.72136423e-01     
C    4.24553646e-02      -1.09314291e+00     -2.25164518e+00     
O    -6.57762580e-01     -1.90349634e-01     -2.67187096e+00     
O    4.93022750e-01      -2.12150940e+00     -2.94696108e+00     
H    1.42273363e-01      -2.05850797e+00     -3.88434134e+00     
O    1.00611826e+00      2.05325413e+00      -1.52333228e+00     
H    5.25920095e-01      2.07792291e+00      -2.35678583e+00     
H    1.33097235e+00      2.94374918e+00      -1.37728674e+00     
O    1.06916791e+00      -6.66346880e-01     2.36330061e+00      
H    1.16607054e+00      -1.59709624e+00     2.52728910e+00      
H    1.25056811e+00      -1.62749508e-01     3.28113346e+00      
O    -2.71869940e+00     -4.28269456e-01     -4.92087309e-01     
H    -2.88688169e+00     -2.26175318e-01     -1.41608276e+00     
H    -3.54916995e+00     -2.77435504e-01     -3.23410698e-02     
O    -4.32932961e-01     -2.04882855e+00     -5.42138543e+00     
H    -7.09141936e-01     -1.22329859e+00     -5.82349968e+00     
H    -8.76867814e-02     -2.58696905e+00     -6.14131259e+00     
O    1.17406243e+00      -3.42733477e+00     2.24712062e+00      
H    5.49440930e-01      -4.00571963e+00     2.69335198e+00      
H    2.00163739e+00      -3.91722485e+00     2.22615435e+00      
26
3891.481421
N    -1.17234062e-02     -5.47421989e-02     -5.09968937e-02     
H    -1.05145489e+00     -7.20659414e-02     -9.21510639e-02     
H    3.19607472e-01      8.38246847e-01      -4.71828970e-01     
H    3.24007723e-01      -1.50504591e-01     9.31798005e-01      
C    5.29970780e-01      -1.18828204e+00     -8.21482920e-01     
H    1.61613450e+00      -1.15083557e+00     -7.95358562e-01     
H    1.96648179e-01      -2.12010106e+00     -3.72127379e-01     
C    4.24568214e-02      -1.09314444e+00     -2.25164257e+00     
O    -6.57763142e-01     -1.90348876e-01     -2.67187141e+00     
O    4.93022747e-01      -2.12150945e+00     -2.94696159e+00     
H    1.42272244e-01      -2.05850554e+00     -3.88433800e+00     
O    1.00610528e+00      2.05323235e+00      -1.52334427e+00     
H    5.25988800e-01      2.07790836e+00      -2.35666046e+00     
H    1.33110951e+00      2.94411125e+00      -1.37722132e+00     
O    1.06939718e+00      -6.65346135e-01     2.36453514e+00      
H    1.16661741e+00      -1.60089041e+00     2.52867930e+00      
H    1.24641076e+00      -1.74858952e-01     3.26013054e+00      
O    -2.71870148e+00     -4.28271737e-01     -4.92069125e-01     
H    -2.88692190e+00     -2.26121709e-01     -1.41634608e+00     
H    -3.54909892e+00     -2.77452155e-01     -3.23689540e-02     
O    -4.32928545e-01     -2.04883879e+00     -5.42138635e+00     
H    -7.09181213e-01     -1.22318349e+00     -5.82355439e+00     
H    -8.77181309e-02     -2.58692103e+00     -6.14124398e+00     
O    1.17407576e+00      -3.42736456e+00     2.24712783e+00      
H    5.49714221e-01      -4.00552258e+00     2.69317550e+00      
H    2.00114576e+00      -3.91698017e+00     2.22618194e+00      
26
3891.481421
N    -1.17230424e-02     -5.47326489e-02     -5.10002896e-02     
H    -1.05143577e+00     -7.21027383e-02     -9.21565924e-02     
H    3.19590167e-01      8.38161949e-01      -4.71824978e-01     
H    3.23984370e-01      -1.50459435e-01     9.31877146e-01      
C    5.29972113e-01      -1.18828155e+00     -8.21483640e-01     
H    1.61610192e+00      -1.15084549e+00     -7.95351312e-01     
H    1.96655580e-01      -2.12009969e+00     -3.72118335e-01     
C    4.24582783e-02      -1.09314598e+00     -2.25163997e+00     
O    -6.57763705e-01     -1.90348117e-01     -2.67187187e+00     
O    4.93022744e-01      -2.12150949e+00     -2.94696210e+00     
H    1.42271126e-01      -2.05850311e+00     -3.88433467e+00     
O    1.00609230e+00      2.05321057e+00      -1.52335626e+00     
H    5.26057506e-01      2.07789381e+00      -2.35653509e+00     
H    1.33124667e+00      2.94447331e+00      -1.37715590e+00     
O    1.06962645e+00      -6.64345391e-01     2.36576967e+00      
H    1.16716428e+00      -1.60468459e+00     2.53006950e+00      
H    1.24225341e+00      -1.86968397e-01     3.23912762e+00      
O    -2.71870356e+00     -4.28274017e-01     -4.92050941e-01     
H    -2.88696211e+00     -2.26068100e-01     -1.41660941e+00     
H    -3.54902789e+00     -2.77468807e-01     -3.23968383e-02     
O    -4.32924129e-01     -2.04884902e+00     -5.42138727e+00     
H    -7.09220490e-01     -1.22306839e+00     -5.82360911e+00     
H    -8.77494805e-02     -2.58687302e+00     -6.14117538e+00     
O    1.17408909e+00      -3.42739436e+00     2.24713504e+00      
H    5.49987513e-01      -4.00532553e+00     2.69299902e+00      
H    2.00065414e+00      -3.91673549e+00     2.22620953e+00      
26
3891.481421
N    -1.17228605e-02     -5.47278739e-02     -5.10019875e-02     
H    -1.05142620e+00     -7.21211368e-02     -9.21593567e-02     
H    3.19581514e-01      8.38119501e-01      -4.71822983e-01     
H    3.23972693e-01      -1.50436858e-01     9.31916717e-01      
C    5.29972780e-01      -1.18828130e+00     -8.21484000e-01     
H    1.61608564e+00      -1.15085045e+00     -7.95347686e-01     
H    1.96659281e-01      -2.12009901e+00     -3.72113812e-01     
C    4.24590067e-02      -1.09314675e+00     -2.25163867e+00     
O    -6.57763986e-01     -1.90347738e-01     -2.67187210e+00     
O    4.93022743e-01      -2.12150951e+00     -2.94696236e+00     
H    1.42270566e-01      -2.05850190e+00     -3.88433300e+00     
O    1.00608582e+00      2.05319967e+00      -1.52336225e+00     
H    5.26091859e-01      2.07788653e+00      -2.35647240e+00     
H    1.33131525e+00      2.94465434e+00      -1.37712319e+00     
O    1.06974108e+00      -6.63845018e-01     2.36638693e+00      
H    1.16743771e+00      -1.60658167e+00     2.53076460e+00      
H    1.24017474e+00      -1.93023119e-01     3.22862616e+00      
O    -2.71870460e+00     -4.28275157e-01     -4.92041848e-01     
H    -2.88698221e+00     -2.26041296e-01     -1.41674107e+00     
H    -3.54899237e+00     -2.77477133e-01     -3.24107804e-02     
O    -4.32921920e-01     -2.04885414e+00     -5.42138774e+00     
H    -7.09240128e-01     -1.22301084e+00     -5.82363647e+00     
H    -8.77651553e-02     -2.58684902e+00     -6.14114108e+00     
O    1.17409575e+00      -3.42740926e+00     2.24713865e+00      
H    5.50124159e-01      -4.00522700e+00     2.69291079e+00      
H    2.00040833e+00      -3.91661316e+00     2.22622332e+00      
26
3891.481421
N    -1.17226786e-02     -5.47230989e-02     -5.10036855e-02     
H    -1.05141664e+00     -7.21395353e-02     -9.21621209e-02     
H    3.19572861e-01      8.38077052e-01      -4.71820987e-01     
H    3.23961016e-01      -1.50414280e-01     9.31956287e-01      
C    5.29973447e-01      -1.18828105e+00     -8.21484360e-01     
H    1.61606935e+00      -1.15085541e+00     -7.95344061e-01     
H    1.96662982e-01      -2.12009833e+00     -3.72109290e-01     
C    4.24597351e-02      -1.09314751e+00     -2.25163736e+00     
O    -6.57764267e-01     -1.90347359e-01     -2.67187232e+00     
O    4.93022741e-01      -2.12150954e+00     -2.94696262e+00     
H    1.42270007e-01      -2.05850068e+00     -3.88433133e+00     
O    1.00607933e+00      2.05318878e+00      -1.52336824e+00     
H    5.26126211e-01      2.07787925e+00      -2.35640971e+00     
H    1.33138383e+00      2.94483537e+00      -1.37709048e+00     
O    1.06985571e+00      -6.63344646e-01     2.36700420e+00      
H    1.16771115e+00      -1.60847876e+00     2.53145970e+00      
H    1.23809606e+00      -1.99077841e-01     3.21812470e+00      
O    -2.71870564e+00     -4.28276298e-01     -4.92032756e-01     
H    -2.88700232e+00     -2.26014491e-01     -1.41687273e+00     
H    -3.54895685e+00     -2.77485458e-01     -3.24247225e-02     
O    -4.32919712e-01     -2.04885926e+00     -5.42138820e+00     
H    -7.09259767e-01     -1.22295329e+00     -5.82366382e+00     
H    -8.77808301e-02     -2.58682501e+00     -6.14110678e+00     
O    1.17410241e+00      -3.42742415e+00     2.24714225e+00      
H    5.50260804e-01      -4.00512847e+00     2.69282255e+00      
H    2.00016251e+00      -3.91649082e+00     2.22623711e+00      
26
3891.481421
N    -1.17219510e-02     -5.47039989e-02     -5.10104773e-02     
H    -1.05137840e+00     -7.22131291e-02     -9.21731779e-02     
H    3.19538251e-01      8.37907258e-01      -4.71813005e-01     
H    3.23914310e-01      -1.50323968e-01     9.32114569e-01      
C    5.29976113e-01      -1.18828007e+00     -8.21485800e-01     
H    1.61600421e+00      -1.15087525e+00     -7.95329561e-01     
H    1.96677784e-01      -2.12009559e+00     -3.72091202e-01     
C    4.24626489e-02      -1.09315059e+00     -2.25163216e+00     
O    -6.57765393e-01     -1.90345841e-01     -2.67187324e+00     
O    4.93022735e-01      -2.12150962e+00     -2.94696364e+00     
H    1.42267769e-01      -2.05849582e+00     -3.88432467e+00     
O    1.00605337e+00      2.05314522e+00      -1.52339222e+00     
H    5.26263623e-01      2.07785015e+00      -2.35615897e+00     
H    1.33165815e+00      2.94555949e+00      -1.37695964e+00     
O    1.07031425e+00      -6.61343156e-01     2.36947326e+00      
H    1.16880489e+00      -1.61606710e+00     2.53424010e+00      
H    1.22978136e+00      -2.23296731e-01     3.17611886e+00      
O    -2.71870980e+00     -4.28280858e-01     -4.91996388e-01     
H    -2.88708274e+00     -2.25907273e-01     -1.41739937e+00     
H    -3.54881479e+00     -2.77518762e-01     -3.24804911e-02     
O    -4.32910880e-01     -2.04887972e+00     -5.42139004e+00     
H    -7.09338321e-01     -1.22272309e+00     -5.82377326e+00     
H    -8.78435293e-02     -2.58672899e+00     -6.14096958e+00     
O    1.17412907e+00      -3.42748375e+00     2.24715667e+00      
H    5.50807388e-01      -4.00473437e+00     2.69246959e+00      
H    1.99917927e+00      -3.91600146e+00     2.22629229e+00      
26
3891.481421
N    -1.17217691e-02     -5.46992239e-02     -5.10121753e-02     
H    -1.05136884e+00     -7.22315276e-02     -9.21759421e-02     
H    3.19529598e-01      8.37864809e-01      -4.71811009e-01     
H    3.23902633e-01      -1.50301390e-01     9.32154139e-01      
C    5.29976780e-01      -1.18827982e+00     -8.21486160e-01     
H    1.61598792e+00      -1.15088021e+00     -7.95325936e-01     
H    1.96681485e-01      -2.12009491e+00     -3.72086680e-01     
C    4.24633773e-02      -1.09315135e+00     -2.25163085e+00     
O    -6.57765674e-01     -1.90345462e-01     -2.67187346e+00     
O    4.93022733e-01      -2.12150965e+00     -2.94696390e+00     
H    1.42267210e-01      -2.05849460e+00     -3.88432300e+00     
O    1.00604688e+00      2.05313433e+00      -1.52339821e+00     
H    5.26297975e-01      2.07784287e+00      -2.35609628e+00     
H    1.33172673e+00      2.94574052e+00      -1.37692693e+00     
O    1.07042888e+00      -6.60842784e-01     2.37009053e+00      
H    1.16907833e+00      -1.61796419e+00     2.53493520e+00      
H    1.22770268e+00      -2.29351453e-01     3.16561740e+00      
O    -2.71871084e+00     -4.28281999e-01     -4.91987296e-01     
H    -2.88710285e+00     -2.25880468e-01     -1.41753103e+00     
H    -3.54877927e+00     -2.77527087e-01     -3.24944332e-02     
O    -4.32908672e-01     -2.04888484e+00     -5.42139050e+00     
H    -7.09357960e-01     -1.22266554e+00     -5.82380061e+00     
H    -8.78592041e-02     -2.58670498e+00     -6.14093528e+00     
O    1.17413573e+00      -3.42749864e+00     2.24716027e+00      
H    5.50944033e-01      -4.00463584e+00     2.69238135e+00      
H    1.99893345e+00      -3.91587912e+00     2.22630608e+00      
26
3891.481421
N    -1.17215872e-02     -5.46944489e-02     -5.10138732e-02     
H    -1.05135927e+00     -7.22499261e-02     -9.21787064e-02     
H    3.19520945e-01      8.37822361e-01      -4.71809014e-01     
H    3.23890956e-01      -1.50278813e-01     9.32193710e-01      
C    5.29977447e-01      -1.18827957e+00     -8.21486520e-01     
H    1.61597164e+00      -1.15088517e+00     -7.95322310e-01     
H    1.96685186e-01      -2.12009423e+00     -3.72082157e-01     
C    4.24641057e-02      -1.09315212e+00     -2.25162955e+00     
O    -6.57765955e-01     -1.90345083e-01     -2.67187369e+00     
O    4.93022732e-01      -2.12150967e+00     -2.94696416e+00     
H    1.42266650e-01      -2.05849339e+00     -3.88432133e+00     
O    1.00604040e+00      2.05312343e+00      -1.52340420e+00     
H    5.26332328e-01      2.07783559e+00      -2.35603359e+00     
H    1.33179531e+00      2.94592155e+00      -1.37689422e+00     
O    1.07054351e+00      -6.60342411e-01     2.37070779e+00      
H    1.16935176e+00      -1.61986127e+00     2.53563030e+00      
H    1.22562401e+00      -2.35406175e-01     3.15511594e+00      
O    -2.71871188e+00     -4.28283139e-01     -4.91978203e-01     
H    -2.88712295e+00     -2.25853664e-01     -1.41766269e+00     
H    -3.54874375e+00     -2.77535413e-01     -3.25083753e-02     
O    -4.32906463e-01     -2.04888996e+00     -5.42139097e+00     
H    -7.09377598e-01     -1.22260799e+00     -5.82382797e+00     
H    -8.78748789e-02     -2.58668098e+00     -6.14090098e+00     
O    1.17414239e+00      -3.42751354e+00     2.24716388e+00      
H    5.51080679e-01      -4.00453731e+00     2.69229312e+00      
H    1.99868764e+00      -3.91575679e+00     2.22631987e+00      
26
3891.481421
N    -1.17212234e-02     -5.46848989e-02     -5.10172691e-02     
H    -1.05134015e+00     -7.22867230e-02     -9.21842349e-02     
H    3.19503640e-01      8.37737463e-01      -4.71805022e-01     
H    3.23867603e-01      -1.50233657e-01     9.32272851e-01      
C    5.29978780e-01      -1.18827908e+00     -8.21487240e-01     
H    1.61593906e+00      -1.15089509e+00     -7.95315060e-01     
H    1.96692587e-01      -2.12009286e+00     -3.72073113e-01     
C    4.24655626e-02      -1.09315366e+00     -2.25162695e+00     
O    -6.57766518e-01     -1.90344324e-01     -2.67187415e+00     
O    4.93022729e-01      -2.12150971e+00     -2.94696467e+00     
H    1.42265532e-01      -2.05849096e+00     -3.88431800e+00     
O    1.00602742e+00      2.05310165e+00      -1.52341619e+00     
H    5.26401034e-01      2.07782104e+00      -2.35590822e+00     
H    1.33193247e+00      2.94628361e+00      -1.37682880e+00     
O    1.07077278e+00      -6.59341667e-01     2.37194232e+00      
H    1.16989863e+00      -1.62365545e+00     2.53702050e+00      
H    1.22146666e+00      -2.47515620e-01     3.13411302e+00      
O    -2.71871396e+00     -4.28285419e-01     -4.91960019e-01     
H    -2.88716316e+00     -2.25800055e-01     -1.41792602e+00     
H    -3.54867272e+00     -2.77552065e-01     -3.25362596e-02     
O    -4.32902047e-01     -2.04890019e+00     -5.42139189e+00     
H    -7.09416875e-01     -1.22249289e+00     -5.82388269e+00     
H    -8.79062285e-02     -2.58663297e+00     -6.14083238e+00     
O    1.17415572e+00      -3.42754334e+00     2.24717109e+00      
H    5.51353971e-01      -4.00434026e+00     2.69211664e+00      
H    1.99819602e+00      -3.91551211e+00     2.22634746e+00      
26
3891.481421
N    -1.17208596e-02     -5.46753488e-02     -5.10206650e-02     
H    -1.05132103e+00     -7.23235200e-02     -9.21897634e-02     
H    3.19486335e-01      8.37652566e-01      -4.71801031e-01     
H    3.23844249e-01      -1.50188501e-01     9.32351991e-01      
C    5.29980114e-01      -1.18827858e+00     -8.21487960e-01     
H    1.61590649e+00      -1.15090501e+00     -7.95307810e-01     
H    1.96699989e-01      -2.12009149e+00     -3.72064069e-01     
C    4.24670194e-02      -1.09315519e+00     -2.25162434e+00     
O    -6.57767080e-01     -1.90343566e-01     -2.67187460e+00     
O    4.93022726e-01      -2.12150976e+00     -2.94696518e+00     
H    1.42264413e-01      -2.05848853e+00     -3.88431466e+00     
O    1.00601444e+00      2.05307987e+00      -1.52342818e+00     
H    5.26469739e-01      2.07780649e+00      -2.35578285e+00     
H    1.33206963e+00      2.94664568e+00      -1.37676338e+00     
O    1.07100205e+00      -6.58340922e-01     2.37317685e+00      
H    1.17044550e+00      -1.62744962e+00     2.53841070e+00      
H    1.21730931e+00      -2.59625064e-01     3.11311010e+00      
O    -2.71871604e+00     -4.28287700e-01     -4.91941835e-01     
H    -2.88720337e+00     -2.25746446e-01     -1.41818934e+00     
H    -3.54860169e+00     -2.77568716e-01     -3.25641438e-02     
O    -4.32897631e-01     -2.04891043e+00     -5.42139281e+00     
H    -7.09456152e-01     -1.22237779e+00     -5.82393740e+00     
H    -8.79375780e-02     -2.58658495e+00     -6.14076377e+00     
O    1.17416905e+00      -3.42757313e+00     2.24717830e+00      
H    5.51627262e-01      -4.00414321e+00     2.69194016e+00      
H    1.99770439e+00      -3.91526743e+00     2.22637505e+00      
26
3891.481421
N    -1.17204959e-02     -5.46657988e-02     -5.10240609e-02     
H    -1.05130191e+00     -7.23603169e-02     -9.21952919e-02     
H    3.19469030e-01      8.37567669e-01      -4.71797040e-01     
H    3.23820896e-01      -1.50143346e-01     9.32431132e-01      
C    5.29981447e-01      -1.18827809e+00     -8.21488680e-01     
H    1.61587392e+00      -1.15091493e+00     -7.95300560e-01     
H    1.96707390e-01      -2.12009012e+00     -3.72055025e-01     
C    4.24684763e-02      -1.09315673e+00     -2.25162174e+00     
O    -6.57767643e-01     -1.90342807e-01     -2.67187506e+00     
O    4.93022722e-01      -2.12150980e+00     -2.94696569e+00     
H    1.42263294e-01      -2.05848610e+00     -3.88431133e+00     
O    1.00600146e+00      2.05305809e+00      -1.52344017e+00     
H    5.26538445e-01      2.07779193e+00      -2.35565748e+00     
H    1.33220679e+00      2.94700774e+00      -1.37669796e+00     
O    1.07123131e+00      -6.57340177e-01     2.37441138e+00      
H    1.17099237e+00      -1.63124379e+00     2.53980090e+00      
H    1.21315196e+00      -2.71734509e-01     3.09210717e+00      
O    -2.71871811e+00     -4.28289980e-01     -4.91923650e-01     
H    -2.88724358e+00     -2.25692837e-01     -1.41845266e+00     
H    -3.54853066e+00     -2.77585368e-01     -3.25920281e-02     
O    -4.32893215e-01     -2.04892066e+00     -5.42139373e+00     
H    -7.09495429e-01     -1.22226270e+00     -5.82399212e+00     
H    -8.79689276e-02     -2.58653694e+00     -6.14069517e+00     
O    1.17418237e+00      -3.42760293e+00     2.24718551e+00      
H    5.51900554e-01      -4.00394616e+00     2.69176368e+00      
H    1.99721277e+00      -3.91502275e+00     2.22640264e+00      
26
3891.481421
N    -1.17201321e-02     -5.46562488e-02     -5.10274568e-02     
H    -1.05128278e+00     -7.23971139e-02     -9.22008204e-02     
H    3.19451724e-01      8.37482772e-01      -4.71793049e-01     
H    3.23797543e-01      -1.50098190e-01     9.32510273e-01      
C    5.29982780e-01      -1.18827759e+00     -8.21489400e-01     
H    1.61584135e+00      -1.15092485e+00     -7.95293309e-01     
H    1.96714791e-01      -2.12008876e+00     -3.72045980e-01     
C    4.24699331e-02      -1.09315826e+00     -2.25161914e+00     
O    -6.57768205e-01     -1.90342049e-01     -2.67187551e+00     
O    4.93022719e-01      -2.12150985e+00     -2.94696621e+00     
H    1.42262175e-01      -2.05848367e+00     -3.88430799e+00     
O    1.00598849e+00      2.05303630e+00      -1.52345215e+00     
H    5.26607150e-01      2.07777738e+00      -2.35553210e+00     
H    1.33234395e+00      2.94736980e+00      -1.37663254e+00     
O    1.07146058e+00      -6.56339432e-01     2.37564591e+00      
H    1.17153924e+00      -1.63503796e+00     2.54119110e+00      
H    1.20899460e+00      -2.83843953e-01     3.07110425e+00      
O    -2.71872019e+00     -4.28292260e-01     -4.91905466e-01     
H    -2.88728379e+00     -2.25639227e-01     -1.41871598e+00     
H    -3.54845962e+00     -2.77602020e-01     -3.26199124e-02     
O    -4.32888798e-01     -2.04893090e+00     -5.42139466e+00     
H    -7.09534706e-01     -1.22214760e+00     -5.82404684e+00     
H    -8.80002772e-02     -2.58648893e+00     -6.14062657e+00     
O    1.17419570e+00      -3.42763272e+00     2.24719272e+00      
H    5.52173845e-01      -4.00374910e+00     2.69158721e+00      
H    1.99672114e+00      -3.91477808e+00     2.22643022e+00      
26
3891.481421
N    -1.17194045e-02     -5.46371488e-02     -5.10342486e-02     
H    -1.05124454e+00     -7.24707078e-02     -9.22118773e-02     
H    3.19417114e-01      8.37312977e-01      -4.71785067e-01     
H    3.23750836e-01      -1.50007879e-01     9.32668555e-01      
C    5.29985447e-01      -1.18827660e+00     -8.21490839e-01     
H    1.61577620e+00      -1.15094470e+00     -7.95278809e-01     
H    1.96729594e-01      -2.12008602e+00     -3.72027892e-01     
C    4.24728468e-02      -1.09316133e+00     -2.25161393e+00     
O    -6.57769330e-01     -1.90340532e-01     -2.67187642e+00     
O    4.93022713e-01      -2.12150994e+00     -2.94696723e+00     
H    1.42259937e-01      -2.05847880e+00     -3.88430132e+00     
O    1.00596253e+00      2.05299274e+00      -1.52347613e+00     
H    5.26744561e-01      2.07774827e+00      -2.35528136e+00     
H    1.33261828e+00      2.94809392e+00      -1.37650170e+00     
O    1.07191911e+00      -6.54337943e-01     2.37811497e+00      
H    1.17263299e+00      -1.64262631e+00     2.54397150e+00      
H    1.20067990e+00      -3.08062842e-01     3.02909841e+00      
O    -2.71872435e+00     -4.28296821e-01     -4.91869097e-01     
H    -2.88736422e+00     -2.25532009e-01     -1.41924263e+00     
H    -3.54831756e+00     -2.77635323e-01     -3.26756809e-02     
O    -4.32879966e-01     -2.04895137e+00     -5.42139650e+00     
H    -7.09613260e-01     -1.22191740e+00     -5.82415627e+00     
H    -8.80629764e-02     -2.58639291e+00     -6.14048937e+00     
O    1.17422235e+00      -3.42769231e+00     2.24720714e+00      
H    5.52720429e-01      -4.00335500e+00     2.69123425e+00      
H    1.99573790e+00      -3.91428872e+00     2.22648540e+00      
