26
3907.101050
N    -1.16443539e-02     -5.46982104e-02     -5.10251491e-02     
H    -1.05190066e+00     -7.22689910e-02     -9.20523760e-02     
H    3.19366598e-01      8.37869704e-01      -4.71736629e-01     
H    3.23653992e-01      -1.50401447e-01     9.32096527e-01      
C    5.29968474e-01      -1.18827976e+00     -8.21486689e-01     
H    1.61601558e+00      -1.15079813e+00     -7.95325622e-01     
H    1.96576316e-01      -2.12014231e+00     -3.72060961e-01     
C    4.24568112e-02      -1.09314526e+00     -2.25163571e+00     
O    -6.57762875e-01     -1.90347844e-01     -2.67187221e+00     
O    4.93025718e-01      -2.12151148e+00     -2.94696142e+00     
H    1.42237212e-01      -2.05850177e+00     -3.88437838e+00     
O    1.00608957e+00      2.05318721e+00      -1.52335144e+00     
H    5.25952285e-01      2.07787452e+00      -2.35669478e+00     
H    1.33139570e+00      2.94486700e+00      -1.37707333e+00     
O    1.07007886e+00      -6.62384462e-01     2.36819321e+00      
H    1.16845696e+00      -1.61205797e+00     2.53271779e+00      
H    1.23407799e+00      -2.10744028e-01     3.19789777e+00      
O    -2.71862841e+00     -4.28262714e-01     -4.92231447e-01     
H    -2.88659576e+00     -2.26510031e-01     -1.41460737e+00     
H    -3.55057317e+00     -2.77209553e-01     -3.15272331e-02     
O    -4.32898744e-01     -2.04890609e+00     -5.42139149e+00     
H    -7.09444172e-01     -1.22242422e+00     -5.82391653e+00     
H    -8.79298341e-02     -2.58660697e+00     -6.14080234e+00     
O    1.18752009e+00      -3.42662028e+00     2.24282855e+00      
H    4.58691390e-01      -4.09003962e+00     2.75803951e+00      
H    1.87860568e+00      -3.84437059e+00     2.22950359e+00      
26
3907.101050
N    -1.16638441e-02     -5.47020450e-02     -5.10206321e-02     
H    -1.05177487e+00     -7.22458263e-02     -9.20811943e-02     
H    3.19413838e-01      8.37900317e-01      -4.71756721e-01     
H    3.23724910e-01      -1.50393366e-01     9.32081252e-01      
C    5.29970051e-01      -1.18827996e+00     -8.21486287e-01     
H    1.61602088e+00      -1.15081493e+00     -7.95328419e-01     
H    1.96599833e-01      -2.12013097e+00     -3.72070782e-01     
C    4.24579064e-02      -1.09314621e+00     -2.25163547e+00     
O    -6.57763364e-01     -1.90347533e-01     -2.67187235e+00     
O    4.93024973e-01      -2.12151101e+00     -2.94696185e+00     
H    1.42245131e-01      -2.05850089e+00     -3.88436578e+00     
O    1.00608376e+00      2.05318216e+00      -1.52335864e+00     
H    5.26012943e-01      2.07787207e+00      -2.35659217e+00     
H    1.33142702e+00      2.94494961e+00      -1.37706126e+00     
O    1.07008039e+00      -6.62374322e-01     2.36820459e+00      
H    1.16840723e+00      -1.61211171e+00     2.53275082e+00      
H    1.23404317e+00      -2.10854842e-01     3.19770377e+00      
O    -2.71864824e+00     -4.28266680e-01     -4.92177228e-01     
H    -2.88670745e+00     -2.26372744e-01     -1.41523954e+00     
H    -3.55015134e+00     -2.77282692e-01     -3.17585765e-02     
O    -4.32902882e-01     -2.04889694e+00     -5.42139090e+00     
H    -7.09407890e-01     -1.22252771e+00     -5.82386704e+00     
H    -8.79004205e-02     -2.58664948e+00     -6.14086130e+00     
O    1.18416900e+00      -3.42682870e+00     2.24390878e+00      
H    4.81652067e-01      -4.06876257e+00     2.74169115e+00      
H    1.90887198e+00      -3.86233948e+00     2.22869386e+00      
26
3907.101050
N    -1.16735892e-02     -5.47039623e-02     -5.10183737e-02     
H    -1.05171198e+00     -7.22342440e-02     -9.20956035e-02     
H    3.19437457e-01      8.37915623e-01      -4.71766767e-01     
H    3.23760369e-01      -1.50389326e-01     9.32073615e-01      
C    5.29970839e-01      -1.18828006e+00     -8.21486086e-01     
H    1.61602353e+00      -1.15082333e+00     -7.95329818e-01     
H    1.96611591e-01      -2.12012530e+00     -3.72075693e-01     
C    4.24584540e-02      -1.09314668e+00     -2.25163535e+00     
O    -6.57763608e-01     -1.90347378e-01     -2.67187242e+00     
O    4.93024600e-01      -2.12151077e+00     -2.94696206e+00     
H    1.42249090e-01      -2.05850045e+00     -3.88435949e+00     
O    1.00608086e+00      2.05317963e+00      -1.52336223e+00     
H    5.26043272e-01      2.07787084e+00      -2.35654086e+00     
H    1.33144268e+00      2.94499091e+00      -1.37705523e+00     
O    1.07008115e+00      -6.62369252e-01     2.36821028e+00      
H    1.16838236e+00      -1.61213858e+00     2.53276733e+00      
H    1.23402576e+00      -2.10910250e-01     3.19760677e+00      
O    -2.71865815e+00     -4.28268663e-01     -4.92150119e-01     
H    -2.88676330e+00     -2.26304100e-01     -1.41555562e+00     
H    -3.54994042e+00     -2.77319262e-01     -3.18742482e-02     
O    -4.32904951e-01     -2.04889236e+00     -5.42139060e+00     
H    -7.09389749e-01     -1.22257946e+00     -5.82384229e+00     
H    -8.78857137e-02     -2.58667073e+00     -6.14089078e+00     
O    1.18249346e+00      -3.42693291e+00     2.24444889e+00      
H    4.93132405e-01      -4.05812405e+00     2.73351697e+00      
H    1.92400513e+00      -3.87132392e+00     2.22828900e+00      
26
3907.101050
N    -1.16833343e-02     -5.47058796e-02     -5.10161152e-02     
H    -1.05164909e+00     -7.22226616e-02     -9.21100127e-02     
H    3.19461077e-01      8.37930929e-01      -4.71776813e-01     
H    3.23795828e-01      -1.50385286e-01     9.32065977e-01      
C    5.29971627e-01      -1.18828016e+00     -8.21485885e-01     
H    1.61602618e+00      -1.15083173e+00     -7.95331216e-01     
H    1.96623349e-01      -2.12011964e+00     -3.72080604e-01     
C    4.24590016e-02      -1.09314715e+00     -2.25163524e+00     
O    -6.57763852e-01     -1.90347222e-01     -2.67187249e+00     
O    4.93024228e-01      -2.12151053e+00     -2.94696227e+00     
H    1.42253050e-01      -2.05850001e+00     -3.88435319e+00     
O    1.00607796e+00      2.05317711e+00      -1.52336583e+00     
H    5.26073601e-01      2.07786961e+00      -2.35648956e+00     
H    1.33145834e+00      2.94503222e+00      -1.37704919e+00     
O    1.07008192e+00      -6.62364182e-01     2.36821597e+00      
H    1.16835749e+00      -1.61216545e+00     2.53278385e+00      
H    1.23400835e+00      -2.10965657e-01     3.19750978e+00      
O    -2.71866807e+00     -4.28270646e-01     -4.92123010e-01     
H    -2.88681915e+00     -2.26235456e-01     -1.41587171e+00     
H    -3.54972950e+00     -2.77355831e-01     -3.19899199e-02     
O    -4.32907020e-01     -2.04888779e+00     -5.42139031e+00     
H    -7.09371608e-01     -1.22263120e+00     -5.82381754e+00     
H    -8.78710069e-02     -2.58669198e+00     -6.14092026e+00     
O    1.18081791e+00      -3.42703712e+00     2.24498901e+00      
H    5.04612743e-01      -4.04748552e+00     2.72534279e+00      
H    1.93913828e+00      -3.88030837e+00     2.22788414e+00      
26
3907.101050
N    -1.16930794e-02     -5.47077970e-02     -5.10138568e-02     
H    -1.05158620e+00     -7.22110793e-02     -9.21244219e-02     
H    3.19484697e-01      8.37946236e-01      -4.71786858e-01     
H    3.23831286e-01      -1.50381245e-01     9.32058340e-01      
C    5.29972415e-01      -1.18828026e+00     -8.21485684e-01     
H    1.61602883e+00      -1.15084013e+00     -7.95332615e-01     
H    1.96635108e-01      -2.12011397e+00     -3.72085514e-01     
C    4.24595492e-02      -1.09314763e+00     -2.25163512e+00     
O    -6.57764097e-01     -1.90347067e-01     -2.67187256e+00     
O    4.93023855e-01      -2.12151029e+00     -2.94696249e+00     
H    1.42257009e-01      -2.05849957e+00     -3.88434689e+00     
O    1.00607506e+00      2.05317458e+00      -1.52336943e+00     
H    5.26103930e-01      2.07786838e+00      -2.35643825e+00     
H    1.33147401e+00      2.94507352e+00      -1.37704316e+00     
O    1.07008268e+00      -6.62359112e-01     2.36822166e+00      
H    1.16833262e+00      -1.61219232e+00     2.53280036e+00      
H    1.23399094e+00      -2.11021064e-01     3.19741278e+00      
O    -2.71867798e+00     -4.28272629e-01     -4.92095900e-01     
H    -2.88687499e+00     -2.26166813e-01     -1.41618779e+00     
H    -3.54951858e+00     -2.77392401e-01     -3.21055917e-02     
O    -4.32909089e-01     -2.04888321e+00     -5.42139001e+00     
H    -7.09353467e-01     -1.22268295e+00     -5.82379279e+00     
H    -8.78563001e-02     -2.58671324e+00     -6.14094974e+00     
O    1.17914237e+00      -3.42714132e+00     2.24552912e+00      
H    5.16093081e-01      -4.03684700e+00     2.71716861e+00      
H    1.95427143e+00      -3.88929281e+00     2.22747928e+00      
26
3907.101050
N    -1.17028246e-02     -5.47097143e-02     -5.10115983e-02     
H    -1.05152330e+00     -7.21994969e-02     -9.21388310e-02     
H    3.19508317e-01      8.37961542e-01      -4.71796904e-01     
H    3.23866745e-01      -1.50377205e-01     9.32050703e-01      
C    5.29973204e-01      -1.18828036e+00     -8.21485482e-01     
H    1.61603148e+00      -1.15084853e+00     -7.95334014e-01     
H    1.96646866e-01      -2.12010830e+00     -3.72090425e-01     
C    4.24600968e-02      -1.09314810e+00     -2.25163500e+00     
O    -6.57764341e-01     -1.90346911e-01     -2.67187264e+00     
O    4.93023483e-01      -2.12151006e+00     -2.94696270e+00     
H    1.42260969e-01      -2.05849913e+00     -3.88434059e+00     
O    1.00607215e+00      2.05317205e+00      -1.52337303e+00     
H    5.26134259e-01      2.07786716e+00      -2.35638695e+00     
H    1.33148967e+00      2.94511482e+00      -1.37703713e+00     
O    1.07008345e+00      -6.62354041e-01     2.36822735e+00      
H    1.16830776e+00      -1.61221919e+00     2.53281687e+00      
H    1.23397353e+00      -2.11076471e-01     3.19731578e+00      
O    -2.71868789e+00     -4.28274612e-01     -4.92068791e-01     
H    -2.88693084e+00     -2.26098169e-01     -1.41650388e+00     
H    -3.54930766e+00     -2.77428971e-01     -3.22212634e-02     
O    -4.32911158e-01     -2.04887864e+00     -5.42138971e+00     
H    -7.09335326e-01     -1.22273470e+00     -5.82376804e+00     
H    -8.78415933e-02     -2.58673449e+00     -6.14097922e+00     
O    1.17746683e+00      -3.42724553e+00     2.24606923e+00      
H    5.27573420e-01      -4.02620847e+00     2.70899443e+00      
H    1.96940459e+00      -3.89827725e+00     2.22707442e+00      
26
3907.101050
N    -1.17076971e-02     -5.47106729e-02     -5.10104691e-02     
H    -1.05149186e+00     -7.21937057e-02     -9.21460356e-02     
H    3.19520126e-01      8.37969195e-01      -4.71801927e-01     
H    3.23884475e-01      -1.50375185e-01     9.32046884e-01      
C    5.29973598e-01      -1.18828041e+00     -8.21485382e-01     
H    1.61603281e+00      -1.15085273e+00     -7.95334713e-01     
H    1.96652745e-01      -2.12010546e+00     -3.72092880e-01     
C    4.24603706e-02      -1.09314834e+00     -2.25163494e+00     
O    -6.57764463e-01     -1.90346833e-01     -2.67187267e+00     
O    4.93023297e-01      -2.12150994e+00     -2.94696281e+00     
H    1.42262949e-01      -2.05849891e+00     -3.88433745e+00     
O    1.00607070e+00      2.05317079e+00      -1.52337483e+00     
H    5.26149423e-01      2.07786654e+00      -2.35636130e+00     
H    1.33149750e+00      2.94513547e+00      -1.37703411e+00     
O    1.07008383e+00      -6.62351506e-01     2.36823020e+00      
H    1.16829532e+00      -1.61223262e+00     2.53282513e+00      
H    1.23396483e+00      -2.11104175e-01     3.19726728e+00      
O    -2.71869285e+00     -4.28275603e-01     -4.92055236e-01     
H    -2.88695876e+00     -2.26063847e-01     -1.41666192e+00     
H    -3.54920220e+00     -2.77447256e-01     -3.22790992e-02     
O    -4.32912192e-01     -2.04887635e+00     -5.42138956e+00     
H    -7.09326256e-01     -1.22276057e+00     -5.82375566e+00     
H    -8.78342399e-02     -2.58674512e+00     -6.14099396e+00     
O    1.17662905e+00      -3.42729764e+00     2.24633929e+00      
H    5.33313589e-01      -4.02088921e+00     2.70490734e+00      
H    1.97697116e+00      -3.90276947e+00     2.22687199e+00      
26
3907.101050
N    -1.17125697e-02     -5.47116316e-02     -5.10093399e-02     
H    -1.05146041e+00     -7.21879146e-02     -9.21532402e-02     
H    3.19531936e-01      8.37976849e-01      -4.71806950e-01     
H    3.23902204e-01      -1.50373164e-01     9.32043065e-01      
C    5.29973992e-01      -1.18828046e+00     -8.21485281e-01     
H    1.61603413e+00      -1.15085693e+00     -7.95335412e-01     
H    1.96658625e-01      -2.12010263e+00     -3.72095335e-01     
C    4.24606444e-02      -1.09314858e+00     -2.25163488e+00     
O    -6.57764586e-01     -1.90346756e-01     -2.67187271e+00     
O    4.93023110e-01      -2.12150982e+00     -2.94696292e+00     
H    1.42264928e-01      -2.05849869e+00     -3.88433430e+00     
O    1.00606925e+00      2.05316953e+00      -1.52337663e+00     
H    5.26164588e-01      2.07786593e+00      -2.35633564e+00     
H    1.33150533e+00      2.94515613e+00      -1.37703109e+00     
O    1.07008421e+00      -6.62348971e-01     2.36823304e+00      
H    1.16828289e+00      -1.61224606e+00     2.53283339e+00      
H    1.23395612e+00      -2.11131879e-01     3.19721878e+00      
O    -2.71869781e+00     -4.28276595e-01     -4.92041681e-01     
H    -2.88698668e+00     -2.26029526e-01     -1.41681996e+00     
H    -3.54909674e+00     -2.77465540e-01     -3.23369351e-02     
O    -4.32913227e-01     -2.04887406e+00     -5.42138942e+00     
H    -7.09317185e-01     -1.22278644e+00     -5.82374329e+00     
H    -8.78268865e-02     -2.58675575e+00     -6.14100870e+00     
O    1.17579128e+00      -3.42734974e+00     2.24660935e+00      
H    5.39053758e-01      -4.01556995e+00     2.70082025e+00      
H    1.98453774e+00      -3.90726170e+00     2.22666956e+00      
26
3907.101050
N    -1.17320599e-02     -5.47154662e-02     -5.10048229e-02     
H    -1.05133463e+00     -7.21647498e-02     -9.21820586e-02     
H    3.19579176e-01      8.38007461e-01      -4.71827042e-01     
H    3.23973122e-01      -1.50365084e-01     9.32027791e-01      
C    5.29975568e-01      -1.18828066e+00     -8.21484879e-01     
H    1.61603943e+00      -1.15087373e+00     -7.95338210e-01     
H    1.96682141e-01      -2.12009129e+00     -3.72105157e-01     
C    4.24617396e-02      -1.09314952e+00     -2.25163464e+00     
O    -6.57765074e-01     -1.90346444e-01     -2.67187285e+00     
O    4.93022366e-01      -2.12150934e+00     -2.94696334e+00     
H    1.42272848e-01      -2.05849781e+00     -3.88432170e+00     
O    1.00606345e+00      2.05316447e+00      -1.52338383e+00     
H    5.26225246e-01      2.07786347e+00      -2.35623304e+00     
H    1.33153665e+00      2.94523873e+00      -1.37701903e+00     
O    1.07008575e+00      -6.62338831e-01     2.36824442e+00      
H    1.16823315e+00      -1.61229980e+00     2.53286641e+00      
H    1.23392130e+00      -2.11242693e-01     3.19702478e+00      
O    -2.71871763e+00     -4.28280561e-01     -4.91987463e-01     
H    -2.88709838e+00     -2.25892238e-01     -1.41745214e+00     
H    -3.54867490e+00     -2.77538680e-01     -3.25682785e-02     
O    -4.32917365e-01     -2.04886492e+00     -5.42138882e+00     
H    -7.09280903e-01     -1.22288994e+00     -5.82369379e+00     
H    -8.77974729e-02     -2.58679825e+00     -6.14106766e+00     
O    1.17244020e+00      -3.42755816e+00     2.24768957e+00      
H    5.62014434e-01      -3.99429289e+00     2.68447189e+00      
H    2.01480404e+00      -3.92523058e+00     2.22585984e+00      
26
3907.101050
N    -1.17369325e-02     -5.47164249e-02     -5.10036937e-02     
H    -1.05130318e+00     -7.21589587e-02     -9.21892632e-02     
H    3.19590986e-01      8.38015115e-01      -4.71832065e-01     
H    3.23990851e-01      -1.50363063e-01     9.32023972e-01      
C    5.29975962e-01      -1.18828071e+00     -8.21484778e-01     
H    1.61604075e+00      -1.15087793e+00     -7.95338909e-01     
H    1.96688021e-01      -2.12008846e+00     -3.72107612e-01     
C    4.24620134e-02      -1.09314976e+00     -2.25163458e+00     
O    -6.57765197e-01     -1.90346367e-01     -2.67187289e+00     
O    4.93022179e-01      -2.12150922e+00     -2.94696345e+00     
H    1.42274827e-01      -2.05849759e+00     -3.88431855e+00     
O    1.00606200e+00      2.05316321e+00      -1.52338563e+00     
H    5.26240411e-01      2.07786286e+00      -2.35620738e+00     
H    1.33154448e+00      2.94525939e+00      -1.37701601e+00     
O    1.07008613e+00      -6.62336296e-01     2.36824726e+00      
H    1.16822072e+00      -1.61231324e+00     2.53287467e+00      
H    1.23391259e+00      -2.11270397e-01     3.19697628e+00      
O    -2.71872259e+00     -4.28281553e-01     -4.91973908e-01     
H    -2.88712630e+00     -2.25857917e-01     -1.41761018e+00     
H    -3.54856944e+00     -2.77556964e-01     -3.26261144e-02     
O    -4.32918400e-01     -2.04886263e+00     -5.42138868e+00     
H    -7.09271832e-01     -1.22291581e+00     -5.82368142e+00     
H    -8.77901195e-02     -2.58680888e+00     -6.14108240e+00     
O    1.17160243e+00      -3.42761026e+00     2.24795963e+00      
H    5.67754603e-01      -3.98897363e+00     2.68038480e+00      
H    2.02237062e+00      -3.92972281e+00     2.22565741e+00      
26
3907.101050
N    -1.17418050e-02     -5.47173835e-02     -5.10025645e-02     
H    -1.05127174e+00     -7.21531675e-02     -9.21964678e-02     
H    3.19602795e-01      8.38022768e-01      -4.71837088e-01     
H    3.24008581e-01      -1.50361043e-01     9.32020153e-01      
C    5.29976356e-01      -1.18828076e+00     -8.21484678e-01     
H    1.61604208e+00      -1.15088213e+00     -7.95339608e-01     
H    1.96693900e-01      -2.12008562e+00     -3.72110067e-01     
C    4.24622872e-02      -1.09315000e+00     -2.25163452e+00     
O    -6.57765319e-01     -1.90346289e-01     -2.67187292e+00     
O    4.93021993e-01      -2.12150910e+00     -2.94696356e+00     
H    1.42276807e-01      -2.05849737e+00     -3.88431541e+00     
O    1.00606055e+00      2.05316195e+00      -1.52338743e+00     
H    5.26255575e-01      2.07786224e+00      -2.35618173e+00     
H    1.33155231e+00      2.94528004e+00      -1.37701299e+00     
O    1.07008651e+00      -6.62333761e-01     2.36825011e+00      
H    1.16820828e+00      -1.61232667e+00     2.53288293e+00      
H    1.23390389e+00      -2.11298101e-01     3.19692778e+00      
O    -2.71872755e+00     -4.28282544e-01     -4.91960353e-01     
H    -2.88715422e+00     -2.25823595e-01     -1.41776822e+00     
H    -3.54846398e+00     -2.77575249e-01     -3.26839502e-02     
O    -4.32919434e-01     -2.04886034e+00     -5.42138853e+00     
H    -7.09262762e-01     -1.22294168e+00     -5.82366904e+00     
H    -8.77827661e-02     -2.58681951e+00     -6.14109714e+00     
O    1.17076465e+00      -3.42766237e+00     2.24822969e+00      
H    5.73494772e-01      -3.98365437e+00     2.67629771e+00      
H    2.02993719e+00      -3.93421503e+00     2.22545498e+00      
26
3907.101050
N    -1.17515502e-02     -5.47193008e-02     -5.10003060e-02     
H    -1.05120884e+00     -7.21415851e-02     -9.22108769e-02     
H    3.19626415e-01      8.38038074e-01      -4.71847134e-01     
H    3.24044040e-01      -1.50357003e-01     9.32012516e-01      
C    5.29977145e-01      -1.18828086e+00     -8.21484476e-01     
H    1.61604473e+00      -1.15089053e+00     -7.95341007e-01     
H    1.96705658e-01      -2.12007995e+00     -3.72114978e-01     
C    4.24628348e-02      -1.09315047e+00     -2.25163440e+00     
O    -6.57765563e-01     -1.90346133e-01     -2.67187300e+00     
O    4.93021621e-01      -2.12150887e+00     -2.94696377e+00     
H    1.42280767e-01      -2.05849693e+00     -3.88430911e+00     
O    1.00605764e+00      2.05315942e+00      -1.52339103e+00     
H    5.26285904e-01      2.07786102e+00      -2.35613043e+00     
H    1.33156797e+00      2.94532134e+00      -1.37700696e+00     
O    1.07008728e+00      -6.62328690e-01     2.36825580e+00      
H    1.16818342e+00      -1.61235354e+00     2.53289944e+00      
H    1.23388648e+00      -2.11353508e-01     3.19683078e+00      
O    -2.71873746e+00     -4.28284527e-01     -4.91933244e-01     
H    -2.88721007e+00     -2.25754951e-01     -1.41808431e+00     
H    -3.54825306e+00     -2.77611819e-01     -3.27996219e-02     
O    -4.32921503e-01     -2.04885577e+00     -5.42138823e+00     
H    -7.09244621e-01     -1.22299343e+00     -5.82364429e+00     
H    -8.77680593e-02     -2.58684076e+00     -6.14112662e+00     
O    1.16908911e+00      -3.42776658e+00     2.24876980e+00      
H    5.84975111e-01      -3.97301584e+00     2.66812353e+00      
H    2.04507035e+00      -3.94319947e+00     2.22505012e+00      
26
3907.101050
N    -1.17612953e-02     -5.47212182e-02     -5.09980476e-02     
H    -1.05114595e+00     -7.21300028e-02     -9.22252861e-02     
H    3.19650035e-01      8.38053381e-01      -4.71857179e-01     
H    3.24079498e-01      -1.50352962e-01     9.32004879e-01      
C    5.29977933e-01      -1.18828096e+00     -8.21484275e-01     
H    1.61604738e+00      -1.15089893e+00     -7.95342406e-01     
H    1.96717417e-01      -2.12007428e+00     -3.72119888e-01     
C    4.24633824e-02      -1.09315095e+00     -2.25163428e+00     
O    -6.57765808e-01     -1.90345978e-01     -2.67187307e+00     
O    4.93021248e-01      -2.12150863e+00     -2.94696399e+00     
H    1.42284726e-01      -2.05849649e+00     -3.88430281e+00     
O    1.00605474e+00      2.05315689e+00      -1.52339463e+00     
H    5.26316233e-01      2.07785979e+00      -2.35607912e+00     
H    1.33158364e+00      2.94536264e+00      -1.37700093e+00     
O    1.07008804e+00      -6.62323620e-01     2.36826149e+00      
H    1.16815855e+00      -1.61238041e+00     2.53291595e+00      
H    1.23386907e+00      -2.11408915e-01     3.19673378e+00      
O    -2.71874737e+00     -4.28286510e-01     -4.91906134e-01     
H    -2.88726591e+00     -2.25686308e-01     -1.41840039e+00     
H    -3.54804214e+00     -2.77648389e-01     -3.29152937e-02     
O    -4.32923572e-01     -2.04885119e+00     -5.42138793e+00     
H    -7.09226480e-01     -1.22304518e+00     -5.82361954e+00     
H    -8.77533525e-02     -2.58686202e+00     -6.14115610e+00     
O    1.16741357e+00      -3.42787078e+00     2.24930991e+00      
H    5.96455449e-01      -3.96237732e+00     2.65994935e+00      
H    2.06020350e+00      -3.95218391e+00     2.22464526e+00      
26
3907.101050
N    -1.17710404e-02     -5.47231355e-02     -5.09957891e-02     
H    -1.05108306e+00     -7.21184204e-02     -9.22396953e-02     
H    3.19673655e-01      8.38068687e-01      -4.71867225e-01     
H    3.24114957e-01      -1.50348922e-01     9.31997241e-01      
C    5.29978721e-01      -1.18828106e+00     -8.21484074e-01     
H    1.61605003e+00      -1.15090733e+00     -7.95343804e-01     
H    1.96729175e-01      -2.12006862e+00     -3.72124799e-01     
C    4.24639300e-02      -1.09315142e+00     -2.25163417e+00     
O    -6.57766052e-01     -1.90345822e-01     -2.67187314e+00     
O    4.93020876e-01      -2.12150839e+00     -2.94696420e+00     
H    1.42288686e-01      -2.05849605e+00     -3.88429651e+00     
O    1.00605184e+00      2.05315437e+00      -1.52339823e+00     
H    5.26346562e-01      2.07785856e+00      -2.35602782e+00     
H    1.33159930e+00      2.94540395e+00      -1.37699489e+00     
O    1.07008881e+00      -6.62318550e-01     2.36826718e+00      
H    1.16813368e+00      -1.61240728e+00     2.53293247e+00      
H    1.23385166e+00      -2.11464322e-01     3.19663679e+00      
O    -2.71875729e+00     -4.28288493e-01     -4.91879025e-01     
H    -2.88732176e+00     -2.25617664e-01     -1.41871648e+00     
H    -3.54783122e+00     -2.77684958e-01     -3.30309654e-02     
O    -4.32925641e-01     -2.04884662e+00     -5.42138764e+00     
H    -7.09208339e-01     -1.22309692e+00     -5.82359479e+00     
H    -8.77386457e-02     -2.58688327e+00     -6.14118558e+00     
O    1.16573802e+00      -3.42797499e+00     2.24985003e+00      
H    6.07935787e-01      -3.95173879e+00     2.65177517e+00      
H    2.07533665e+00      -3.96116836e+00     2.22424040e+00      
26
3907.101050
N    -1.17807855e-02     -5.47250528e-02     -5.09935307e-02     
H    -1.05102017e+00     -7.21068381e-02     -9.22541045e-02     
H    3.19697274e-01      8.38083993e-01      -4.71877271e-01     
H    3.24150416e-01      -1.50344882e-01     9.31989604e-01      
C    5.29979509e-01      -1.18828116e+00     -8.21483873e-01     
H    1.61605268e+00      -1.15091573e+00     -7.95345203e-01     
H    1.96740933e-01      -2.12006295e+00     -3.72129710e-01     
C    4.24644776e-02      -1.09315189e+00     -2.25163405e+00     
O    -6.57766296e-01     -1.90345667e-01     -2.67187321e+00     
O    4.93020503e-01      -2.12150815e+00     -2.94696441e+00     
H    1.42292645e-01      -2.05849561e+00     -3.88429022e+00     
O    1.00604894e+00      2.05315184e+00      -1.52340182e+00     
H    5.26376891e-01      2.07785733e+00      -2.35597651e+00     
H    1.33161496e+00      2.94544525e+00      -1.37698886e+00     
O    1.07008957e+00      -6.62313480e-01     2.36827287e+00      
H    1.16810881e+00      -1.61243415e+00     2.53294898e+00      
H    1.23383425e+00      -2.11519730e-01     3.19653979e+00      
O    -2.71876720e+00     -4.28290476e-01     -4.91851916e-01     
H    -2.88737761e+00     -2.25549020e-01     -1.41903256e+00     
H    -3.54762030e+00     -2.77721528e-01     -3.31466371e-02     
O    -4.32927710e-01     -2.04884204e+00     -5.42138734e+00     
H    -7.09190198e-01     -1.22314867e+00     -5.82357004e+00     
H    -8.77239389e-02     -2.58690452e+00     -6.14121506e+00     
O    1.16406248e+00      -3.42807920e+00     2.25039014e+00      
H    6.19416125e-01      -3.94110027e+00     2.64360099e+00      
H    2.09046980e+00      -3.97015280e+00     2.22383554e+00      
26
3907.101050
N    -1.18002757e-02     -5.47288874e-02     -5.09890137e-02     
H    -1.05089438e+00     -7.20836734e-02     -9.22829228e-02     
H    3.19744514e-01      8.38114606e-01      -4.71897363e-01     
H    3.24221334e-01      -1.50336801e-01     9.31974329e-01      
C    5.29981086e-01      -1.18828136e+00     -8.21483471e-01     
H    1.61605798e+00      -1.15093253e+00     -7.95348000e-01     
H    1.96764450e-01      -2.12005161e+00     -3.72139531e-01     
C    4.24655728e-02      -1.09315284e+00     -2.25163381e+00     
O    -6.57766785e-01     -1.90345356e-01     -2.67187335e+00     
O    4.93019758e-01      -2.12150768e+00     -2.94696484e+00     
H    1.42300564e-01      -2.05849473e+00     -3.88427762e+00     
O    1.00604313e+00      2.05314679e+00      -1.52340902e+00     
H    5.26437549e-01      2.07785488e+00      -2.35587390e+00     
H    1.33164628e+00      2.94552786e+00      -1.37697679e+00     
O    1.07009110e+00      -6.62303340e-01     2.36828425e+00      
H    1.16805908e+00      -1.61248789e+00     2.53298201e+00      
H    1.23379943e+00      -2.11630544e-01     3.19634579e+00      
O    -2.71878703e+00     -4.28294442e-01     -4.91797697e-01     
H    -2.88748930e+00     -2.25411733e-01     -1.41966473e+00     
H    -3.54719847e+00     -2.77794667e-01     -3.33779805e-02     
O    -4.32931848e-01     -2.04883289e+00     -5.42138675e+00     
H    -7.09153916e-01     -1.22325216e+00     -5.82352055e+00     
H    -8.76945253e-02     -2.58694703e+00     -6.14127402e+00     
O    1.16071139e+00      -3.42828762e+00     2.25147037e+00      
H    6.42376802e-01      -3.91982322e+00     2.62725263e+00      
H    2.12073610e+00      -3.98812169e+00     2.22302581e+00      
