26
3813.068771
N    -1.16960107e-02     -5.47881500e-02     -5.09497588e-02     
H    -1.05183102e+00     -7.19722558e-02     -9.22772267e-02     
H    3.19677420e-01      8.38512213e-01      -4.72050993e-01     
H    3.23804169e-01      -1.50075765e-01     9.31727527e-01      
C    5.29968036e-01      -1.18823240e+00     -8.21500832e-01     
H    1.61623173e+00      -1.15094495e+00     -7.95344045e-01     
H    1.96563621e-01      -2.12041448e+00     -3.71969560e-01     
C    4.24525712e-02      -1.09314116e+00     -2.25165066e+00     
O    -6.57760944e-01     -1.90352656e-01     -2.67186987e+00     
O    4.93025974e-01      -2.12150864e+00     -2.94694827e+00     
H    1.42221258e-01      -2.05853375e+00     -3.88454921e+00     
O    1.00607430e+00      2.05306341e+00      -1.52331577e+00     
H    5.25384720e-01      2.07782267e+00      -2.35767497e+00     
H    1.33220486e+00      2.94689343e+00      -1.37666180e+00     
O    1.07023792e+00      -6.62837308e-01     2.36874090e+00      
H    1.16704005e+00      -1.60026021e+00     2.53103089e+00      
H    1.23268220e+00      -2.14924538e-01     3.19085027e+00      
O    -2.71886851e+00     -4.28228458e-01     -4.92059672e-01     
H    -2.88679277e+00     -2.26383575e-01     -1.41494298e+00     
H    -3.54653195e+00     -2.77893423e-01     -3.39218564e-02     
O    -4.32916527e-01     -2.04886842e+00     -5.42137978e+00     
H    -7.09327675e-01     -1.22276540e+00     -5.82375425e+00     
H    -8.77610150e-02     -2.58686462e+00     -6.14114317e+00     
O    1.17239513e+00      -3.41842719e+00     2.24357904e+00      
H    4.53098917e-01      -4.08353481e+00     2.75676899e+00      
H    2.12451503e+00      -3.98147678e+00     2.21896409e+00      
26
3813.068771
N    -1.17025867e-02     -5.47694997e-02     -5.09640895e-02     
H    -1.05172265e+00     -7.20232749e-02     -9.22498324e-02     
H    3.19646954e-01      8.38382199e-01      -4.71992493e-01     
H    3.23837542e-01      -1.50149105e-01     9.31804502e-01      
C    5.29969722e-01      -1.18824444e+00     -8.21496894e-01     
H    1.61618299e+00      -1.15092505e+00     -7.95342236e-01     
H    1.96590312e-01      -2.12033510e+00     -3.72002232e-01     
C    4.24547264e-02      -1.09314314e+00     -2.25164668e+00     
O    -6.57761916e-01     -1.90351142e-01     -2.67187060e+00     
O    4.93025165e-01      -2.12150887e+00     -2.94695199e+00     
H    1.42233166e-01      -2.05852488e+00     -3.88449391e+00     
O    1.00607231e+00      2.05308931e+00      -1.52333188e+00     
H    5.25587269e-01      2.07783318e+00      -2.35732732e+00     
H    1.33203389e+00      2.94646943e+00      -1.37675261e+00     
O    1.07019968e+00      -6.62713956e-01     2.36861536e+00      
H    1.16734454e+00      -1.60326339e+00     2.53148564e+00      
H    1.23299633e+00      -2.13990225e-01     3.19241815e+00      
O    -2.71882831e+00     -4.28240988e-01     -4.92048397e-01     
H    -2.88685521e+00     -2.26277902e-01     -1.41549125e+00     
H    -3.54712042e+00     -2.77795595e-01     -3.35545440e-02     
O    -4.32916219e-01     -2.04886869e+00     -5.42138212e+00     
H    -7.09320517e-01     -1.22278359e+00     -5.82374533e+00     
H    -8.77738062e-02     -2.58684271e+00     -6.14111692e+00     
O    1.17282529e+00      -3.42068388e+00     2.24447164e+00      
H    4.77457712e-01      -4.06388396e+00     2.74073826e+00      
H    2.09330399e+00      -3.96516912e+00     2.22078924e+00      
26
3813.068771
N    -1.17058747e-02     -5.47601746e-02     -5.09712548e-02     
H    -1.05166846e+00     -7.20487845e-02     -9.22361352e-02     
H    3.19631721e-01      8.38317192e-01      -4.71963244e-01     
H    3.23854229e-01      -1.50185775e-01     9.31842990e-01      
C    5.29970565e-01      -1.18825046e+00     -8.21494925e-01     
H    1.61615862e+00      -1.15091509e+00     -7.95341332e-01     
H    1.96603657e-01      -2.12029541e+00     -3.72018567e-01     
C    4.24558040e-02      -1.09314412e+00     -2.25164470e+00     
O    -6.57762401e-01     -1.90350385e-01     -2.67187096e+00     
O    4.93024761e-01      -2.12150899e+00     -2.94695384e+00     
H    1.42239120e-01      -2.05852044e+00     -3.88446626e+00     
O    1.00607132e+00      2.05310226e+00      -1.52333994e+00     
H    5.25688544e-01      2.07783843e+00      -2.35715349e+00     
H    1.33194841e+00      2.94625743e+00      -1.37679802e+00     
O    1.07018057e+00      -6.62652281e-01     2.36855259e+00      
H    1.16749679e+00      -1.60476498e+00     2.53171302e+00      
H    1.23315339e+00      -2.13523069e-01     3.19320209e+00      
O    -2.71880822e+00     -4.28247253e-01     -4.92042760e-01     
H    -2.88688643e+00     -2.26225065e-01     -1.41576538e+00     
H    -3.54741465e+00     -2.77746680e-01     -3.33708878e-02     
O    -4.32916065e-01     -2.04886882e+00     -5.42138329e+00     
H    -7.09316938e-01     -1.22279269e+00     -5.82374086e+00     
H    -8.77802018e-02     -2.58683176e+00     -6.14110380e+00     
O    1.17304036e+00      -3.42181222e+00     2.24491795e+00      
H    4.89637109e-01      -4.05405854e+00     2.73272289e+00      
H    2.07769848e+00      -3.95701529e+00     2.22170182e+00      
26
3813.068771
N    -1.17091627e-02     -5.47508494e-02     -5.09784201e-02     
H    -1.05161427e+00     -7.20742940e-02     -9.22224380e-02     
H    3.19616488e-01      8.38252184e-01      -4.71933994e-01     
H    3.23870916e-01      -1.50222445e-01     9.31881478e-01      
C    5.29971408e-01      -1.18825648e+00     -8.21492956e-01     
H    1.61613425e+00      -1.15090514e+00     -7.95340428e-01     
H    1.96617002e-01      -2.12025572e+00     -3.72034903e-01     
C    4.24568816e-02      -1.09314511e+00     -2.25164271e+00     
O    -6.57762887e-01     -1.90349628e-01     -2.67187132e+00     
O    4.93024356e-01      -2.12150911e+00     -2.94695570e+00     
H    1.42245073e-01      -2.05851600e+00     -3.88443861e+00     
O    1.00607032e+00      2.05311521e+00      -1.52334800e+00     
H    5.25789818e-01      2.07784369e+00      -2.35697966e+00     
H    1.33186293e+00      2.94604543e+00      -1.37684343e+00     
O    1.07016145e+00      -6.62590605e-01     2.36848982e+00      
H    1.16764903e+00      -1.60626657e+00     2.53194039e+00      
H    1.23331045e+00      -2.13055912e-01     3.19398603e+00      
O    -2.71878812e+00     -4.28253518e-01     -4.92037122e-01     
H    -2.88691765e+00     -2.26172228e-01     -1.41603951e+00     
H    -3.54770889e+00     -2.77697766e-01     -3.31872316e-02     
O    -4.32915911e-01     -2.04886895e+00     -5.42138445e+00     
H    -7.09313359e-01     -1.22280179e+00     -5.82373640e+00     
H    -8.77865974e-02     -2.58682081e+00     -6.14109067e+00     
O    1.17325544e+00      -3.42294057e+00     2.24536425e+00      
H    5.01816506e-01      -4.04423312e+00     2.72470753e+00      
H    2.06209296e+00      -3.94886146e+00     2.22261439e+00      
26
3813.068771
N    -1.17124508e-02     -5.47415243e-02     -5.09855854e-02     
H    -1.05156008e+00     -7.20998036e-02     -9.22087409e-02     
H    3.19601255e-01      8.38187177e-01      -4.71904745e-01     
H    3.23887603e-01      -1.50259114e-01     9.31919965e-01      
C    5.29972251e-01      -1.18826250e+00     -8.21490987e-01     
H    1.61610989e+00      -1.15089519e+00     -7.95339524e-01     
H    1.96630347e-01      -2.12021603e+00     -3.72051239e-01     
C    4.24579592e-02      -1.09314609e+00     -2.25164072e+00     
O    -6.57763373e-01     -1.90348871e-01     -2.67187169e+00     
O    4.93023952e-01      -2.12150923e+00     -2.94695756e+00     
H    1.42251027e-01      -2.05851156e+00     -3.88441095e+00     
O    1.00606933e+00      2.05312815e+00      -1.52335606e+00     
H    5.25891093e-01      2.07784894e+00      -2.35680583e+00     
H    1.33177744e+00      2.94583343e+00      -1.37688884e+00     
O    1.07014233e+00      -6.62528929e-01     2.36842704e+00      
H    1.16780128e+00      -1.60776816e+00     2.53216777e+00      
H    1.23346752e+00      -2.12588756e-01     3.19476996e+00      
O    -2.71876802e+00     -4.28259783e-01     -4.92031485e-01     
H    -2.88694887e+00     -2.26119392e-01     -1.41631365e+00     
H    -3.54800312e+00     -2.77648852e-01     -3.30035754e-02     
O    -4.32915757e-01     -2.04886909e+00     -5.42138562e+00     
H    -7.09309781e-01     -1.22281089e+00     -5.82373193e+00     
H    -8.77929929e-02     -2.58680986e+00     -6.14107755e+00     
O    1.17347051e+00      -3.42406891e+00     2.24581055e+00      
H    5.13995904e-01      -4.03440769e+00     2.71669216e+00      
H    2.04648744e+00      -3.94070763e+00     2.22352697e+00      
26
3813.068771
N    -1.17157388e-02     -5.47321992e-02     -5.09927508e-02     
H    -1.05150590e+00     -7.21253131e-02     -9.21950437e-02     
H    3.19586022e-01      8.38122170e-01      -4.71875495e-01     
H    3.23904289e-01      -1.50295784e-01     9.31958453e-01      
C    5.29973094e-01      -1.18826852e+00     -8.21489018e-01     
H    1.61608552e+00      -1.15088524e+00     -7.95338619e-01     
H    1.96643693e-01      -2.12017634e+00     -3.72067575e-01     
C    4.24590368e-02      -1.09314708e+00     -2.25163873e+00     
O    -6.57763859e-01     -1.90348114e-01     -2.67187205e+00     
O    4.93023547e-01      -2.12150934e+00     -2.94695942e+00     
H    1.42256981e-01      -2.05850713e+00     -3.88438330e+00     
O    1.00606834e+00      2.05314110e+00      -1.52336411e+00     
H    5.25992368e-01      2.07785419e+00      -2.35663200e+00     
H    1.33169196e+00      2.94562143e+00      -1.37693424e+00     
O    1.07012321e+00      -6.62467253e-01     2.36836427e+00      
H    1.16795353e+00      -1.60926975e+00     2.53239515e+00      
H    1.23362458e+00      -2.12121599e-01     3.19555390e+00      
O    -2.71874792e+00     -4.28266048e-01     -4.92025847e-01     
H    -2.88698009e+00     -2.26066555e-01     -1.41658778e+00     
H    -3.54829735e+00     -2.77599938e-01     -3.28199192e-02     
O    -4.32915604e-01     -2.04886922e+00     -5.42138679e+00     
H    -7.09306202e-01     -1.22281999e+00     -5.82372747e+00     
H    -8.77993885e-02     -2.58679890e+00     -6.14106443e+00     
O    1.17368559e+00      -3.42519726e+00     2.24625685e+00      
H    5.26175301e-01      -4.02458227e+00     2.70867680e+00      
H    2.03088192e+00      -3.93255380e+00     2.22443955e+00      
26
3813.068771
N    -1.17173828e-02     -5.47275366e-02     -5.09963334e-02     
H    -1.05147880e+00     -7.21380679e-02     -9.21881951e-02     
H    3.19578406e-01      8.38089666e-01      -4.71860870e-01     
H    3.23912633e-01      -1.50314119e-01     9.31977697e-01      
C    5.29973516e-01      -1.18827153e+00     -8.21488034e-01     
H    1.61607333e+00      -1.15088026e+00     -7.95338167e-01     
H    1.96650365e-01      -2.12015650e+00     -3.72075742e-01     
C    4.24595756e-02      -1.09314757e+00     -2.25163774e+00     
O    -6.57764101e-01     -1.90347736e-01     -2.67187223e+00     
O    4.93023345e-01      -2.12150940e+00     -2.94696034e+00     
H    1.42259957e-01      -2.05850491e+00     -3.88436948e+00     
O    1.00606784e+00      2.05314758e+00      -1.52336814e+00     
H    5.26043005e-01      2.07785682e+00      -2.35654508e+00     
H    1.33164922e+00      2.94551543e+00      -1.37695695e+00     
O    1.07011366e+00      -6.62436415e-01     2.36833289e+00      
H    1.16802965e+00      -1.61002054e+00     2.53250884e+00      
H    1.23370311e+00      -2.11888021e-01     3.19594587e+00      
O    -2.71873787e+00     -4.28269181e-01     -4.92023028e-01     
H    -2.88699570e+00     -2.26040137e-01     -1.41672485e+00     
H    -3.54844447e+00     -2.77575481e-01     -3.27280911e-02     
O    -4.32915527e-01     -2.04886929e+00     -5.42138737e+00     
H    -7.09304412e-01     -1.22282454e+00     -5.82372524e+00     
H    -8.78025863e-02     -2.58679343e+00     -6.14105787e+00     
O    1.17379313e+00      -3.42576143e+00     2.24648001e+00      
H    5.32265000e-01      -4.01966956e+00     2.70466912e+00      
H    2.02307917e+00      -3.92847688e+00     2.22489583e+00      
26
3813.068771
N    -1.17190268e-02     -5.47228740e-02     -5.09999161e-02     
H    -1.05145171e+00     -7.21508227e-02     -9.21813466e-02     
H    3.19570789e-01      8.38057162e-01      -4.71846246e-01     
H    3.23920976e-01      -1.50332454e-01     9.31996940e-01      
C    5.29973937e-01      -1.18827454e+00     -8.21487049e-01     
H    1.61606115e+00      -1.15087528e+00     -7.95337715e-01     
H    1.96657038e-01      -2.12013665e+00     -3.72083910e-01     
C    4.24601144e-02      -1.09314806e+00     -2.25163675e+00     
O    -6.57764344e-01     -1.90347357e-01     -2.67187242e+00     
O    4.93023143e-01      -2.12150946e+00     -2.94696127e+00     
H    1.42262934e-01      -2.05850269e+00     -3.88435565e+00     
O    1.00606734e+00      2.05315405e+00      -1.52337217e+00     
H    5.26093642e-01      2.07785945e+00      -2.35645817e+00     
H    1.33160647e+00      2.94540943e+00      -1.37697965e+00     
O    1.07010410e+00      -6.62405577e-01     2.36830150e+00      
H    1.16810577e+00      -1.61077134e+00     2.53262252e+00      
H    1.23378165e+00      -2.11654443e-01     3.19633784e+00      
O    -2.71872782e+00     -4.28272313e-01     -4.92020210e-01     
H    -2.88701131e+00     -2.26013719e-01     -1.41686192e+00     
H    -3.54859159e+00     -2.77551024e-01     -3.26362630e-02     
O    -4.32915450e-01     -2.04886936e+00     -5.42138795e+00     
H    -7.09302623e-01     -1.22282909e+00     -5.82372300e+00     
H    -8.78057841e-02     -2.58678795e+00     -6.14105130e+00     
O    1.17390066e+00      -3.42632560e+00     2.24670316e+00      
H    5.38354699e-01      -4.01475684e+00     2.70066143e+00      
H    2.01527641e+00      -3.92439997e+00     2.22535212e+00      
26
3813.068771
N    -1.17256028e-02     -5.47042238e-02     -5.10142467e-02     
H    -1.05134333e+00     -7.22018417e-02     -9.21539522e-02     
H    3.19540323e-01      8.37927148e-01      -4.71787746e-01     
H    3.23954350e-01      -1.50405794e-01     9.32073916e-01      
C    5.29975623e-01      -1.18828658e+00     -8.21483111e-01     
H    1.61601241e+00      -1.15085538e+00     -7.95335907e-01     
H    1.96683728e-01      -2.12005727e+00     -3.72116582e-01     
C    4.24622696e-02      -1.09315004e+00     -2.25163277e+00     
O    -6.57765316e-01     -1.90345843e-01     -2.67187314e+00     
O    4.93022333e-01      -2.12150970e+00     -2.94696499e+00     
H    1.42274842e-01      -2.05849381e+00     -3.88430035e+00     
O    1.00606536e+00      2.05317995e+00      -1.52338829e+00     
H    5.26296192e-01      2.07786995e+00      -2.35611051e+00     
H    1.33143551e+00      2.94498543e+00      -1.37707047e+00     
O    1.07006586e+00      -6.62282225e-01     2.36817596e+00      
H    1.16841027e+00      -1.61377452e+00     2.53307728e+00      
H    1.23409577e+00      -2.10720129e-01     3.19790572e+00      
O    -2.71868762e+00     -4.28284843e-01     -4.92008934e-01     
H    -2.88707375e+00     -2.25908045e-01     -1.41741018e+00     
H    -3.54918005e+00     -2.77453196e-01     -3.22689506e-02     
O    -4.32915142e-01     -2.04886962e+00     -5.42139029e+00     
H    -7.09295465e-01     -1.22284729e+00     -5.82371408e+00     
H    -8.78185753e-02     -2.58676605e+00     -6.14102506e+00     
O    1.17433082e+00      -3.42858230e+00     2.24759576e+00      
H    5.62713493e-01      -3.99510600e+00     2.68463071e+00      
H    1.98406537e+00      -3.90809231e+00     2.22717728e+00      
26
3813.068771
N    -1.17272468e-02     -5.46995612e-02     -5.10178294e-02     
H    -1.05131624e+00     -7.22145965e-02     -9.21471037e-02     
H    3.19532706e-01      8.37894644e-01      -4.71773122e-01     
H    3.23962693e-01      -1.50424129e-01     9.32093159e-01      
C    5.29976044e-01      -1.18828959e+00     -8.21482126e-01     
H    1.61600023e+00      -1.15085040e+00     -7.95335455e-01     
H    1.96690401e-01      -2.12003742e+00     -3.72124750e-01     
C    4.24628084e-02      -1.09315053e+00     -2.25163178e+00     
O    -6.57765559e-01     -1.90345464e-01     -2.67187333e+00     
O    4.93022131e-01      -2.12150976e+00     -2.94696592e+00     
H    1.42277819e-01      -2.05849159e+00     -3.88428652e+00     
O    1.00606486e+00      2.05318642e+00      -1.52339232e+00     
H    5.26346829e-01      2.07787258e+00      -2.35602360e+00     
H    1.33139276e+00      2.94487943e+00      -1.37709317e+00     
O    1.07005630e+00      -6.62251387e-01     2.36814457e+00      
H    1.16848639e+00      -1.61452532e+00     2.53319096e+00      
H    1.23417431e+00      -2.10486551e-01     3.19829769e+00      
O    -2.71867757e+00     -4.28287975e-01     -4.92006116e-01     
H    -2.88708936e+00     -2.25881627e-01     -1.41754725e+00     
H    -3.54932717e+00     -2.77428739e-01     -3.21771225e-02     
O    -4.32915065e-01     -2.04886969e+00     -5.42139087e+00     
H    -7.09293676e-01     -1.22285184e+00     -5.82371184e+00     
H    -8.78217731e-02     -2.58676057e+00     -6.14101849e+00     
O    1.17443835e+00      -3.42914647e+00     2.24781891e+00      
H    5.68803192e-01      -3.99019328e+00     2.68062302e+00      
H    1.97626261e+00      -3.90401540e+00     2.22763357e+00      
26
3813.068771
N    -1.17288908e-02     -5.46948986e-02     -5.10214120e-02     
H    -1.05128914e+00     -7.22273513e-02     -9.21402551e-02     
H    3.19525090e-01      8.37862140e-01      -4.71758497e-01     
H    3.23971037e-01      -1.50442464e-01     9.32112403e-01      
C    5.29976466e-01      -1.18829260e+00     -8.21481142e-01     
H    1.61598804e+00      -1.15084542e+00     -7.95335003e-01     
H    1.96697073e-01      -2.12001758e+00     -3.72132917e-01     
C    4.24633472e-02      -1.09315102e+00     -2.25163079e+00     
O    -6.57765801e-01     -1.90345086e-01     -2.67187351e+00     
O    4.93021929e-01      -2.12150982e+00     -2.94696684e+00     
H    1.42280795e-01      -2.05848937e+00     -3.88427270e+00     
O    1.00606436e+00      2.05319290e+00      -1.52339635e+00     
H    5.26397466e-01      2.07787521e+00      -2.35593668e+00     
H    1.33135002e+00      2.94477343e+00      -1.37711588e+00     
O    1.07004675e+00      -6.62220549e-01     2.36811319e+00      
H    1.16856251e+00      -1.61527611e+00     2.53330465e+00      
H    1.23425284e+00      -2.10252973e-01     3.19868966e+00      
O    -2.71866752e+00     -4.28291108e-01     -4.92003297e-01     
H    -2.88710497e+00     -2.25855209e-01     -1.41768432e+00     
H    -3.54947429e+00     -2.77404282e-01     -3.20852944e-02     
O    -4.32914988e-01     -2.04886976e+00     -5.42139145e+00     
H    -7.09291886e-01     -1.22285639e+00     -5.82370961e+00     
H    -8.78249709e-02     -2.58675510e+00     -6.14101193e+00     
O    1.17454589e+00      -3.42971064e+00     2.24804207e+00      
H    5.74892891e-01      -3.98528057e+00     2.67661534e+00      
H    1.96845986e+00      -3.89993848e+00     2.22808985e+00      
26
3813.068771
N    -1.17321788e-02     -5.46855735e-02     -5.10285774e-02     
H    -1.05123496e+00     -7.22528608e-02     -9.21265579e-02     
H    3.19509857e-01      8.37797133e-01      -4.71729247e-01     
H    3.23987723e-01      -1.50479134e-01     9.32150891e-01      
C    5.29977309e-01      -1.18829862e+00     -8.21479173e-01     
H    1.61596367e+00      -1.15083547e+00     -7.95334098e-01     
H    1.96710419e-01      -2.11997789e+00     -3.72149253e-01     
C    4.24644248e-02      -1.09315201e+00     -2.25162880e+00     
O    -6.57766287e-01     -1.90344329e-01     -2.67187387e+00     
O    4.93021524e-01      -2.12150993e+00     -2.94696870e+00     
H    1.42286749e-01      -2.05848494e+00     -3.88424505e+00     
O    1.00606337e+00      2.05320585e+00      -1.52340440e+00     
H    5.26498741e-01      2.07788046e+00      -2.35576285e+00     
H    1.33126454e+00      2.94456143e+00      -1.37716128e+00     
O    1.07002763e+00      -6.62158873e-01     2.36805042e+00      
H    1.16871476e+00      -1.61677770e+00     2.53353203e+00      
H    1.23440990e+00      -2.09785816e-01     3.19947360e+00      
O    -2.71864742e+00     -4.28297373e-01     -4.91997659e-01     
H    -2.88713619e+00     -2.25802372e-01     -1.41795845e+00     
H    -3.54976852e+00     -2.77355368e-01     -3.19016382e-02     
O    -4.32914835e-01     -2.04886989e+00     -5.42139262e+00     
H    -7.09288307e-01     -1.22286549e+00     -5.82370515e+00     
H    -8.78313665e-02     -2.58674414e+00     -6.14099881e+00     
O    1.17476097e+00      -3.43083899e+00     2.24848837e+00      
H    5.87072288e-01      -3.97545515e+00     2.66859998e+00      
H    1.95285434e+00      -3.89178465e+00     2.22900243e+00      
26
3813.068771
N    -1.17354669e-02     -5.46762484e-02     -5.10357427e-02     
H    -1.05118077e+00     -7.22783704e-02     -9.21128608e-02     
H    3.19494624e-01      8.37732126e-01      -4.71699998e-01     
H    3.24004410e-01      -1.50515803e-01     9.32189378e-01      
C    5.29978152e-01      -1.18830464e+00     -8.21477204e-01     
H    1.61593931e+00      -1.15082552e+00     -7.95333194e-01     
H    1.96723764e-01      -2.11993820e+00     -3.72165589e-01     
C    4.24655024e-02      -1.09315299e+00     -2.25162681e+00     
O    -6.57766773e-01     -1.90343572e-01     -2.67187424e+00     
O    4.93021120e-01      -2.12151005e+00     -2.94697056e+00     
H    1.42292703e-01      -2.05848050e+00     -3.88421739e+00     
O    1.00606238e+00      2.05321879e+00      -1.52341246e+00     
H    5.26600016e-01      2.07788571e+00      -2.35558902e+00     
H    1.33117905e+00      2.94434943e+00      -1.37720669e+00     
O    1.07000851e+00      -6.62097197e-01     2.36798764e+00      
H    1.16886701e+00      -1.61827929e+00     2.53375941e+00      
H    1.23456697e+00      -2.09318660e-01     3.20025753e+00      
O    -2.71862732e+00     -4.28303638e-01     -4.91992022e-01     
H    -2.88716741e+00     -2.25749536e-01     -1.41823259e+00     
H    -3.55006275e+00     -2.77306454e-01     -3.17179820e-02     
O    -4.32914681e-01     -2.04887003e+00     -5.42139379e+00     
H    -7.09284729e-01     -1.22287459e+00     -5.82370068e+00     
H    -8.78377620e-02     -2.58673319e+00     -6.14098569e+00     
O    1.17497604e+00      -3.43196733e+00     2.24893467e+00      
H    5.99251686e-01      -3.96562972e+00     2.66058461e+00      
H    1.93724882e+00      -3.88363082e+00     2.22991501e+00      
26
3813.068771
N    -1.17387549e-02     -5.46669232e-02     -5.10429080e-02     
H    -1.05112658e+00     -7.23038799e-02     -9.20991636e-02     
H    3.19479391e-01      8.37667118e-01      -4.71670748e-01     
H    3.24021097e-01      -1.50552473e-01     9.32227866e-01      
C    5.29978995e-01      -1.18831066e+00     -8.21475235e-01     
H    1.61591494e+00      -1.15081557e+00     -7.95332290e-01     
H    1.96737109e-01      -2.11989851e+00     -3.72181925e-01     
C    4.24665800e-02      -1.09315398e+00     -2.25162482e+00     
O    -6.57767259e-01     -1.90342815e-01     -2.67187460e+00     
O    4.93020715e-01      -2.12151017e+00     -2.94697242e+00     
H    1.42298656e-01      -2.05847606e+00     -3.88418974e+00     
O    1.00606138e+00      2.05323174e+00      -1.52342052e+00     
H    5.26701290e-01      2.07789097e+00      -2.35541519e+00     
H    1.33109357e+00      2.94413743e+00      -1.37725210e+00     
O    1.06998939e+00      -6.62035521e-01     2.36792487e+00      
H    1.16901925e+00      -1.61978088e+00     2.53398678e+00      
H    1.23472403e+00      -2.08851503e-01     3.20104147e+00      
O    -2.71860722e+00     -4.28309903e-01     -4.91986384e-01     
H    -2.88719863e+00     -2.25696699e-01     -1.41850672e+00     
H    -3.55035699e+00     -2.77257540e-01     -3.15343258e-02     
O    -4.32914527e-01     -2.04887016e+00     -5.42139495e+00     
H    -7.09281150e-01     -1.22288369e+00     -5.82369622e+00     
H    -8.78441576e-02     -2.58672224e+00     -6.14097256e+00     
O    1.17519112e+00      -3.43309568e+00     2.24938097e+00      
H    6.11431083e-01      -3.95580430e+00     2.65256925e+00      
H    1.92164330e+00      -3.87547699e+00     2.23082758e+00      
26
3813.068771
N    -1.17420429e-02     -5.46575981e-02     -5.10500733e-02     
H    -1.05107239e+00     -7.23293895e-02     -9.20854664e-02     
H    3.19464158e-01      8.37602111e-01      -4.71641499e-01     
H    3.24037784e-01      -1.50589143e-01     9.32266354e-01      
C    5.29979838e-01      -1.18831668e+00     -8.21473266e-01     
H    1.61589057e+00      -1.15080561e+00     -7.95331386e-01     
H    1.96750454e-01      -2.11985882e+00     -3.72198260e-01     
C    4.24676576e-02      -1.09315496e+00     -2.25162284e+00     
O    -6.57767744e-01     -1.90342058e-01     -2.67187496e+00     
O    4.93020311e-01      -2.12151029e+00     -2.94697427e+00     
H    1.42304610e-01      -2.05847162e+00     -3.88416209e+00     
O    1.00606039e+00      2.05324469e+00      -1.52342858e+00     
H    5.26802565e-01      2.07789622e+00      -2.35524136e+00     
H    1.33100809e+00      2.94392543e+00      -1.37729751e+00     
O    1.06997028e+00      -6.61973846e-01     2.36786210e+00      
H    1.16917150e+00      -1.62128247e+00     2.53421416e+00      
H    1.23488109e+00      -2.08384347e-01     3.20182541e+00      
O    -2.71858713e+00     -4.28316168e-01     -4.91980747e-01     
H    -2.88722985e+00     -2.25643862e-01     -1.41878085e+00     
H    -3.55065122e+00     -2.77208625e-01     -3.13506696e-02     
O    -4.32914373e-01     -2.04887029e+00     -5.42139612e+00     
H    -7.09277571e-01     -1.22289279e+00     -5.82369175e+00     
H    -8.78505532e-02     -2.58671129e+00     -6.14095944e+00     
O    1.17540619e+00      -3.43422402e+00     2.24982728e+00      
H    6.23610480e-01      -3.94597888e+00     2.64455388e+00      
H    1.90603779e+00      -3.86732316e+00     2.23174016e+00      
26
3813.068771
N    -1.17486189e-02     -5.46389478e-02     -5.10644040e-02     
H    -1.05096402e+00     -7.23804086e-02     -9.20580721e-02     
H    3.19433692e-01      8.37472097e-01      -4.71582999e-01     
H    3.24071157e-01      -1.50662483e-01     9.32343329e-01      
C    5.29981524e-01      -1.18832872e+00     -8.21469328e-01     
H    1.61584183e+00      -1.15078571e+00     -7.95329577e-01     
H    1.96777145e-01      -2.11977944e+00     -3.72230932e-01     
C    4.24698128e-02      -1.09315694e+00     -2.25161886e+00     
O    -6.57768716e-01     -1.90340544e-01     -2.67187569e+00     
O    4.93019502e-01      -2.12151052e+00     -2.94697799e+00     
H    1.42316518e-01      -2.05846275e+00     -3.88410679e+00     
O    1.00605840e+00      2.05327059e+00      -1.52344469e+00     
H    5.27005114e-01      2.07790673e+00      -2.35489371e+00     
H    1.33083712e+00      2.94350143e+00      -1.37738832e+00     
O    1.06993204e+00      -6.61850494e-01     2.36773656e+00      
H    1.16947599e+00      -1.62428565e+00     2.53466891e+00      
H    1.23519522e+00      -2.07450034e-01     3.20339329e+00      
O    -2.71854693e+00     -4.28328698e-01     -4.91969472e-01     
H    -2.88729229e+00     -2.25538189e-01     -1.41932912e+00     
H    -3.55123969e+00     -2.77110797e-01     -3.09833572e-02     
O    -4.32914065e-01     -2.04887056e+00     -5.42139846e+00     
H    -7.09270413e-01     -1.22291098e+00     -5.82368283e+00     
H    -8.78633444e-02     -2.58668938e+00     -6.14093319e+00     
O    1.17583635e+00      -3.43648071e+00     2.25071988e+00      
H    6.47969275e-01      -3.92632803e+00     2.62852315e+00      
H    1.87482675e+00      -3.85101550e+00     2.23356531e+00      
