26
3805.141366
N    -1.17123803e-02     -5.45592848e-02     -5.11004473e-02     
H    -1.05101205e+00     -7.21470849e-02     -9.21601517e-02     
H    3.18889222e-01      8.34489346e-01      -4.70484626e-01     
H    3.24180314e-01      -1.50263354e-01     9.32480782e-01      
C    5.29940408e-01      -1.18828836e+00     -8.21474682e-01     
H    1.61645782e+00      -1.15090528e+00     -7.95302277e-01     
H    1.96762441e-01      -2.11997777e+00     -3.72177633e-01     
C    4.24502785e-02      -1.09318726e+00     -2.25166184e+00     
O    -6.57761751e-01     -1.90358041e-01     -2.67186288e+00     
O    4.93022492e-01      -2.12149471e+00     -2.94694523e+00     
H    1.42204189e-01      -2.05848235e+00     -3.88447670e+00     
O    1.00656532e+00      2.04474232e+00      -1.51845348e+00     
H    4.62338036e-01      2.07342190e+00      -2.46513280e+00     
H    1.38752835e+00      3.08486520e+00      -1.34687162e+00     
O    1.07007424e+00      -6.62467018e-01     2.36815950e+00      
H    1.16812664e+00      -1.61106758e+00     2.53264431e+00      
H    1.23421817e+00      -2.10434383e-01     3.19853303e+00      
O    -2.71785129e+00     -4.28554120e-01     -4.91689226e-01     
H    -2.88861511e+00     -2.23476172e-01     -1.42991671e+00     
H    -3.56101497e+00     -2.75542595e-01     -2.48399193e-02     
O    -4.32927741e-01     -2.04884590e+00     -5.42136766e+00     
H    -7.09282566e-01     -1.22288473e+00     -5.82363825e+00     
H    -8.76210454e-02     -2.58709988e+00     -6.14143745e+00     
O    1.17413367e+00      -3.42754940e+00     2.24718711e+00      
H    5.51563797e-01      -4.00408947e+00     2.69196919e+00      
H    1.99835496e+00      -3.91555024e+00     2.22634381e+00      
26
3805.141366
N    -1.17148639e-02     -5.45978508e-02     -5.10771059e-02     
H    -1.05110842e+00     -7.21543967e-02     -9.21620261e-02     
H    3.19055806e-01      8.35365048e-01      -4.70817718e-01     
H    3.24119651e-01      -1.50289797e-01     9.32369444e-01      
C    5.29949001e-01      -1.18828641e+00     -8.21477281e-01     
H    1.61635256e+00      -1.15089529e+00     -7.95310911e-01     
H    1.96739427e-01      -2.12000757e+00     -3.72158287e-01     
C    4.24530069e-02      -1.09317771e+00     -2.25165507e+00     
O    -6.57762520e-01     -1.90355181e-01     -2.67186536e+00     
O    4.93022554e-01      -2.12149843e+00     -2.94694971e+00     
H    1.42220364e-01      -2.05848633e+00     -3.88443953e+00     
O    1.00644057e+00      2.04684849e+00      -1.51968517e+00     
H    4.78302256e-01      2.07453260e+00      -2.43792068e+00     
H    1.37352651e+00      3.04994825e+00      -1.35440998e+00     
O    1.07007693e+00      -6.62436238e-01     2.36817931e+00      
H    1.16815949e+00      -1.61136892e+00     2.53269571e+00      
H    1.23414831e+00      -2.10622609e-01     3.19818022e+00      
O    -2.71806540e+00     -4.28485234e-01     -4.91770563e-01     
H    -2.88822197e+00     -2.24097349e-01     -1.42672155e+00     
H    -3.55798269e+00     -2.76032474e-01     -2.67430912e-02     
O    -4.32924630e-01     -2.04885179e+00     -5.42137303e+00     
H    -7.09286686e-01     -1.22287309e+00     -5.82365832e+00     
H    -8.76688290e-02     -2.58701916e+00     -6.14133763e+00     
O    1.17412919e+00      -3.42752554e+00     2.24717770e+00      
H    5.51306372e-01      -4.00429995e+00     2.69213841e+00      
H    1.99868394e+00      -3.91572421e+00     2.22632403e+00      
26
3805.141366
N    -1.17161058e-02     -5.46171338e-02     -5.10654351e-02     
H    -1.05115660e+00     -7.21580526e-02     -9.21629634e-02     
H    3.19139097e-01      8.35802899e-01      -4.70984265e-01     
H    3.24089320e-01      -1.50303018e-01     9.32313774e-01      
C    5.29953298e-01      -1.18828543e+00     -8.21478581e-01     
H    1.61629993e+00      -1.15089030e+00     -7.95315227e-01     
H    1.96727919e-01      -2.12002247e+00     -3.72148613e-01     
C    4.24543711e-02      -1.09317293e+00     -2.25165168e+00     
O    -6.57762905e-01     -1.90353751e-01     -2.67186659e+00     
O    4.93022585e-01      -2.12150029e+00     -2.94695195e+00     
H    1.42228451e-01      -2.05848831e+00     -3.88442094e+00     
O    1.00637820e+00      2.04790158e+00      -1.52030101e+00     
H    4.86284366e-01      2.07508795e+00      -2.42431463e+00     
H    1.36652559e+00      3.03248978e+00      -1.35817916e+00     
O    1.07007827e+00      -6.62420849e-01     2.36818921e+00      
H    1.16817591e+00      -1.61151959e+00     2.53272141e+00      
H    1.23411337e+00      -2.10716722e-01     3.19800381e+00      
O    -2.71817245e+00     -4.28450792e-01     -4.91811231e-01     
H    -2.88802539e+00     -2.24407938e-01     -1.42512396e+00     
H    -3.55646654e+00     -2.76277413e-01     -2.76946771e-02     
O    -4.32923074e-01     -2.04885474e+00     -5.42137571e+00     
H    -7.09288745e-01     -1.22286727e+00     -5.82366836e+00     
H    -8.76927208e-02     -2.58697880e+00     -6.14128772e+00     
O    1.17412695e+00      -3.42751361e+00     2.24717299e+00      
H    5.51177659e-01      -4.00440520e+00     2.69222302e+00      
H    1.99884843e+00      -3.91581120e+00     2.22631414e+00      
26
3805.141366
N    -1.17173476e-02     -5.46364169e-02     -5.10537644e-02     
H    -1.05120479e+00     -7.21617085e-02     -9.21639006e-02     
H    3.19222389e-01      8.36240750e-01      -4.71150811e-01     
H    3.24058989e-01      -1.50316239e-01     9.32258105e-01      
C    5.29957594e-01      -1.18828446e+00     -8.21479881e-01     
H    1.61624730e+00      -1.15088531e+00     -7.95319544e-01     
H    1.96716412e-01      -2.12003737e+00     -3.72138940e-01     
C    4.24557353e-02      -1.09316816e+00     -2.25164830e+00     
O    -6.57763290e-01     -1.90352320e-01     -2.67186783e+00     
O    4.93022615e-01      -2.12150214e+00     -2.94695418e+00     
H    1.42236539e-01      -2.05849030e+00     -3.88440235e+00     
O    1.00631583e+00      2.04895466e+00      -1.52091686e+00     
H    4.94266476e-01      2.07564330e+00      -2.41070857e+00     
H    1.35952467e+00      3.01503131e+00      -1.36194834e+00     
O    1.07007961e+00      -6.62405459e-01     2.36819912e+00      
H    1.16819233e+00      -1.61167026e+00     2.53274711e+00      
H    1.23407844e+00      -2.10810834e-01     3.19782741e+00      
O    -2.71827950e+00     -4.28416349e-01     -4.91851899e-01     
H    -2.88782882e+00     -2.24718527e-01     -1.42352638e+00     
H    -3.55495040e+00     -2.76522353e-01     -2.86462630e-02     
O    -4.32921518e-01     -2.04885769e+00     -5.42137839e+00     
H    -7.09290805e-01     -1.22286146e+00     -5.82367839e+00     
H    -8.77166126e-02     -2.58693844e+00     -6.14123781e+00     
O    1.17412471e+00      -3.42750168e+00     2.24716828e+00      
H    5.51048947e-01      -4.00451044e+00     2.69230763e+00      
H    1.99901292e+00      -3.91589819e+00     2.22630425e+00      
26
3805.141366
N    -1.17185894e-02     -5.46556999e-02     -5.10420936e-02     
H    -1.05125297e+00     -7.21653645e-02     -9.21648378e-02     
H    3.19305681e-01      8.36678601e-01      -4.71317357e-01     
H    3.24028657e-01      -1.50329460e-01     9.32202436e-01      
C    5.29961891e-01      -1.18828348e+00     -8.21481181e-01     
H    1.61619467e+00      -1.15088031e+00     -7.95323861e-01     
H    1.96704905e-01      -2.12005226e+00     -3.72129266e-01     
C    4.24570995e-02      -1.09316338e+00     -2.25164491e+00     
O    -6.57763675e-01     -1.90350890e-01     -2.67186907e+00     
O    4.93022646e-01      -2.12150400e+00     -2.94695642e+00     
H    1.42244626e-01      -2.05849229e+00     -3.88438376e+00     
O    1.00625346e+00      2.05000775e+00      -1.52153270e+00     
H    5.02248587e-01      2.07619865e+00      -2.39710251e+00     
H    1.35252375e+00      2.99757284e+00      -1.36571752e+00     
O    1.07008095e+00      -6.62390070e-01     2.36820902e+00      
H    1.16820875e+00      -1.61182092e+00     2.53277280e+00      
H    1.23404351e+00      -2.10904947e-01     3.19765100e+00      
O    -2.71838656e+00     -4.28381906e-01     -4.91892567e-01     
H    -2.88763225e+00     -2.25029116e-01     -1.42192880e+00     
H    -3.55343425e+00     -2.76767292e-01     -2.95978490e-02     
O    -4.32919963e-01     -2.04886064e+00     -5.42138107e+00     
H    -7.09292865e-01     -1.22285564e+00     -5.82368843e+00     
H    -8.77405043e-02     -2.58689808e+00     -6.14118791e+00     
O    1.17412246e+00      -3.42748975e+00     2.24716358e+00      
H    5.50920234e-01      -4.00461569e+00     2.69239224e+00      
H    1.99917741e+00      -3.91598518e+00     2.22629436e+00      
26
3805.141366
N    -1.17198312e-02     -5.46749829e-02     -5.10304229e-02     
H    -1.05130115e+00     -7.21690204e-02     -9.21657750e-02     
H    3.19388973e-01      8.37116453e-01      -4.71483903e-01     
H    3.23998326e-01      -1.50342682e-01     9.32146767e-01      
C    5.29966187e-01      -1.18828251e+00     -8.21482480e-01     
H    1.61614204e+00      -1.15087532e+00     -7.95328178e-01     
H    1.96693398e-01      -2.12006716e+00     -3.72119593e-01     
C    4.24584636e-02      -1.09315860e+00     -2.25164153e+00     
O    -6.57764060e-01     -1.90349460e-01     -2.67187031e+00     
O    4.93022677e-01      -2.12150586e+00     -2.94695866e+00     
H    1.42252713e-01      -2.05849428e+00     -3.88436518e+00     
O    1.00619109e+00      2.05106083e+00      -1.52214854e+00     
H    5.10230697e-01      2.07675400e+00      -2.38349645e+00     
H    1.34552283e+00      2.98011437e+00      -1.36948670e+00     
O    1.07008230e+00      -6.62374680e-01     2.36821892e+00      
H    1.16822518e+00      -1.61197159e+00     2.53279850e+00      
H    1.23400858e+00      -2.10999060e-01     3.19747459e+00      
O    -2.71849361e+00     -4.28347463e-01     -4.91933236e-01     
H    -2.88743568e+00     -2.25339704e-01     -1.42033122e+00     
H    -3.55191811e+00     -2.77012231e-01     -3.05494349e-02     
O    -4.32918407e-01     -2.04886359e+00     -5.42138376e+00     
H    -7.09294925e-01     -1.22284982e+00     -5.82369847e+00     
H    -8.77643961e-02     -2.58685772e+00     -6.14113800e+00     
O    1.17412022e+00      -3.42747781e+00     2.24715887e+00      
H    5.50791521e-01      -4.00472093e+00     2.69247685e+00      
H    1.99934191e+00      -3.91607216e+00     2.22628448e+00      
26
3805.141366
N    -1.17204521e-02     -5.46846244e-02     -5.10245875e-02     
H    -1.05132524e+00     -7.21708483e-02     -9.21662436e-02     
H    3.19430618e-01      8.37335378e-01      -4.71567177e-01     
H    3.23983160e-01      -1.50349292e-01     9.32118932e-01      
C    5.29968335e-01      -1.18828202e+00     -8.21483130e-01     
H    1.61611572e+00      -1.15087282e+00     -7.95330336e-01     
H    1.96687644e-01      -2.12007461e+00     -3.72114756e-01     
C    4.24591457e-02      -1.09315621e+00     -2.25163984e+00     
O    -6.57764253e-01     -1.90348745e-01     -2.67187092e+00     
O    4.93022692e-01      -2.12150679e+00     -2.94695977e+00     
H    1.42256757e-01      -2.05849527e+00     -3.88435588e+00     
O    1.00615991e+00      2.05158737e+00      -1.52245647e+00     
H    5.14221752e-01      2.07703167e+00      -2.37669343e+00     
H    1.34202237e+00      2.97138514e+00      -1.37137129e+00     
O    1.07008297e+00      -6.62366985e-01     2.36822388e+00      
H    1.16823339e+00      -1.61204693e+00     2.53281135e+00      
H    1.23399111e+00      -2.11046117e-01     3.19738639e+00      
O    -2.71854714e+00     -4.28330242e-01     -4.91953570e-01     
H    -2.88733739e+00     -2.25494999e-01     -1.41953242e+00     
H    -3.55116004e+00     -2.77134701e-01     -3.10252279e-02     
O    -4.32917629e-01     -2.04886507e+00     -5.42138510e+00     
H    -7.09295954e-01     -1.22284692e+00     -5.82370349e+00     
H    -8.77763420e-02     -2.58683754e+00     -6.14111304e+00     
O    1.17411910e+00      -3.42747185e+00     2.24715652e+00      
H    5.50727165e-01      -4.00477355e+00     2.69251916e+00      
H    1.99942415e+00      -3.91611566e+00     2.22627953e+00      
26
3805.141366
N    -1.17210730e-02     -5.46942659e-02     -5.10187521e-02     
H    -1.05134934e+00     -7.21726763e-02     -9.21667122e-02     
H    3.19472264e-01      8.37554304e-01      -4.71650450e-01     
H    3.23967994e-01      -1.50355903e-01     9.32091097e-01      
C    5.29970484e-01      -1.18828153e+00     -8.21483780e-01     
H    1.61608941e+00      -1.15087032e+00     -7.95332494e-01     
H    1.96681890e-01      -2.12008206e+00     -3.72109919e-01     
C    4.24598278e-02      -1.09315383e+00     -2.25163814e+00     
O    -6.57764445e-01     -1.90348030e-01     -2.67187154e+00     
O    4.93022707e-01      -2.12150772e+00     -2.94696089e+00     
H    1.42260801e-01      -2.05849626e+00     -3.88434659e+00     
O    1.00612872e+00      2.05211392e+00      -1.52276439e+00     
H    5.18212807e-01      2.07730935e+00      -2.36989040e+00     
H    1.33852191e+00      2.96265590e+00      -1.37325588e+00     
O    1.07008364e+00      -6.62359291e-01     2.36822883e+00      
H    1.16824160e+00      -1.61212226e+00     2.53282420e+00      
H    1.23397364e+00      -2.11093173e-01     3.19729819e+00      
O    -2.71860067e+00     -4.28313021e-01     -4.91973904e-01     
H    -2.88723910e+00     -2.25650293e-01     -1.41873363e+00     
H    -3.55040196e+00     -2.77257171e-01     -3.15010209e-02     
O    -4.32916852e-01     -2.04886654e+00     -5.42138644e+00     
H    -7.09296984e-01     -1.22284401e+00     -5.82370850e+00     
H    -8.77882879e-02     -2.58681736e+00     -6.14108809e+00     
O    1.17411798e+00      -3.42746588e+00     2.24715417e+00      
H    5.50662809e-01      -4.00482618e+00     2.69256146e+00      
H    1.99950640e+00      -3.91615915e+00     2.22627459e+00      
26
3805.141366
N    -1.17235566e-02     -5.47328319e-02     -5.09954107e-02     
H    -1.05144570e+00     -7.21799881e-02     -9.21685866e-02     
H    3.19638848e-01      8.38430006e-01      -4.71983542e-01     
H    3.23907332e-01      -1.50382345e-01     9.31979759e-01      
C    5.29979076e-01      -1.18827959e+00     -8.21486380e-01     
H    1.61598415e+00      -1.15086034e+00     -7.95341128e-01     
H    1.96658876e-01      -2.12011186e+00     -3.72090573e-01     
C    4.24625562e-02      -1.09314427e+00     -2.25163138e+00     
O    -6.57765215e-01     -1.90345170e-01     -2.67187402e+00     
O    4.93022769e-01      -2.12151144e+00     -2.94696537e+00     
H    1.42276975e-01      -2.05850024e+00     -3.88430941e+00     
O    1.00600398e+00      2.05422008e+00      -1.52399607e+00     
H    5.34177027e-01      2.07842005e+00      -2.34267828e+00     
H    1.32452007e+00      2.92773896e+00      -1.38079424e+00     
O    1.07008632e+00      -6.62328511e-01     2.36824863e+00      
H    1.16827444e+00      -1.61242360e+00     2.53287560e+00      
H    1.23390378e+00      -2.11281399e-01     3.19694537e+00      
O    -2.71881477e+00     -4.28244135e-01     -4.92055240e-01     
H    -2.88684596e+00     -2.26271471e-01     -1.41553847e+00     
H    -3.54736968e+00     -2.77747049e-01     -3.34041927e-02     
O    -4.32913740e-01     -2.04887244e+00     -5.42139180e+00     
H    -7.09301104e-01     -1.22283237e+00     -5.82372858e+00     
H    -8.78360715e-02     -2.58673664e+00     -6.14098827e+00     
O    1.17411350e+00      -3.42744202e+00     2.24714475e+00      
H    5.50405383e-01      -4.00503666e+00     2.69273068e+00      
H    1.99983538e+00      -3.91633313e+00     2.22625481e+00      
26
3805.141366
N    -1.17241775e-02     -5.47424734e-02     -5.09895753e-02     
H    -1.05146980e+00     -7.21818161e-02     -9.21690552e-02     
H    3.19680494e-01      8.38648932e-01      -4.72066815e-01     
H    3.23892166e-01      -1.50388956e-01     9.31951924e-01      
C    5.29981225e-01      -1.18827910e+00     -8.21487030e-01     
H    1.61595784e+00      -1.15085784e+00     -7.95343286e-01     
H    1.96653122e-01      -2.12011931e+00     -3.72085736e-01     
C    4.24632383e-02      -1.09314189e+00     -2.25162968e+00     
O    -6.57765407e-01     -1.90344455e-01     -2.67187464e+00     
O    4.93022784e-01      -2.12151237e+00     -2.94696649e+00     
H    1.42281019e-01      -2.05850123e+00     -3.88430012e+00     
O    1.00597279e+00      2.05474663e+00      -1.52430399e+00     
H    5.38168082e-01      2.07869773e+00      -2.33587525e+00     
H    1.32101961e+00      2.91900972e+00      -1.38267883e+00     
O    1.07008699e+00      -6.62320817e-01     2.36825358e+00      
H    1.16828265e+00      -1.61249893e+00     2.53288845e+00      
H    1.23388631e+00      -2.11328455e-01     3.19685717e+00      
O    -2.71886830e+00     -4.28226914e-01     -4.92075574e-01     
H    -2.88674767e+00     -2.26426765e-01     -1.41473968e+00     
H    -3.54661160e+00     -2.77869519e-01     -3.38799857e-02     
O    -4.32912963e-01     -2.04887391e+00     -5.42139314e+00     
H    -7.09302134e-01     -1.22282946e+00     -5.82373359e+00     
H    -8.78480174e-02     -2.58671646e+00     -6.14096332e+00     
O    1.17411238e+00      -3.42743605e+00     2.24714240e+00      
H    5.50341027e-01      -4.00508929e+00     2.69277298e+00      
H    1.99991763e+00      -3.91637662e+00     2.22624987e+00      
26
3805.141366
N    -1.17247984e-02     -5.47521149e-02     -5.09837399e-02     
H    -1.05149389e+00     -7.21836440e-02     -9.21695238e-02     
H    3.19722139e-01      8.38867857e-01      -4.72150089e-01     
H    3.23877000e-01      -1.50395566e-01     9.31924089e-01      
C    5.29983373e-01      -1.18827861e+00     -8.21487680e-01     
H    1.61593152e+00      -1.15085534e+00     -7.95345444e-01     
H    1.96647368e-01      -2.12012676e+00     -3.72080899e-01     
C    4.24639204e-02      -1.09313950e+00     -2.25162799e+00     
O    -6.57765600e-01     -1.90343740e-01     -2.67187525e+00     
O    4.93022799e-01      -2.12151330e+00     -2.94696760e+00     
H    1.42285063e-01      -2.05850222e+00     -3.88429082e+00     
O    1.00594161e+00      2.05527317e+00      -1.52461192e+00     
H    5.42159137e-01      2.07897540e+00      -2.32907223e+00     
H    1.31751915e+00      2.91028049e+00      -1.38456342e+00     
O    1.07008766e+00      -6.62313122e-01     2.36825854e+00      
H    1.16829086e+00      -1.61257427e+00     2.53290130e+00      
H    1.23386884e+00      -2.11375512e-01     3.19676897e+00      
O    -2.71892183e+00     -4.28209693e-01     -4.92095908e-01     
H    -2.88664938e+00     -2.26582060e-01     -1.41394088e+00     
H    -3.54585353e+00     -2.77991989e-01     -3.43557787e-02     
O    -4.32912185e-01     -2.04887539e+00     -5.42139448e+00     
H    -7.09303163e-01     -1.22282656e+00     -5.82373861e+00     
H    -8.78599633e-02     -2.58669628e+00     -6.14093836e+00     
O    1.17411126e+00      -3.42743009e+00     2.24714005e+00      
H    5.50276671e-01      -4.00514191e+00     2.69281529e+00      
H    1.99999987e+00      -3.91642012e+00     2.22624492e+00      
26
3805.141366
N    -1.17260402e-02     -5.47713979e-02     -5.09720692e-02     
H    -1.05154207e+00     -7.21872999e-02     -9.21704610e-02     
H    3.19805431e-01      8.39305709e-01      -4.72316635e-01     
H    3.23846669e-01      -1.50408788e-01     9.31868420e-01      
C    5.29987669e-01      -1.18827764e+00     -8.21488979e-01     
H    1.61587889e+00      -1.15085035e+00     -7.95349761e-01     
H    1.96635861e-01      -2.12014166e+00     -3.72071226e-01     
C    4.24652845e-02      -1.09313472e+00     -2.25162461e+00     
O    -6.57765985e-01     -1.90342310e-01     -2.67187649e+00     
O    4.93022830e-01      -2.12151516e+00     -2.94696984e+00     
H    1.42293150e-01      -2.05850421e+00     -3.88427224e+00     
O    1.00587924e+00      2.05632625e+00      -1.52522776e+00     
H    5.50141247e-01      2.07953075e+00      -2.31546617e+00     
H    1.31051823e+00      2.89282202e+00      -1.38833260e+00     
O    1.07008901e+00      -6.62297732e-01     2.36826844e+00      
H    1.16830729e+00      -1.61272494e+00     2.53292700e+00      
H    1.23383391e+00      -2.11469625e-01     3.19659256e+00      
O    -2.71902888e+00     -4.28175250e-01     -4.92136577e-01     
H    -2.88645281e+00     -2.26892648e-01     -1.41234330e+00     
H    -3.54433739e+00     -2.78236928e-01     -3.53073646e-02     
O    -4.32910629e-01     -2.04887834e+00     -5.42139717e+00     
H    -7.09305223e-01     -1.22282074e+00     -5.82374865e+00     
H    -8.78838551e-02     -2.58665592e+00     -6.14088845e+00     
O    1.17410902e+00      -3.42741815e+00     2.24713534e+00      
H    5.50147958e-01      -4.00524715e+00     2.69289990e+00      
H    2.00016437e+00      -3.91650710e+00     2.22623504e+00      
26
3805.141366
N    -1.17272820e-02     -5.47906809e-02     -5.09603984e-02     
H    -1.05159025e+00     -7.21909559e-02     -9.21713982e-02     
H    3.19888723e-01      8.39743560e-01      -4.72483181e-01     
H    3.23816337e-01      -1.50422009e-01     9.31812751e-01      
C    5.29991966e-01      -1.18827666e+00     -8.21490279e-01     
H    1.61582626e+00      -1.15084535e+00     -7.95354078e-01     
H    1.96624354e-01      -2.12015655e+00     -3.72061552e-01     
C    4.24666487e-02      -1.09312994e+00     -2.25162122e+00     
O    -6.57766370e-01     -1.90340880e-01     -2.67187773e+00     
O    4.93022861e-01      -2.12151702e+00     -2.94697208e+00     
H    1.42301237e-01      -2.05850620e+00     -3.88425365e+00     
O    1.00581687e+00      2.05737934e+00      -1.52584360e+00     
H    5.58123358e-01      2.08008610e+00      -2.30186011e+00     
H    1.30351731e+00      2.87536355e+00      -1.39210178e+00     
O    1.07009035e+00      -6.62282343e-01     2.36827834e+00      
H    1.16832371e+00      -1.61287560e+00     2.53295269e+00      
H    1.23379898e+00      -2.11563738e-01     3.19641615e+00      
O    -2.71913594e+00     -4.28140807e-01     -4.92177245e-01     
H    -2.88625624e+00     -2.27203237e-01     -1.41074572e+00     
H    -3.54282124e+00     -2.78481867e-01     -3.62589506e-02     
O    -4.32909074e-01     -2.04888129e+00     -5.42139985e+00     
H    -7.09307283e-01     -1.22281492e+00     -5.82375869e+00     
H    -8.79077468e-02     -2.58661556e+00     -6.14083855e+00     
O    1.17410677e+00      -3.42740622e+00     2.24713064e+00      
H    5.50019245e-01      -4.00535240e+00     2.69298451e+00      
H    2.00032886e+00      -3.91659409e+00     2.22622515e+00      
26
3805.141366
N    -1.17285238e-02     -5.48099640e-02     -5.09487277e-02     
H    -1.05163844e+00     -7.21946118e-02     -9.21723354e-02     
H    3.19972015e-01      8.40181411e-01      -4.72649727e-01     
H    3.23786006e-01      -1.50435230e-01     9.31757082e-01      
C    5.29996262e-01      -1.18827569e+00     -8.21491579e-01     
H    1.61577363e+00      -1.15084036e+00     -7.95358395e-01     
H    1.96612847e-01      -2.12017145e+00     -3.72051879e-01     
C    4.24680129e-02      -1.09312517e+00     -2.25161784e+00     
O    -6.57766755e-01     -1.90339449e-01     -2.67187897e+00     
O    4.93022891e-01      -2.12151887e+00     -2.94697431e+00     
H    1.42309325e-01      -2.05850819e+00     -3.88423506e+00     
O    1.00575450e+00      2.05843242e+00      -1.52645945e+00     
H    5.66105468e-01      2.08064145e+00      -2.28825405e+00     
H    1.29651639e+00      2.85790508e+00      -1.39587096e+00     
O    1.07009169e+00      -6.62266953e-01     2.36828825e+00      
H    1.16834013e+00      -1.61302627e+00     2.53297839e+00      
H    1.23376405e+00      -2.11657850e-01     3.19623975e+00      
O    -2.71924299e+00     -4.28106364e-01     -4.92217913e-01     
H    -2.88605967e+00     -2.27513826e-01     -1.40914814e+00     
H    -3.54130510e+00     -2.78726807e-01     -3.72105365e-02     
O    -4.32907518e-01     -2.04888424e+00     -5.42140253e+00     
H    -7.09309343e-01     -1.22280911e+00     -5.82376872e+00     
H    -8.79316386e-02     -2.58657520e+00     -6.14078864e+00     
O    1.17410453e+00      -3.42739429e+00     2.24712593e+00      
H    5.49890533e-01      -4.00545764e+00     2.69306912e+00      
H    2.00049335e+00      -3.91668108e+00     2.22621526e+00      
26
3805.141366
N    -1.17297657e-02     -5.48292470e-02     -5.09370569e-02     
H    -1.05168662e+00     -7.21982677e-02     -9.21732727e-02     
H    3.20055306e-01      8.40619262e-01      -4.72816274e-01     
H    3.23755675e-01      -1.50448451e-01     9.31701412e-01      
C    5.30000559e-01      -1.18827471e+00     -8.21492879e-01     
H    1.61572100e+00      -1.15083537e+00     -7.95362711e-01     
H    1.96601339e-01      -2.12018635e+00     -3.72042205e-01     
C    4.24693771e-02      -1.09312039e+00     -2.25161445e+00     
O    -6.57767140e-01     -1.90338019e-01     -2.67188020e+00     
O    4.93022922e-01      -2.12152073e+00     -2.94697655e+00     
H    1.42317412e-01      -2.05851017e+00     -3.88421647e+00     
O    1.00569213e+00      2.05948551e+00      -1.52707529e+00     
H    5.74087578e-01      2.08119680e+00      -2.27464800e+00     
H    1.28951547e+00      2.84044661e+00      -1.39964014e+00     
O    1.07009303e+00      -6.62251564e-01     2.36829815e+00      
H    1.16835655e+00      -1.61317694e+00     2.53300409e+00      
H    1.23372911e+00      -2.11751963e-01     3.19606334e+00      
O    -2.71935004e+00     -4.28071922e-01     -4.92258581e-01     
H    -2.88586309e+00     -2.27824415e-01     -1.40755055e+00     
H    -3.53978895e+00     -2.78971746e-01     -3.81621224e-02     
O    -4.32905962e-01     -2.04888719e+00     -5.42140521e+00     
H    -7.09311402e-01     -1.22280329e+00     -5.82377876e+00     
H    -8.79555304e-02     -2.58653484e+00     -6.14073873e+00     
O    1.17410229e+00      -3.42738236e+00     2.24712122e+00      
H    5.49761820e-01      -4.00556289e+00     2.69315373e+00      
H    2.00065784e+00      -3.91676807e+00     2.22620537e+00      
26
3805.141366
N    -1.17322493e-02     -5.48678130e-02     -5.09137155e-02     
H    -1.05178299e+00     -7.22055795e-02     -9.21751471e-02     
H    3.20221890e-01      8.41494964e-01      -4.73149366e-01     
H    3.23695012e-01      -1.50474894e-01     9.31590074e-01      
C    5.30009152e-01      -1.18827276e+00     -8.21495478e-01     
H    1.61561574e+00      -1.15082538e+00     -7.95371345e-01     
H    1.96578325e-01      -2.12021615e+00     -3.72022859e-01     
C    4.24721055e-02      -1.09311084e+00     -2.25160768e+00     
O    -6.57767909e-01     -1.90335159e-01     -2.67188268e+00     
O    4.93022984e-01      -2.12152445e+00     -2.94698103e+00     
H    1.42333587e-01      -2.05851415e+00     -3.88417930e+00     
O    1.00556738e+00      2.06159168e+00      -1.52830698e+00     
H    5.90051798e-01      2.08230750e+00      -2.24743588e+00     
H    1.27551363e+00      2.80552966e+00      -1.40717850e+00     
O    1.07009572e+00      -6.62220784e-01     2.36831796e+00      
H    1.16838940e+00      -1.61347828e+00     2.53305549e+00      
H    1.23365925e+00      -2.11940189e-01     3.19571053e+00      
O    -2.71956415e+00     -4.28003036e-01     -4.92339918e-01     
H    -2.88546995e+00     -2.28445592e-01     -1.40435539e+00     
H    -3.53675667e+00     -2.79461625e-01     -4.00652943e-02     
O    -4.32902851e-01     -2.04889308e+00     -5.42141058e+00     
H    -7.09315522e-01     -1.22279165e+00     -5.82379883e+00     
H    -8.80033140e-02     -2.58645412e+00     -6.14063891e+00     
O    1.17409781e+00      -3.42735850e+00     2.24711181e+00      
H    5.49504395e-01      -4.00577337e+00     2.69332295e+00      
H    2.00098682e+00      -3.91694204e+00     2.22618559e+00      
