26
35.528362
N    3.07954145e-03      -4.82716998e-02     -5.71147107e-02     
H    -1.03584076e+00     -7.34531477e-02     -1.05170928e-01     
H    3.31889109e-01      8.48259495e-01      -4.72311971e-01     
H    3.29728435e-01      -1.46216619e-01     9.28846198e-01      
C    5.52574434e-01      -1.17744352e+00     -8.28599798e-01     
H    1.63850500e+00      -1.13188779e+00     -8.05855099e-01     
H    2.27257926e-01      -2.11158586e+00     -3.78268281e-01     
C    5.99506556e-02      -1.08526585e+00     -2.25726881e+00     
O    -6.24284674e-01     -1.71900133e-01     -2.68166816e+00     
O    4.85553836e-01      -2.12838103e+00     -2.94696539e+00     
H    1.23331936e-01      -2.06793729e+00     -3.88040036e+00     
O    1.01768545e+00      2.07531359e+00      -1.50730069e+00     
H    5.47121218e-01      2.09559094e+00      -2.34572157e+00     
H    1.32921225e+00      2.97136638e+00      -1.35461647e+00     
O    1.03343543e+00      -6.61688741e-01     2.38430826e+00      
H    1.14036800e+00      -1.61134051e+00     2.54492257e+00      
H    1.18856657e+00      -2.12337821e-01     3.21580865e+00      
O    -2.69460333e+00     -4.72178015e-01     -5.20385383e-01     
H    -2.86856901e+00     -2.58138484e-01     -1.44192253e+00     
H    -3.52823739e+00     -3.48479291e-01     -5.80332164e-02     
O    -4.92992685e-01     -2.05923898e+00     -5.40103210e+00     
H    -7.42567387e-01     -1.22228932e+00     -5.79968797e+00     
H    -1.73065607e-01     -2.60845546e+00     -6.12450092e+00     
O    1.17052145e+00      -3.42447021e+00     2.24644304e+00      
H    5.44448882e-01      -4.01099502e+00     2.67671873e+00      
H    2.00139975e+00      -3.90482291e+00     2.23802807e+00      
26
35.528362
N    -6.20922613e-04     -4.98821621e-02     -5.55878034e-02     
H    -1.03972995e+00     -7.31339438e-02     -1.01920109e-01     
H    3.28805721e-01      8.45692660e-01      -4.72188227e-01     
H    3.28280742e-01      -1.47254745e-01     9.29643505e-01      
C    5.46924521e-01      -1.18015278e+00     -8.26821119e-01     
H    1.63288795e+00      -1.13663217e+00     -8.03225527e-01     
H    2.19611040e-01      -2.11371364e+00     -3.76726272e-01     
C    5.55782897e-02      -1.08723665e+00     -2.25586030e+00     
O    -6.32654713e-01     -1.76511750e-01     -2.67921931e+00     
O    4.87421062e-01      -2.12666317e+00     -2.94696483e+00     
H    1.28066174e-01      -2.06557753e+00     -3.88138227e+00     
O    1.01478068e+00      2.06977694e+00      -1.51132058e+00     
H    5.41889643e-01      2.09115938e+00      -2.34836226e+00     
H    1.32978944e+00      2.96482414e+00      -1.36021862e+00     
O    1.04259782e+00      -6.61852531e-01     2.38029088e+00      
H    1.14734051e+00      -1.61157362e+00     2.54190440e+00      
H    1.19990961e+00      -2.12050187e-01     3.21113693e+00      
O    -2.70062943e+00     -4.61203156e-01     -5.13292680e-01     
H    -2.87318739e+00     -2.50094084e-01     -1.43572591e+00     
H    -3.53339950e+00     -3.30734996e-01     -5.16380640e-02     
O    -4.77973338e-01     -2.05664661e+00     -5.40612135e+00     
H    -7.34250301e-01     -1.22242653e+00     -5.80569561e+00     
H    -1.51752250e-01     -2.60303585e+00     -6.12863523e+00     
O    1.17142002e+00      -3.42521614e+00     2.24661965e+00      
H    5.45970185e-01      -4.00947912e+00     2.68070057e+00      
H    2.00096754e+00      -3.90767871e+00     2.23508723e+00      
26
35.528362
N    -2.47115464e-03     -5.06873932e-02     -5.48243497e-02     
H    -1.04167455e+00     -7.29743419e-02     -1.00294699e-01     
H    3.27264027e-01      8.44409243e-01      -4.72126355e-01     
H    3.27556895e-01      -1.47773808e-01     9.30042159e-01      
C    5.44099564e-01      -1.18150741e+00     -8.25931779e-01     
H    1.63007942e+00      -1.13900437e+00     -8.01910741e-01     
H    2.15787597e-01      -2.11477752e+00     -3.75955268e-01     
C    5.33921068e-02      -1.08822205e+00     -2.25515604e+00     
O    -6.36839732e-01     -1.78817558e-01     -2.67799489e+00     
O    4.88354674e-01      -2.12580424e+00     -2.94696454e+00     
H    1.30433293e-01      -2.06439765e+00     -3.88187323e+00     
O    1.01332829e+00      2.06700862e+00      -1.51333052e+00     
H    5.39273855e-01      2.08894360e+00      -2.34968261e+00     
H    1.33007803e+00      2.96155302e+00      -1.36301969e+00     
O    1.04717901e+00      -6.61934426e-01     2.37828219e+00      
H    1.15082676e+00      -1.61169017e+00     2.54039532e+00      
H    1.20558112e+00      -2.11906370e-01     3.20880107e+00      
O    -2.70364248e+00     -4.55715726e-01     -5.09746329e-01     
H    -2.87549658e+00     -2.46071883e-01     -1.43262760e+00     
H    -3.53598055e+00     -3.21862848e-01     -4.84404878e-02     
O    -4.70463664e-01     -2.05535042e+00     -5.40866598e+00     
H    -7.30091758e-01     -1.22249514e+00     -5.80869943e+00     
H    -1.41095572e-01     -2.60032604e+00     -6.13070239e+00     
O    1.17186931e+00      -3.42558911e+00     2.24670795e+00      
H    5.46730837e-01      -4.00872117e+00     2.68269148e+00      
H    2.00075143e+00      -3.90910662e+00     2.23361681e+00      
26
35.528362
N    -4.32138668e-03     -5.14926244e-02     -5.40608961e-02     
H    -1.04361914e+00     -7.28147399e-02     -9.86692888e-02     
H    3.25722333e-01      8.43125825e-01      -4.72064484e-01     
H    3.26833049e-01      -1.48292871e-01     9.30440813e-01      
C    5.41274607e-01      -1.18286204e+00     -8.25042439e-01     
H    1.62727089e+00      -1.14137656e+00     -8.00595955e-01     
H    2.11964154e-01      -2.11584141e+00     -3.75184263e-01     
C    5.12059238e-02      -1.08920745e+00     -2.25445178e+00     
O    -6.41024752e-01     -1.81123367e-01     -2.67677047e+00     
O    4.89288287e-01      -2.12494531e+00     -2.94696426e+00     
H    1.32800412e-01      -2.06321777e+00     -3.88236418e+00     
O    1.01187590e+00      2.06424030e+00      -1.51534046e+00     
H    5.36658068e-01      2.08672782e+00      -2.35100295e+00     
H    1.33036662e+00      2.95828190e+00      -1.36582077e+00     
O    1.05176020e+00      -6.62016321e-01     2.37627349e+00      
H    1.15431301e+00      -1.61180672e+00     2.53888623e+00      
H    1.21125264e+00      -2.11762554e-01     3.20646522e+00      
O    -2.70665553e+00     -4.50228297e-01     -5.06199977e-01     
H    -2.87780577e+00     -2.42049683e-01     -1.42952929e+00     
H    -3.53856160e+00     -3.12990701e-01     -4.52429116e-02     
O    -4.62953991e-01     -2.05405423e+00     -5.41121061e+00     
H    -7.25933215e-01     -1.22256375e+00     -5.81170325e+00     
H    -1.30438893e-01     -2.59761623e+00     -6.13276955e+00     
O    1.17231859e+00      -3.42596208e+00     2.24679625e+00      
H    5.47491489e-01      -4.00796322e+00     2.68468240e+00      
H    2.00053532e+00      -3.91053452e+00     2.23214639e+00      
26
35.528362
N    -6.17161871e-03     -5.22978555e-02     -5.32974424e-02     
H    -1.04556374e+00     -7.26551380e-02     -9.70438790e-02     
H    3.24180639e-01      8.41842408e-01      -4.72002612e-01     
H    3.26109202e-01      -1.48811935e-01     9.30839467e-01      
C    5.38449650e-01      -1.18421667e+00     -8.24153099e-01     
H    1.62446236e+00      -1.14374875e+00     -7.99281169e-01     
H    2.08140712e-01      -2.11690530e+00     -3.74413259e-01     
C    4.90197409e-02      -1.09019285e+00     -2.25374753e+00     
O    -6.45209771e-01     -1.83429175e-01     -2.67554605e+00     
O    4.90221900e-01      -2.12408637e+00     -2.94696398e+00     
H    1.35167531e-01      -2.06203789e+00     -3.88285514e+00     
O    1.01042351e+00      2.06147197e+00      -1.51735040e+00     
H    5.34042280e-01      2.08451204e+00      -2.35232330e+00     
H    1.33065521e+00      2.95501078e+00      -1.36862184e+00     
O    1.05634140e+00      -6.62098216e-01     2.37426480e+00      
H    1.15779926e+00      -1.61192327e+00     2.53737715e+00      
H    1.21692416e+00      -2.11618737e-01     3.20412936e+00      
O    -2.70966857e+00     -4.44740867e-01     -5.02653626e-01     
H    -2.88011496e+00     -2.38027483e-01     -1.42643098e+00     
H    -3.54114266e+00     -3.04118553e-01     -4.20453354e-02     
O    -4.55444317e-01     -2.05275805e+00     -5.41375524e+00     
H    -7.21774672e-01     -1.22263236e+00     -5.81470707e+00     
H    -1.19782215e-01     -2.59490642e+00     -6.13483671e+00     
O    1.17276788e+00      -3.42633505e+00     2.24688455e+00      
H    5.48252141e-01      -4.00720527e+00     2.68667332e+00      
H    2.00031921e+00      -3.91196243e+00     2.23067596e+00      
26
35.528362
N    -8.02185074e-03     -5.31030866e-02     -5.25339887e-02     
H    -1.04750833e+00     -7.24955361e-02     -9.54184691e-02     
H    3.22638944e-01      8.40558990e-01      -4.71940740e-01     
H    3.25385356e-01      -1.49330998e-01     9.31238120e-01      
C    5.35624694e-01      -1.18557130e+00     -8.23263760e-01     
H    1.62165384e+00      -1.14612094e+00     -7.97966383e-01     
H    2.04317269e-01      -2.11796919e+00     -3.73642255e-01     
C    4.68335579e-02      -1.09117825e+00     -2.25304327e+00     
O    -6.49394791e-01     -1.85734983e-01     -2.67432162e+00     
O    4.91155513e-01      -2.12322744e+00     -2.94696370e+00     
H    1.37534650e-01      -2.06085801e+00     -3.88334609e+00     
O    1.00897113e+00      2.05870365e+00      -1.51936035e+00     
H    5.31426492e-01      2.08229626e+00      -2.35364365e+00     
H    1.33094381e+00      2.95173967e+00      -1.37142291e+00     
O    1.06092259e+00      -6.62180111e-01     2.37225611e+00      
H    1.16128552e+00      -1.61203983e+00     2.53586807e+00      
H    1.22259568e+00      -2.11474920e-01     3.20179350e+00      
O    -2.71268162e+00     -4.39253437e-01     -4.99107275e-01     
H    -2.88242415e+00     -2.34005283e-01     -1.42333267e+00     
H    -3.54372371e+00     -2.95246405e-01     -3.88477592e-02     
O    -4.47934643e-01     -2.05146186e+00     -5.41629986e+00     
H    -7.17616130e-01     -1.22270097e+00     -5.81771090e+00     
H    -1.09125537e-01     -2.59219662e+00     -6.13690386e+00     
O    1.17321717e+00      -3.42670801e+00     2.24697286e+00      
H    5.49012792e-01      -4.00644732e+00     2.68866424e+00      
H    2.00010311e+00      -3.91339033e+00     2.22920554e+00      
26
35.528362
N    -8.94696675e-03     -5.35057022e-02     -5.21522619e-02     
H    -1.04848063e+00     -7.24157351e-02     -9.46057642e-02     
H    3.21868097e-01      8.39917281e-01      -4.71909804e-01     
H    3.25023433e-01      -1.49590529e-01     9.31437447e-01      
C    5.34212215e-01      -1.18624862e+00     -8.22819090e-01     
H    1.62024957e+00      -1.14730704e+00     -7.97308990e-01     
H    2.02405547e-01      -2.11850113e+00     -3.73256752e-01     
C    4.57404664e-02      -1.09167095e+00     -2.25269114e+00     
O    -6.51487301e-01     -1.86887887e-01     -2.67370941e+00     
O    4.91622319e-01      -2.12279798e+00     -2.94696355e+00     
H    1.38718209e-01      -2.06026807e+00     -3.88359157e+00     
O    1.00824493e+00      2.05731949e+00      -1.52036532e+00     
H    5.30118598e-01      2.08118837e+00      -2.35430382e+00     
H    1.33108810e+00      2.95010411e+00      -1.37282345e+00     
O    1.06321319e+00      -6.62221058e-01     2.37125177e+00      
H    1.16302864e+00      -1.61209810e+00     2.53511352e+00      
H    1.22543143e+00      -2.11403011e-01     3.20062557e+00      
O    -2.71418815e+00     -4.36509723e-01     -4.97334099e-01     
H    -2.88357874e+00     -2.31994182e-01     -1.42178352e+00     
H    -3.54501424e+00     -2.90810331e-01     -3.72489711e-02     
O    -4.44179806e-01     -2.05081377e+00     -5.41757218e+00     
H    -7.15536858e-01     -1.22273528e+00     -5.81921281e+00     
H    -1.03797197e-01     -2.59084171e+00     -6.13793744e+00     
O    1.17344181e+00      -3.42689450e+00     2.24701701e+00      
H    5.49393118e-01      -4.00606835e+00     2.68965969e+00      
H    1.99999505e+00      -3.91410428e+00     2.22847033e+00      
26
35.528362
N    -9.87208277e-03     -5.39083178e-02     -5.17705351e-02     
H    -1.04945293e+00     -7.23359341e-02     -9.37930593e-02     
H    3.21097250e-01      8.39275573e-01      -4.71878868e-01     
H    3.24661509e-01      -1.49850061e-01     9.31636774e-01      
C    5.32799737e-01      -1.18692593e+00     -8.22374420e-01     
H    1.61884531e+00      -1.14849314e+00     -7.96651597e-01     
H    2.00493826e-01      -2.11903307e+00     -3.72871250e-01     
C    4.46473750e-02      -1.09216365e+00     -2.25233902e+00     
O    -6.53579810e-01     -1.88040792e-01     -2.67309720e+00     
O    4.92089125e-01      -2.12236851e+00     -2.94696341e+00     
H    1.39901769e-01      -2.05967813e+00     -3.88383705e+00     
O    1.00751874e+00      2.05593532e+00      -1.52137029e+00     
H    5.28810705e-01      2.08008048e+00      -2.35496399e+00     
H    1.33123240e+00      2.94846855e+00      -1.37422399e+00     
O    1.06550379e+00      -6.62262006e-01     2.37024742e+00      
H    1.16477177e+00      -1.61215638e+00     2.53435898e+00      
H    1.22826719e+00      -2.11331103e-01     3.19945764e+00      
O    -2.71569467e+00     -4.33766008e-01     -4.95560923e-01     
H    -2.88473334e+00     -2.29983082e-01     -1.42023436e+00     
H    -3.54630477e+00     -2.86374258e-01     -3.56501830e-02     
O    -4.40424970e-01     -2.05016568e+00     -5.41884449e+00     
H    -7.13457587e-01     -1.22276958e+00     -5.82071472e+00     
H    -9.84688581e-02     -2.58948681e+00     -6.13897102e+00     
O    1.17366645e+00      -3.42708098e+00     2.24706116e+00      
H    5.49773444e-01      -4.00568937e+00     2.69065515e+00      
H    1.99988700e+00      -3.91481824e+00     2.22773512e+00      
26
35.528362
N    -1.35725468e-02     -5.55187800e-02     -5.02436277e-02     
H    -1.05334211e+00     -7.20167303e-02     -9.05422395e-02     
H    3.18013862e-01      8.36708737e-01      -4.71755124e-01     
H    3.23213817e-01      -1.50888187e-01     9.32434082e-01      
C    5.27149823e-01      -1.18963519e+00     -8.20595740e-01     
H    1.61322825e+00      -1.15323752e+00     -7.94022025e-01     
H    1.92846940e-01      -2.12116085e+00     -3.71329242e-01     
C    4.02750090e-02      -1.09413445e+00     -2.25093050e+00     
O    -6.61949850e-01     -1.92652408e-01     -2.67064836e+00     
O    4.93956351e-01      -2.12065065e+00     -2.94696285e+00     
H    1.44636007e-01      -2.05731837e+00     -3.88481895e+00     
O    1.00461396e+00      2.05039868e+00      -1.52539017e+00     
H    5.23579129e-01      2.07564892e+00      -2.35760469e+00     
H    1.33180958e+00      2.94192631e+00      -1.37982613e+00     
O    1.07466617e+00      -6.62425796e-01     2.36623004e+00      
H    1.17174427e+00      -1.61238948e+00     2.53134082e+00      
H    1.23961023e+00      -2.11043469e-01     3.19478592e+00      
O    -2.72172077e+00     -4.22791148e-01     -4.88468221e-01     
H    -2.88935172e+00     -2.21938682e-01     -1.41403774e+00     
H    -3.55146687e+00     -2.68629962e-01     -2.92550306e-02     
O    -4.25405622e-01     -2.04757330e+00     -5.42393375e+00     
H    -7.05140501e-01     -1.22290680e+00     -5.82672236e+00     
H    -7.71555013e-02     -2.58406719e+00     -6.14310534e+00     
O    1.17456503e+00      -3.42782692e+00     2.24723776e+00      
H    5.51294748e-01      -4.00417347e+00     2.69463699e+00      
H    1.99945478e+00      -3.91767404e+00     2.22479428e+00      
26
35.528362
N    -1.44976628e-02     -5.59213956e-02     -4.98619009e-02     
H    -1.05431441e+00     -7.19369293e-02     -8.97295346e-02     
H    3.17243015e-01      8.36067029e-01      -4.71724188e-01     
H    3.22851893e-01      -1.51147719e-01     9.32633409e-01      
C    5.25737345e-01      -1.19031250e+00     -8.20151070e-01     
H    1.61182399e+00      -1.15442362e+00     -7.93364632e-01     
H    1.90935219e-01      -2.12169279e+00     -3.70943740e-01     
C    3.91819176e-02      -1.09462715e+00     -2.25057838e+00     
O    -6.64042359e-01     -1.93805313e-01     -2.67003615e+00     
O    4.94423157e-01      -2.12022118e+00     -2.94696271e+00     
H    1.45819567e-01      -2.05672843e+00     -3.88506443e+00     
O    1.00388777e+00      2.04901451e+00      -1.52639514e+00     
H    5.22271236e-01      2.07454103e+00      -2.35826486e+00     
H    1.33195388e+00      2.94029075e+00      -1.38122667e+00     
O    1.07695677e+00      -6.62466744e-01     2.36522569e+00      
H    1.17348740e+00      -1.61244776e+00     2.53058628e+00      
H    1.24244599e+00      -2.10971561e-01     3.19361799e+00      
O    -2.72322729e+00     -4.20047433e-01     -4.86695045e-01     
H    -2.89050632e+00     -2.19927582e-01     -1.41248858e+00     
H    -3.55275740e+00     -2.64193889e-01     -2.76562425e-02     
O    -4.21650786e-01     -2.04692521e+00     -5.42520606e+00     
H    -7.03061230e-01     -1.22294110e+00     -5.82822427e+00     
H    -7.18271621e-02     -2.58271229e+00     -6.14413892e+00     
O    1.17478967e+00      -3.42801340e+00     2.24728191e+00      
H    5.51675074e-01      -4.00379449e+00     2.69563245e+00      
H    1.99934673e+00      -3.91838800e+00     2.22405907e+00      
26
35.528362
N    -1.54227789e-02     -5.63240112e-02     -4.94801741e-02     
H    -1.05528671e+00     -7.18571283e-02     -8.89168297e-02     
H    3.16472168e-01      8.35425320e-01      -4.71693252e-01     
H    3.22489970e-01      -1.51407250e-01     9.32832736e-01      
C    5.24324866e-01      -1.19098982e+00     -8.19706400e-01     
H    1.61041972e+00      -1.15560972e+00     -7.92707239e-01     
H    1.89023497e-01      -2.12222473e+00     -3.70558237e-01     
C    3.80888261e-02      -1.09511985e+00     -2.25022625e+00     
O    -6.66134869e-01     -1.94958217e-01     -2.66942394e+00     
O    4.94889963e-01      -2.11979172e+00     -2.94696256e+00     
H    1.47003126e-01      -2.05613849e+00     -3.88530991e+00     
O    1.00316157e+00      2.04763035e+00      -1.52740011e+00     
H    5.20963342e-01      2.07343314e+00      -2.35892503e+00     
H    1.33209817e+00      2.93865519e+00      -1.38262721e+00     
O    1.07924737e+00      -6.62507691e-01     2.36422135e+00      
H    1.17523052e+00      -1.61250603e+00     2.52983173e+00      
H    1.24528174e+00      -2.10899652e-01     3.19245006e+00      
O    -2.72473382e+00     -4.17303719e-01     -4.84921869e-01     
H    -2.89166091e+00     -2.17916481e-01     -1.41093943e+00     
H    -3.55404793e+00     -2.59757815e-01     -2.60574544e-02     
O    -4.17895949e-01     -2.04627712e+00     -5.42647838e+00     
H    -7.00981958e-01     -1.22297541e+00     -5.82972618e+00     
H    -6.64988229e-02     -2.58135738e+00     -6.14517250e+00     
O    1.17501431e+00      -3.42819989e+00     2.24732606e+00      
H    5.52055400e-01      -4.00341552e+00     2.69662790e+00      
H    1.99923867e+00      -3.91910195e+00     2.22332386e+00      
26
35.528362
N    -1.72730109e-02     -5.71292423e-02     -4.87167204e-02     
H    -1.05723130e+00     -7.16975264e-02     -8.72914198e-02     
H    3.14930473e-01      8.34141902e-01      -4.71631380e-01     
H    3.21766124e-01      -1.51926313e-01     9.33231389e-01      
C    5.21499910e-01      -1.19234445e+00     -8.18817061e-01     
H    1.60761120e+00      -1.15798191e+00     -7.91392453e-01     
H    1.85200054e-01      -2.12328862e+00     -3.69787233e-01     
C    3.59026431e-02      -1.09610525e+00     -2.24952199e+00     
O    -6.70319889e-01     -1.97264025e-01     -2.66819951e+00     
O    4.95823576e-01      -2.11893279e+00     -2.94696228e+00     
H    1.49370245e-01      -2.05495861e+00     -3.88580086e+00     
O    1.00170919e+00      2.04486203e+00      -1.52941006e+00     
H    5.18347554e-01      2.07121736e+00      -2.36024538e+00     
H    1.33238677e+00      2.93538408e+00      -1.38542828e+00     
O    1.08382856e+00      -6.62589586e-01     2.36221266e+00      
H    1.17871678e+00      -1.61262259e+00     2.52832265e+00      
H    1.25095326e+00      -2.10755835e-01     3.19011420e+00      
O    -2.72774687e+00     -4.11816289e-01     -4.81375518e-01     
H    -2.89397010e+00     -2.13894281e-01     -1.40784112e+00     
H    -3.55662898e+00     -2.50885667e-01     -2.28598782e-02     
O    -4.10386275e-01     -2.04498093e+00     -5.42902300e+00     
H    -6.96823416e-01     -1.22304402e+00     -5.83273001e+00     
H    -5.58421444e-02     -2.57864758e+00     -6.14723965e+00     
O    1.17546360e+00      -3.42857285e+00     2.24741437e+00      
H    5.52816051e-01      -4.00265757e+00     2.69861882e+00      
H    1.99902257e+00      -3.92052985e+00     2.22185344e+00      
26
35.528362
N    -1.91232429e-02     -5.79344734e-02     -4.79532667e-02     
H    -1.05917590e+00     -7.15379245e-02     -8.56660100e-02     
H    3.13388779e-01      8.32858485e-01      -4.71569508e-01     
H    3.21042277e-01      -1.52445377e-01     9.33630043e-01      
C    5.18674953e-01      -1.19369908e+00     -8.17927721e-01     
H    1.60480267e+00      -1.16035410e+00     -7.90077667e-01     
H    1.81376612e-01      -2.12435251e+00     -3.69016229e-01     
C    3.37164602e-02      -1.09709065e+00     -2.24881774e+00     
O    -6.74504908e-01     -1.99569833e-01     -2.66697509e+00     
O    4.96757189e-01      -2.11807385e+00     -2.94696200e+00     
H    1.51737364e-01      -2.05377873e+00     -3.88629182e+00     
O    1.00025680e+00      2.04209370e+00      -1.53142000e+00     
H    5.15731766e-01      2.06900158e+00      -2.36156573e+00     
H    1.33267536e+00      2.93211296e+00      -1.38822935e+00     
O    1.08840976e+00      -6.62671481e-01     2.36020397e+00      
H    1.18220303e+00      -1.61273914e+00     2.52681357e+00      
H    1.25662478e+00      -2.10612018e-01     3.18777834e+00      
O    -2.73075991e+00     -4.06328859e-01     -4.77829167e-01     
H    -2.89627929e+00     -2.09872081e-01     -1.40474281e+00     
H    -3.55921004e+00     -2.42013519e-01     -1.96623020e-02     
O    -4.02876601e-01     -2.04368475e+00     -5.43156763e+00     
H    -6.92664873e-01     -1.22311263e+00     -5.83573383e+00     
H    -4.51854660e-02     -2.57593777e+00     -6.14930681e+00     
O    1.17591289e+00      -3.42894582e+00     2.24750267e+00      
H    5.53576703e-01      -4.00189962e+00     2.70060974e+00      
H    1.99880646e+00      -3.92195776e+00     2.22038301e+00      
26
35.528362
N    -2.09734750e-02     -5.87397046e-02     -4.71898131e-02     
H    -1.06112049e+00     -7.13783225e-02     -8.40406001e-02     
H    3.11847085e-01      8.31575067e-01      -4.71507637e-01     
H    3.20318431e-01      -1.52964440e-01     9.34028697e-01      
C    5.15849996e-01      -1.19505371e+00     -8.17038381e-01     
H    1.60199414e+00      -1.16272629e+00     -7.88762881e-01     
H    1.77553169e-01      -2.12541640e+00     -3.68245224e-01     
C    3.15302772e-02      -1.09807605e+00     -2.24811348e+00     
O    -6.78689928e-01     -2.01875642e-01     -2.66575067e+00     
O    4.97690802e-01      -2.11721492e+00     -2.94696172e+00     
H    1.54104483e-01      -2.05259885e+00     -3.88678277e+00     
O    9.98804412e-01      2.03932538e+00      -1.53342994e+00     
H    5.13115979e-01      2.06678580e+00      -2.36288607e+00     
H    1.33296395e+00      2.92884184e+00      -1.39103043e+00     
O    1.09299095e+00      -6.62753376e-01     2.35819527e+00      
H    1.18568928e+00      -1.61285569e+00     2.52530448e+00      
H    1.26229630e+00      -2.10468202e-01     3.18544249e+00      
O    -2.73377296e+00     -4.00841430e-01     -4.74282815e-01     
H    -2.89858848e+00     -2.05849881e-01     -1.40164450e+00     
H    -3.56179109e+00     -2.33141372e-01     -1.64647258e-02     
O    -3.95366928e-01     -2.04238856e+00     -5.43411226e+00     
H    -6.88506330e-01     -1.22318124e+00     -5.83873765e+00     
H    -3.45287876e-02     -2.57322796e+00     -6.15137397e+00     
O    1.17636217e+00      -3.42931879e+00     2.24759097e+00      
H    5.54337355e-01      -4.00114167e+00     2.70260066e+00      
H    1.99859035e+00      -3.92338566e+00     2.21891259e+00      
26
35.528362
N    -2.28237070e-02     -5.95449357e-02     -4.64263594e-02     
H    -1.06306509e+00     -7.12187206e-02     -8.24151903e-02     
H    3.10305391e-01      8.30291650e-01      -4.71445765e-01     
H    3.19594584e-01      -1.53483503e-01     9.34427351e-01      
C    5.13025039e-01      -1.19640834e+00     -8.16149041e-01     
H    1.59918561e+00      -1.16509849e+00     -7.87448095e-01     
H    1.73729726e-01      -2.12648028e+00     -3.67474220e-01     
C    2.93440943e-02      -1.09906145e+00     -2.24740922e+00     
O    -6.82874947e-01     -2.04181450e-01     -2.66452625e+00     
O    4.98624414e-01      -2.11635599e+00     -2.94696143e+00     
H    1.56471602e-01      -2.05141897e+00     -3.88727373e+00     
O    9.97352025e-01      2.03655706e+00      -1.53543988e+00     
H    5.10500191e-01      2.06457002e+00      -2.36420642e+00     
H    1.33325254e+00      2.92557072e+00      -1.39383150e+00     
O    1.09757214e+00      -6.62835271e-01     2.35618658e+00      
H    1.18917553e+00      -1.61297224e+00     2.52379540e+00      
H    1.26796781e+00      -2.10324385e-01     3.18310663e+00      
O    -2.73678601e+00     -3.95354000e-01     -4.70736464e-01     
H    -2.90089767e+00     -2.01827680e-01     -1.39854619e+00     
H    -3.56437214e+00     -2.24269224e-01     -1.32671496e-02     
O    -3.87857254e-01     -2.04109237e+00     -5.43665689e+00     
H    -6.84347787e-01     -1.22324985e+00     -5.84174147e+00     
H    -2.38721092e-02     -2.57051815e+00     -6.15344113e+00     
O    1.17681146e+00      -3.42969176e+00     2.24767927e+00      
H    5.55098007e-01      -4.00038372e+00     2.70459157e+00      
H    1.99837424e+00      -3.92481357e+00     2.21744217e+00      
26
35.528362
N    -2.65241710e-02     -6.11553980e-02     -4.48994521e-02     
H    -1.06695428e+00     -7.08995167e-02     -7.91643706e-02     
H    3.07222003e-01      8.27724815e-01      -4.71322021e-01     
H    3.18146891e-01      -1.54521629e-01     9.35224658e-01      
C    5.07375126e-01      -1.19911760e+00     -8.14370362e-01     
H    1.59356856e+00      -1.16984287e+00     -7.84818523e-01     
H    1.66082840e-01      -2.12860806e+00     -3.65932211e-01     
C    2.49717284e-02      -1.10103225e+00     -2.24600071e+00     
O    -6.91244986e-01     -2.08793067e-01     -2.66207740e+00     
O    5.00491640e-01      -2.11463813e+00     -2.94696087e+00     
H    1.61205840e-01      -2.04905921e+00     -3.88825564e+00     
O    9.94447249e-01      2.03102041e+00      -1.53945977e+00     
H    5.05268616e-01      2.06013846e+00      -2.36684711e+00     
H    1.33382973e+00      2.91902848e+00      -1.39943365e+00     
O    1.10673453e+00      -6.62999061e-01     2.35216920e+00      
H    1.19614804e+00      -1.61320535e+00     2.52077723e+00      
H    1.27931085e+00      -2.10036751e-01     3.17843491e+00      
O    -2.74281211e+00     -3.84379141e-01     -4.63643761e-01     
H    -2.90551605e+00     -1.93783280e-01     -1.39234957e+00     
H    -3.56953425e+00     -2.06524929e-01     -6.87199716e-03     
O    -3.72837907e-01     -2.03850000e+00     -5.44174614e+00     
H    -6.76030701e-01     -1.22338706e+00     -5.84774911e+00     
H    -2.55875236e-03     -2.56509854e+00     -6.15757544e+00     
O    1.17771003e+00      -3.43043769e+00     2.24785588e+00      
H    5.56619310e-01      -3.99886782e+00     2.70857341e+00      
H    1.99794203e+00      -3.92766937e+00     2.21450133e+00      
