26
37.831172
N    -1.41917869e-02     -5.67418304e-02     -5.23692366e-02     
H    -1.05380827e+00     -7.64459427e-02     -9.38840985e-02     
H    3.18666473e-01      8.32696022e-01      -4.78162143e-01     
H    3.19922477e-01      -1.46089120e-01     9.31857427e-01      
C    5.29139499e-01      -1.19280044e+00     -8.17864290e-01     
H    1.61511265e+00      -1.15387949e+00     -7.92069863e-01     
H    1.96497573e-01      -2.12362078e+00     -3.65986377e-01     
C    4.13554986e-02      -1.10168020e+00     -2.24812052e+00     
O    -6.69250034e-01     -2.06213132e-01     -2.66745799e+00     
O    5.03000598e-01      -2.12307224e+00     -2.94626808e+00     
H    1.51323500e-01      -2.05615581e+00     -3.88317625e+00     
O    1.03741334e+00      2.02123490e+00      -1.54480148e+00     
H    5.55544502e-01      2.05535203e+00      -2.37626854e+00     
H    1.38377293e+00      2.90628359e+00      -1.40183868e+00     
O    1.05542726e+00      -6.41202948e-01     2.37783440e+00      
H    1.15737654e+00      -1.59094649e+00     2.54075387e+00      
H    1.20829984e+00      -1.90491404e-01     3.20907904e+00      
O    -2.71995906e+00     -4.58468586e-01     -4.77747692e-01     
H    -2.89814152e+00     -2.62713181e-01     -1.40250955e+00     
H    -3.54713006e+00     -3.10755141e-01     -1.16913587e-02     
O    -4.35056799e-01     -2.00860614e+00     -5.41569089e+00     
H    -7.61327976e-01     -1.17493369e+00     -5.76792170e+00     
H    -7.55476392e-02     -2.49044639e+00     -6.17034742e+00     
O    1.16692158e+00      -3.40345771e+00     2.22990586e+00      
H    5.43846221e-01      -3.98649892e+00     2.66894817e+00      
H    1.99424035e+00      -3.88927672e+00     2.20809299e+00      
26
37.831172
N    -1.35744189e-02     -5.62347600e-02     -5.20286978e-02     
H    -1.05320559e+00     -7.53785401e-02     -9.34549862e-02     
H    3.18888744e-01      8.34020055e-01      -4.76575856e-01     
H    3.20926273e-01      -1.47159121e-01     9.31901928e-01      
C    5.29348320e-01      -1.19167047e+00     -8.18769487e-01     
H    1.61534368e+00      -1.15312595e+00     -7.92886600e-01     
H    1.96540775e-01      -2.12273982e+00     -3.67514845e-01     
C    4.16319220e-02      -1.09954741e+00     -2.24899908e+00     
O    -6.66378733e-01     -2.02246499e-01     -2.66856169e+00     
O    5.00506133e-01      -2.12268157e+00     -2.94644185e+00     
H    1.49059847e-01      -2.05674142e+00     -3.88346419e+00     
O    1.02957659e+00      2.02921792e+00      -1.53944617e+00     
H    5.48207106e-01      2.06098020e+00      -2.37127249e+00     
H    1.37070995e+00      2.91601205e+00      -1.39563527e+00     
O    1.05909169e+00      -6.46488186e-01     2.37543548e+00      
H    1.16009691e+00      -1.59627810e+00     2.53877787e+00      
H    1.21470956e+00      -1.95665375e-01     3.20608972e+00      
O    -2.71964623e+00     -4.50921084e-01     -4.81314412e-01     
H    -2.89536677e+00     -2.53525106e-01     -1.40616617e+00     
H    -3.54756900e+00     -3.02441883e-01     -1.68816707e-02     
O    -4.34521423e-01     -2.01867198e+00     -5.41711545e+00     
H    -7.48320743e-01     -1.18690982e+00     -5.78187091e+00     
H    -7.86137743e-02     -2.51452904e+00     -6.16302011e+00     
O    1.16872012e+00      -3.40945677e+00     2.23421676e+00      
H    5.45518190e-01      -3.99110704e+00     2.67487264e+00      
H    1.99559799e+00      -3.89601908e+00     2.21263592e+00      
26
37.831172
N    -1.32657349e-02     -5.59812249e-02     -5.18584284e-02     
H    -1.05290424e+00     -7.48448388e-02     -9.32404301e-02     
H    3.18999879e-01      8.34682072e-01      -4.75782713e-01     
H    3.21428172e-01      -1.47694122e-01     9.31924178e-01      
C    5.29452730e-01      -1.19110548e+00     -8.19222086e-01     
H    1.61545920e+00      -1.15274918e+00     -7.93294968e-01     
H    1.96562377e-01      -2.12229934e+00     -3.68279078e-01     
C    4.17701336e-02      -1.09848102e+00     -2.24943836e+00     
O    -6.64943082e-01     -2.00263183e-01     -2.66911354e+00     
O    4.99258901e-01      -2.12248624e+00     -2.94652873e+00     
H    1.47928020e-01      -2.05703423e+00     -3.88360816e+00     
O    1.02565822e+00      2.03320944e+00      -1.53676851e+00     
H    5.44538408e-01      2.06379428e+00      -2.36877447e+00     
H    1.36417845e+00      2.92087628e+00      -1.39253357e+00     
O    1.06092390e+00      -6.49130805e-01     2.37423602e+00      
H    1.16145709e+00      -1.59894391e+00     2.53778988e+00      
H    1.21791441e+00      -1.98252360e-01     3.20459507e+00      
O    -2.71948981e+00     -4.47147333e-01     -4.83097772e-01     
H    -2.89397940e+00     -2.48931069e-01     -1.40799449e+00     
H    -3.54778847e+00     -2.98285254e-01     -1.94768267e-02     
O    -4.34253735e-01     -2.02370490e+00     -5.41782773e+00     
H    -7.41817127e-01     -1.19289788e+00     -5.78884552e+00     
H    -8.01468419e-02     -2.52657037e+00     -6.15935646e+00     
O    1.16961939e+00      -3.41245630e+00     2.23637221e+00      
H    5.46354174e-01      -3.99341111e+00     2.67783488e+00      
H    1.99627680e+00      -3.89939025e+00     2.21490738e+00      
26
37.831172
N    -1.29570509e-02     -5.57276897e-02     -5.16881590e-02     
H    -1.05260290e+00     -7.43111375e-02     -9.30258739e-02     
H    3.19111015e-01      8.35344088e-01      -4.74989570e-01     
H    3.21930070e-01      -1.48229122e-01     9.31946428e-01      
C    5.29557140e-01      -1.19054050e+00     -8.19674685e-01     
H    1.61557471e+00      -1.15237241e+00     -7.93703337e-01     
H    1.96583978e-01      -2.12185887e+00     -3.69043312e-01     
C    4.19083453e-02      -1.09741462e+00     -2.24987764e+00     
O    -6.63507432e-01     -1.98279866e-01     -2.66966539e+00     
O    4.98011668e-01      -2.12229091e+00     -2.94661561e+00     
H    1.46796194e-01      -2.05732703e+00     -3.88375213e+00     
O    1.02173984e+00      2.03720095e+00      -1.53409085e+00     
H    5.40869710e-01      2.06660837e+00      -2.36627644e+00     
H    1.35764696e+00      2.92574051e+00      -1.38943187e+00     
O    1.06275612e+00      -6.51773425e-01     2.37303656e+00      
H    1.16281728e+00      -1.60160971e+00     2.53680188e+00      
H    1.22111927e+00      -2.00839345e-01     3.20310041e+00      
O    -2.71933339e+00     -4.43373582e-01     -4.84881132e-01     
H    -2.89259202e+00     -2.44337032e-01     -1.40982280e+00     
H    -3.54800794e+00     -2.94128625e-01     -2.20719827e-02     
O    -4.33986048e-01     -2.02873782e+00     -5.41854000e+00     
H    -7.35313510e-01     -1.19888594e+00     -5.79582012e+00     
H    -8.16799094e-02     -2.53861169e+00     -6.15569280e+00     
O    1.17051866e+00      -3.41545583e+00     2.23852766e+00      
H    5.47190158e-01      -3.99571517e+00     2.68079712e+00      
H    1.99695562e+00      -3.90276143e+00     2.21717885e+00      
26
37.831172
N    -1.26483668e-02     -5.54741545e-02     -5.15178896e-02     
H    -1.05230155e+00     -7.37774362e-02     -9.28113178e-02     
H    3.19222150e-01      8.36006105e-01      -4.74196426e-01     
H    3.22431968e-01      -1.48764123e-01     9.31968678e-01      
C    5.29661550e-01      -1.18997551e+00     -8.20127284e-01     
H    1.61569023e+00      -1.15199564e+00     -7.94111705e-01     
H    1.96605579e-01      -2.12141839e+00     -3.69807545e-01     
C    4.20465570e-02      -1.09634823e+00     -2.25031692e+00     
O    -6.62071781e-01     -1.96296550e-01     -2.67021723e+00     
O    4.96764436e-01      -2.12209558e+00     -2.94670249e+00     
H    1.45664367e-01      -2.05761984e+00     -3.88389609e+00     
O    1.01782147e+00      2.04119246e+00      -1.53141320e+00     
H    5.37201011e-01      2.06942245e+00      -2.36377842e+00     
H    1.35111547e+00      2.93060474e+00      -1.38633017e+00     
O    1.06458833e+00      -6.54416044e-01     2.37183711e+00      
H    1.16417746e+00      -1.60427552e+00     2.53581389e+00      
H    1.22432413e+00      -2.03426330e-01     3.20160575e+00      
O    -2.71917697e+00     -4.39599831e-01     -4.86664492e-01     
H    -2.89120465e+00     -2.39742994e-01     -1.41165111e+00     
H    -3.54822741e+00     -2.89971997e-01     -2.46671388e-02     
O    -4.33718360e-01     -2.03377074e+00     -5.41925228e+00     
H    -7.28809894e-01     -1.20487400e+00     -5.80279473e+00     
H    -8.32129770e-02     -2.55065302e+00     -6.15202915e+00     
O    1.17141793e+00      -3.41845536e+00     2.24068311e+00      
H    5.48026143e-01      -3.99801923e+00     2.68375936e+00      
H    1.99763444e+00      -3.90613261e+00     2.21945031e+00      
26
37.831172
N    -1.23396828e-02     -5.52206193e-02     -5.13476202e-02     
H    -1.05200021e+00     -7.32437348e-02     -9.25967617e-02     
H    3.19333285e-01      8.36668122e-01      -4.73403283e-01     
H    3.22933866e-01      -1.49299123e-01     9.31990928e-01      
C    5.29765960e-01      -1.18941053e+00     -8.20579882e-01     
H    1.61580575e+00      -1.15161887e+00     -7.94520074e-01     
H    1.96627180e-01      -2.12097791e+00     -3.70571779e-01     
C    4.21847687e-02      -1.09528184e+00     -2.25075620e+00     
O    -6.60636131e-01     -1.94313233e-01     -2.67076908e+00     
O    4.95517203e-01      -2.12190024e+00     -2.94678937e+00     
H    1.44532541e-01      -2.05791264e+00     -3.88404006e+00     
O    1.01390310e+00      2.04518397e+00      -1.52873554e+00     
H    5.33532313e-01      2.07223653e+00      -2.36128039e+00     
H    1.34458398e+00      2.93546897e+00      -1.38322846e+00     
O    1.06642055e+00      -6.57058663e-01     2.37063765e+00      
H    1.16553765e+00      -1.60694132e+00     2.53482589e+00      
H    1.22752899e+00      -2.06013316e-01     3.20011109e+00      
O    -2.71902056e+00     -4.35826080e-01     -4.88447852e-01     
H    -2.88981728e+00     -2.35148957e-01     -1.41347942e+00     
H    -3.54844688e+00     -2.85815368e-01     -2.72622948e-02     
O    -4.33450672e-01     -2.03880365e+00     -5.41996456e+00     
H    -7.22306277e-01     -1.21086207e+00     -5.80976933e+00     
H    -8.47460446e-02     -2.56269435e+00     -6.14836549e+00     
O    1.17231720e+00      -3.42145489e+00     2.24283856e+00      
H    5.48862127e-01      -4.00032329e+00     2.68672159e+00      
H    1.99831326e+00      -3.90950379e+00     2.22172177e+00      
26
37.831172
N    -1.21853408e-02     -5.50938517e-02     -5.12624855e-02     
H    -1.05184954e+00     -7.29768842e-02     -9.24894836e-02     
H    3.19388853e-01      8.36999130e-01      -4.73006711e-01     
H    3.23184816e-01      -1.49566623e-01     9.32002053e-01      
C    5.29818165e-01      -1.18912804e+00     -8.20806182e-01     
H    1.61586350e+00      -1.15143048e+00     -7.94724258e-01     
H    1.96637981e-01      -2.12075768e+00     -3.70953896e-01     
C    4.22538745e-02      -1.09474864e+00     -2.25097584e+00     
O    -6.59918306e-01     -1.93321575e-01     -2.67104501e+00     
O    4.94893587e-01      -2.12180258e+00     -2.94683281e+00     
H    1.43966628e-01      -2.05805904e+00     -3.88411205e+00     
O    1.01194391e+00      2.04717973e+00      -1.52739671e+00     
H    5.31697964e-01      2.07364358e+00      -2.36003138e+00     
H    1.34131823e+00      2.93790109e+00      -1.38167761e+00     
O    1.06733666e+00      -6.58379972e-01     2.37003792e+00      
H    1.16621774e+00      -1.60827422e+00     2.53433189e+00      
H    1.22913142e+00      -2.07306808e-01     3.19936377e+00      
O    -2.71894235e+00     -4.33939205e-01     -4.89339532e-01     
H    -2.88912359e+00     -2.32851938e-01     -1.41439358e+00     
H    -3.54855662e+00     -2.83737053e-01     -2.85598728e-02     
O    -4.33316828e-01     -2.04132011e+00     -5.42032070e+00     
H    -7.19054469e-01     -1.21385610e+00     -5.81325663e+00     
H    -8.55125784e-02     -2.56871501e+00     -6.14653366e+00     
O    1.17276684e+00      -3.42295466e+00     2.24391628e+00      
H    5.49280119e-01      -4.00147533e+00     2.68820271e+00      
H    1.99865266e+00      -3.91118937e+00     2.22285750e+00      
26
37.831172
N    -1.20309988e-02     -5.49670841e-02     -5.11773508e-02     
H    -1.05169886e+00     -7.27100335e-02     -9.23822055e-02     
H    3.19444421e-01      8.37330138e-01      -4.72610139e-01     
H    3.23435765e-01      -1.49834124e-01     9.32013178e-01      
C    5.29870370e-01      -1.18884554e+00     -8.21032481e-01     
H    1.61592126e+00      -1.15124210e+00     -7.94928442e-01     
H    1.96648782e-01      -2.12053744e+00     -3.71336012e-01     
C    4.23229803e-02      -1.09421544e+00     -2.25119548e+00     
O    -6.59200480e-01     -1.92329917e-01     -2.67132093e+00     
O    4.94269971e-01      -2.12170491e+00     -2.94687625e+00     
H    1.43400714e-01      -2.05820545e+00     -3.88418403e+00     
O    1.00998472e+00      2.04917549e+00      -1.52605789e+00     
H    5.29863615e-01      2.07505062e+00      -2.35878237e+00     
H    1.33805248e+00      2.94033320e+00      -1.38012676e+00     
O    1.06825276e+00      -6.59701282e-01     2.36943819e+00      
H    1.16689783e+00      -1.60960713e+00     2.53383790e+00      
H    1.23073385e+00      -2.08600301e-01     3.19861644e+00      
O    -2.71886414e+00     -4.32052329e-01     -4.90231212e-01     
H    -2.88842990e+00     -2.30554919e-01     -1.41530774e+00     
H    -3.54866635e+00     -2.81658739e-01     -2.98574508e-02     
O    -4.33182984e-01     -2.04383657e+00     -5.42067684e+00     
H    -7.15802661e-01     -1.21685013e+00     -5.81674394e+00     
H    -8.62791121e-02     -2.57473567e+00     -6.14470184e+00     
O    1.17321647e+00      -3.42445442e+00     2.24499401e+00      
H    5.49698112e-01      -4.00262736e+00     2.68968383e+00      
H    1.99899207e+00      -3.91287496e+00     2.22399324e+00      
26
37.831172
N    -1.14136308e-02     -5.44600137e-02     -5.08368120e-02     
H    -1.05109618e+00     -7.16426309e-02     -9.19530933e-02     
H    3.19666691e-01      8.38654172e-01      -4.71023853e-01     
H    3.24439561e-01      -1.50904124e-01     9.32057678e-01      
C    5.30079190e-01      -1.18771558e+00     -8.21937679e-01     
H    1.61615230e+00      -1.15048856e+00     -7.95745180e-01     
H    1.96691984e-01      -2.11965648e+00     -3.72864480e-01     
C    4.25994037e-02      -1.09208266e+00     -2.25207404e+00     
O    -6.56329180e-01     -1.88363283e-01     -2.67242463e+00     
O    4.91775505e-01      -2.12131425e+00     -2.94705001e+00     
H    1.41137062e-01      -2.05879105e+00     -3.88447197e+00     
O    1.00214798e+00      2.05715851e+00      -1.52070257e+00     
H    5.22526219e-01      2.08067878e+00      -2.35378631e+00     
H    1.32498950e+00      2.95006166e+00      -1.37392336e+00     
O    1.07191720e+00      -6.64986520e-01     2.36703927e+00      
H    1.16961821e+00      -1.61493873e+00     2.53186190e+00      
H    1.23714357e+00      -2.13774271e-01     3.19562712e+00      
O    -2.71855130e+00     -4.24504827e-01     -4.93797932e-01     
H    -2.88565516e+00     -2.21366845e-01     -1.41896436e+00     
H    -3.54910529e+00     -2.73345481e-01     -3.50477628e-02     
O    -4.32647608e-01     -2.05390241e+00     -5.42210140e+00     
H    -7.02795427e-01     -1.22882625e+00     -5.83069314e+00     
H    -8.93452473e-02     -2.59881833e+00     -6.13737452e+00     
O    1.17501501e+00      -3.43045348e+00     2.24930491e+00      
H    5.51370080e-01      -4.00723548e+00     2.69560831e+00      
H    2.00034971e+00      -3.91961732e+00     2.22853616e+00      
26
37.831172
N    -1.12592888e-02     -5.43332461e-02     -5.07516773e-02     
H    -1.05094550e+00     -7.13757802e-02     -9.18458152e-02     
H    3.19722259e-01      8.38985180e-01      -4.70627281e-01     
H    3.24690510e-01      -1.51171625e-01     9.32068803e-01      
C    5.30131395e-01      -1.18743308e+00     -8.22163978e-01     
H    1.61621006e+00      -1.15030018e+00     -7.95949364e-01     
H    1.96702785e-01      -2.11943624e+00     -3.73246596e-01     
C    4.26685095e-02      -1.09154946e+00     -2.25229368e+00     
O    -6.55611354e-01     -1.87371625e-01     -2.67270055e+00     
O    4.91151889e-01      -2.12121658e+00     -2.94709345e+00     
H    1.40571148e-01      -2.05893746e+00     -3.88454395e+00     
O    1.00018879e+00      2.05915427e+00      -1.51936375e+00     
H    5.20691870e-01      2.08208582e+00      -2.35253730e+00     
H    1.32172375e+00      2.95249377e+00      -1.37237251e+00     
O    1.07283330e+00      -6.66307830e-01     2.36643954e+00      
H    1.17029830e+00      -1.61627164e+00     2.53136791e+00      
H    1.23874600e+00      -2.15067764e-01     3.19487979e+00      
O    -2.71847309e+00     -4.22617951e-01     -4.94689612e-01     
H    -2.88496147e+00     -2.19069826e-01     -1.41987852e+00     
H    -3.54921502e+00     -2.71267167e-01     -3.63453408e-02     
O    -4.32513764e-01     -2.05641887e+00     -5.42245754e+00     
H    -6.99543619e-01     -1.23182028e+00     -5.83418045e+00     
H    -9.01117810e-02     -2.60483899e+00     -6.13554270e+00     
O    1.17546464e+00      -3.43195324e+00     2.25038264e+00      
H    5.51788073e-01      -4.00838751e+00     2.69708943e+00      
H    2.00068912e+00      -3.92130291e+00     2.22967190e+00      
26
37.831172
N    -1.11049468e-02     -5.42064785e-02     -5.06665426e-02     
H    -1.05079483e+00     -7.11089296e-02     -9.17385371e-02     
H    3.19777827e-01      8.39316188e-01      -4.70230709e-01     
H    3.24941460e-01      -1.51439125e-01     9.32079928e-01      
C    5.30183600e-01      -1.18715059e+00     -8.22390278e-01     
H    1.61626781e+00      -1.15011179e+00     -7.96153548e-01     
H    1.96713586e-01      -2.11921601e+00     -3.73628713e-01     
C    4.27376153e-02      -1.09101626e+00     -2.25251332e+00     
O    -6.54893529e-01     -1.86379967e-01     -2.67297648e+00     
O    4.90528273e-01      -2.12111892e+00     -2.94713689e+00     
H    1.40005235e-01      -2.05908386e+00     -3.88461594e+00     
O    9.98229603e-01      2.06115003e+00      -1.51802492e+00     
H    5.18857521e-01      2.08349287e+00      -2.35128829e+00     
H    1.31845800e+00      2.95492589e+00      -1.37082166e+00     
O    1.07374941e+00      -6.67629139e-01     2.36583981e+00      
H    1.17097839e+00      -1.61760454e+00     2.53087391e+00      
H    1.24034843e+00      -2.16361256e-01     3.19413247e+00      
O    -2.71839488e+00     -4.20731076e-01     -4.95581292e-01     
H    -2.88426778e+00     -2.16772807e-01     -1.42079268e+00     
H    -3.54932476e+00     -2.69188852e-01     -3.76429188e-02     
O    -4.32379920e-01     -2.05893533e+00     -5.42281368e+00     
H    -6.96291811e-01     -1.23481431e+00     -5.83766775e+00     
H    -9.08783148e-02     -2.61085965e+00     -6.13371087e+00     
O    1.17591428e+00      -3.43345301e+00     2.25146036e+00      
H    5.52206065e-01      -4.00953955e+00     2.69857055e+00      
H    2.00102852e+00      -3.92298849e+00     2.23080763e+00      
26
37.831172
N    -1.07962628e-02     -5.39529433e-02     -5.04962732e-02     
H    -1.05049349e+00     -7.05752282e-02     -9.15239810e-02     
H    3.19888962e-01      8.39978205e-01      -4.69437566e-01     
H    3.25443358e-01      -1.51974125e-01     9.32102178e-01      
C    5.30288010e-01      -1.18658561e+00     -8.22842876e-01     
H    1.61638333e+00      -1.14973502e+00     -7.96561917e-01     
H    1.96735187e-01      -2.11877553e+00     -3.74392947e-01     
C    4.28758270e-02      -1.08994987e+00     -2.25295260e+00     
O    -6.53457879e-01     -1.84396650e-01     -2.67352833e+00     
O    4.89281040e-01      -2.12092358e+00     -2.94722377e+00     
H    1.38873409e-01      -2.05937666e+00     -3.88475991e+00     
O    9.94311230e-01      2.06514154e+00      -1.51534726e+00     
H    5.15188823e-01      2.08630695e+00      -2.34879026e+00     
H    1.31192651e+00      2.95979012e+00      -1.36771995e+00     
O    1.07558163e+00      -6.70271758e-01     2.36464035e+00      
H    1.17233858e+00      -1.62027034e+00     2.52988591e+00      
H    1.24355329e+00      -2.18948242e-01     3.19263781e+00      
O    -2.71823847e+00     -4.16957325e-01     -4.97364652e-01     
H    -2.88288041e+00     -2.12178770e-01     -1.42262099e+00     
H    -3.54954423e+00     -2.65032223e-01     -4.02380748e-02     
O    -4.32112232e-01     -2.06396824e+00     -5.42352596e+00     
H    -6.89788194e-01     -1.24080238e+00     -5.84464235e+00     
H    -9.24113824e-02     -2.62290098e+00     -6.13004721e+00     
O    1.17681355e+00      -3.43645254e+00     2.25361581e+00      
H    5.53042049e-01      -4.01184361e+00     2.70153278e+00      
H    2.00170734e+00      -3.92635967e+00     2.23307909e+00      
26
37.831172
N    -1.04875787e-02     -5.36994081e-02     -5.03260038e-02     
H    -1.05019214e+00     -7.00415269e-02     -9.13094249e-02     
H    3.20000097e-01      8.40640222e-01      -4.68644422e-01     
H    3.25945256e-01      -1.52509126e-01     9.32124428e-01      
C    5.30392420e-01      -1.18602062e+00     -8.23295475e-01     
H    1.61649885e+00      -1.14935825e+00     -7.96970285e-01     
H    1.96756788e-01      -2.11833505e+00     -3.75157180e-01     
C    4.30140387e-02      -1.08888348e+00     -2.25339188e+00     
O    -6.52022228e-01     -1.82413334e-01     -2.67408017e+00     
O    4.88033808e-01      -2.12072825e+00     -2.94731065e+00     
H    1.37741582e-01      -2.05966947e+00     -3.88490387e+00     
O    9.90392856e-01      2.06913305e+00      -1.51266961e+00     
H    5.11520124e-01      2.08912103e+00      -2.34629224e+00     
H    1.30539502e+00      2.96465435e+00      -1.36461825e+00     
O    1.07741384e+00      -6.72914377e-01     2.36344090e+00      
H    1.17369876e+00      -1.62293615e+00     2.52889792e+00      
H    1.24675815e+00      -2.21535227e-01     3.19114315e+00      
O    -2.71808205e+00     -4.13183574e-01     -4.99148012e-01     
H    -2.88149304e+00     -2.07584732e-01     -1.42444930e+00     
H    -3.54976370e+00     -2.60875595e-01     -4.28332309e-02     
O    -4.31844544e-01     -2.06900116e+00     -5.42423824e+00     
H    -6.83284578e-01     -1.24679044e+00     -5.85161696e+00     
H    -9.39444500e-02     -2.63494231e+00     -6.12638356e+00     
O    1.17771282e+00      -3.43945207e+00     2.25577126e+00      
H    5.53878034e-01      -4.01414767e+00     2.70449502e+00      
H    2.00238616e+00      -3.92973085e+00     2.23535055e+00      
26
37.831172
N    -1.01788947e-02     -5.34458729e-02     -5.01557344e-02     
H    -1.04989080e+00     -6.95078256e-02     -9.10948687e-02     
H    3.20111233e-01      8.41302238e-01      -4.67851279e-01     
H    3.26447154e-01      -1.53044126e-01     9.32146678e-01      
C    5.30496830e-01      -1.18545564e+00     -8.23748074e-01     
H    1.61661436e+00      -1.14898148e+00     -7.97378654e-01     
H    1.96778389e-01      -2.11789458e+00     -3.75921414e-01     
C    4.31522504e-02      -1.08781708e+00     -2.25383116e+00     
O    -6.50586578e-01     -1.80430017e-01     -2.67463202e+00     
O    4.86786575e-01      -2.12053292e+00     -2.94739753e+00     
H    1.36609756e-01      -2.05996227e+00     -3.88504784e+00     
O    9.86474483e-01      2.07312456e+00      -1.50999195e+00     
H    5.07851426e-01      2.09193512e+00      -2.34379421e+00     
H    1.29886353e+00      2.96951858e+00      -1.36151655e+00     
O    1.07924606e+00      -6.75556997e-01     2.36224144e+00      
H    1.17505895e+00      -1.62560195e+00     2.52790992e+00      
H    1.24996301e+00      -2.24122212e-01     3.18964849e+00      
O    -2.71792563e+00     -4.09409823e-01     -5.00931372e-01     
H    -2.88010566e+00     -2.02990695e-01     -1.42627761e+00     
H    -3.54998317e+00     -2.56718966e-01     -4.54283869e-02     
O    -4.31576857e-01     -2.07403408e+00     -5.42495051e+00     
H    -6.76780961e-01     -1.25277850e+00     -5.85859156e+00     
H    -9.54775175e-02     -2.64698363e+00     -6.12271990e+00     
O    1.17861209e+00      -3.44245160e+00     2.25792671e+00      
H    5.54714018e-01      -4.01645173e+00     2.70745726e+00      
H    2.00306498e+00      -3.93310203e+00     2.23762202e+00      
26
37.831172
N    -9.87021072e-03     -5.31923378e-02     -4.99854650e-02     
H    -1.04958945e+00     -6.89741243e-02     -9.08803126e-02     
H    3.20222368e-01      8.41964255e-01      -4.67058136e-01     
H    3.26949053e-01      -1.53579127e-01     9.32168928e-01      
C    5.30601240e-01      -1.18489065e+00     -8.24200673e-01     
H    1.61672988e+00      -1.14860471e+00     -7.97787022e-01     
H    1.96799991e-01      -2.11745410e+00     -3.76685647e-01     
C    4.32904620e-02      -1.08675069e+00     -2.25427044e+00     
O    -6.49150927e-01     -1.78446701e-01     -2.67518387e+00     
O    4.85539343e-01      -2.12033759e+00     -2.94748441e+00     
H    1.35477929e-01      -2.06025508e+00     -3.88519181e+00     
O    9.82556109e-01      2.07711608e+00      -1.50731429e+00     
H    5.04182728e-01      2.09474920e+00      -2.34129619e+00     
H    1.29233203e+00      2.97438281e+00      -1.35841485e+00     
O    1.08107827e+00      -6.78199616e-01     2.36104198e+00      
H    1.17641913e+00      -1.62826776e+00     2.52692193e+00      
H    1.25316786e+00      -2.26709197e-01     3.18815384e+00      
O    -2.71776921e+00     -4.05636072e-01     -5.02714732e-01     
H    -2.87871829e+00     -1.98396658e-01     -1.42810593e+00     
H    -3.55020264e+00     -2.52562337e-01     -4.80235429e-02     
O    -4.31309169e-01     -2.07906700e+00     -5.42566279e+00     
H    -6.70277345e-01     -1.25876656e+00     -5.86556617e+00     
H    -9.70105851e-02     -2.65902496e+00     -6.11905625e+00     
O    1.17951136e+00      -3.44545113e+00     2.26008216e+00      
H    5.55550002e-01      -4.01875580e+00     2.71041950e+00      
H    2.00374379e+00      -3.93647320e+00     2.23989348e+00      
26
37.831172
N    -9.25284270e-03     -5.26852674e-02     -4.96449262e-02     
H    -1.04898677e+00     -6.79067217e-02     -9.04512003e-02     
H    3.20444639e-01      8.43288288e-01      -4.65471849e-01     
H    3.27952849e-01      -1.54649128e-01     9.32213429e-01      
C    5.30810061e-01      -1.18376068e+00     -8.25105870e-01     
H    1.61696091e+00      -1.14785117e+00     -7.98603759e-01     
H    1.96843193e-01      -2.11657314e+00     -3.78214115e-01     
C    4.35668854e-02      -1.08461790e+00     -2.25514900e+00     
O    -6.46279626e-01     -1.74480068e-01     -2.67628757e+00     
O    4.83044878e-01      -2.11994692e+00     -2.94765818e+00     
H    1.33214276e-01      -2.06084069e+00     -3.88547975e+00     
O    9.74719362e-01      2.08509910e+00      -1.50195898e+00     
H    4.96845332e-01      2.10037737e+00      -2.33630014e+00     
H    1.27926905e+00      2.98411127e+00      -1.35221144e+00     
O    1.08474270e+00      -6.83484854e-01     2.35864306e+00      
H    1.17913950e+00      -1.63359937e+00     2.52494593e+00      
H    1.25957758e+00      -2.31883168e-01     3.18516452e+00      
O    -2.71745638e+00     -3.98088570e-01     -5.06281452e-01     
H    -2.87594354e+00     -1.89208583e-01     -1.43176255e+00     
H    -3.55064158e+00     -2.44249079e-01     -5.32138549e-02     
O    -4.30773793e-01     -2.08913284e+00     -5.42708735e+00     
H    -6.57270112e-01     -1.27074269e+00     -5.87951538e+00     
H    -1.00076720e-01     -2.68310761e+00     -6.11172894e+00     
O    1.18130990e+00      -3.45145019e+00     2.26439306e+00      
H    5.57221971e-01      -4.02336392e+00     2.71634397e+00      
H    2.00510143e+00      -3.94321556e+00     2.24443641e+00      
