14
unconverged
N    -4.13620139e-01     -4.36698176e-03     7.83804955e-01      
H    -3.54402789e-02     1.35895622e-02      -1.90762093e-01     
H    -1.07617810e+00     7.58518895e-01      9.02340309e-01      
H    -8.92098799e-01     -9.07436746e-01     9.18944086e-01      
C    7.01447872e-01      4.77120960e-02      1.77166807e+00      
H    1.54971564e+00      5.73394149e-01      1.34236003e+00      
H    3.81054715e-01      5.59726765e-01      2.67612966e+00      
C    1.04716041e+00      -1.39464950e+00     2.10275809e+00      
O    3.66410015e-01      -2.31893068e+00     1.71393674e+00      
O    2.13563612e+00      -1.46060898e+00     2.85706942e+00      
H    2.30293702e+00      -2.39783724e+00     3.06861023e+00      
O    8.82117236e-01      -2.38512561e-02     -1.62700297e+00     
H    1.01745739e+00      6.91531086e-01      -2.25357268e+00     
H    1.07414745e+00      -8.29072030e-01     -2.11446700e+00     
14
unconverged
N    -2.66992741e-03     -1.39714269e-02     -1.25153528e-02     
H    -7.02281305e-02     6.19474367e-02      -1.02553512e+00     
H    6.95638813e-02      -1.00196142e+00     2.22462327e-01      
H    8.52442504e-01      4.79476556e-01      3.12425421e-01      
C    -1.13114972e+00     6.66098466e-01      6.93821158e-01      
H    -1.81739296e+00     1.09673386e+00      -2.90476438e-02     
H    -1.66675040e+00     -4.71894746e-02     1.31296867e+00      
C    -4.84080713e-01     1.75668169e+00      1.55071368e+00      
O    7.25507360e-01      1.90537363e+00      1.54089601e+00      
O    -1.38533440e+00     2.42185584e+00      2.21954102e+00      
H    -9.51619143e-01     3.13537378e+00      2.77850965e+00      
O    -3.68639575e-01     4.31665383e+00      3.72777232e+00      
H    -8.85345144e-01     4.91671293e+00      4.27145506e+00      
H    5.44721615e-01      4.58946111e+00      3.83097437e+00      
17
unconverged
N    3.09005786e-01      -9.62115806e-01     -3.20503545e-01     
H    3.28889632e-01      -9.76498634e-02     -9.08846221e-01     
H    1.23337315e+00      -1.38439875e+00     -3.14177780e-01     
H    3.71230071e-02      -7.12846419e-01     6.58163080e-01      
C    -6.89985263e-01     -1.90511491e+00     -8.76723632e-01     
H    -4.19329211e-01     -2.16957967e+00     -1.89609061e+00     
H    -7.21904835e-01     -2.80756724e+00     -2.71028757e-01     
C    -2.04799206e+00     -1.22994702e+00     -8.64509348e-01     
O    -2.24408715e+00     -1.06744859e-01     -4.60059871e-01     
O    -2.96213125e+00     -2.06395860e+00     -1.36214288e+00     
H    -3.82508820e+00     -1.61149226e+00     -1.34518465e+00     
O    -7.31610180e-01     -5.61794023e-01     2.16978029e+00      
H    -4.04794158e-01     -5.63149400e-01     3.07329377e+00      
H    -1.50628442e+00     7.38412011e-03      2.16783192e+00      
O    5.99250689e-02      1.10717604e+00      -2.08136774e+00     
H    -7.40173663e-01     1.62274607e+00      -1.94676723e+00     
H    6.50868911e-01      1.66274019e+00      -2.59642213e+00     
17
unconverged
N    -7.26158000e-01     5.68385671e-01      -2.16032676e-01     
H    -1.29642958e+00     -3.01473315e-01     -1.17478206e-01     
H    -1.31158103e+00     1.23661919e+00      -7.18677130e-01     
H    -4.51295099e-01     9.65135796e-01      7.05789112e-01      
C    4.78848022e-01      2.63213125e-01      -1.02374390e+00     
H    1.14946854e+00      1.11946605e+00      -1.02268890e+00     
H    9.96157771e-01      -5.88382490e-01     -5.91146177e-01     
C    3.19528373e-02      -5.11253169e-02     -2.43779102e+00     
O    -1.12203061e+00     9.08979619e-03      -2.79922049e+00     
O    1.08272234e+00      -3.84195885e-01     -3.18577193e+00     
H    7.62242562e-01      -5.62031001e-01     -4.08878724e+00     
O    -2.02101410e+00     -1.82018959e+00     -4.28672351e-01     
H    -2.43402656e+00     -2.46996621e+00     1.46229328e-01      
H    -2.46261443e+00     -1.90105176e+00     -1.27890944e+00     
O    3.03626173e-01      1.70572629e+00      2.08182150e+00      
H    6.60508675e-01      1.24298498e+00      2.84363102e+00      
H    1.94225785e-01      2.61532211e+00      2.36933244e+00      
17
unconverged
N    -1.92490379e+00     7.79411741e-01      -1.77297225e+00     
H    -2.84937346e+00     1.10767105e+00      -2.03522807e+00     
H    -1.41075225e+00     1.51983216e+00      -1.24417563e+00     
H    -2.00872253e+00     -2.20166605e-02     -1.14475440e+00     
C    -1.11644664e+00     3.90608381e-01      -2.95939100e+00     
H    -1.69619302e+00     -2.70886359e-01     -3.59839797e+00     
H    -8.52357185e-01     1.28627925e+00      -3.51421084e+00     
C    1.28566683e-01      -3.22479816e-01     -2.44252547e+00     
O    2.83854516e-01      -5.64964817e-01     -1.26143772e+00     
O    9.29510799e-01      -6.07496250e-01     -3.44463123e+00     
H    1.74239399e+00      -1.09543366e+00     -3.11366066e+00     
O    3.14648356e+00      -1.81427034e+00     -2.70743266e+00     
H    3.24251263e+00      -2.36772304e+00     -1.92989285e+00     
H    3.74110212e+00      -2.18303275e+00     -3.36599953e+00     
O    -1.96232656e-01     2.49405763e+00      -5.79502511e-01     
H    5.14101124e-01      2.02902346e+00      -1.28373270e-01     
H    -1.80529434e-01     3.39445260e+00      -2.44915538e-01     
17
unconverged
N    -7.09989237e-01     -9.27798328e-01     -5.87846880e-01     
H    -1.03207041e+00     -1.30959980e+00     -1.48845129e+00     
H    -1.50559789e+00     -7.20194467e-01     7.71712175e-03      
H    -1.16106686e-01     -1.64965285e+00     -1.26946427e-01     
C    1.00140569e-01      2.82389149e-01      -8.98140060e-01     
H    -5.24011332e-01     1.17087906e+00      -8.45897364e-01     
H    9.11802538e-01      3.69215429e-01      -1.82047695e-01     
C    6.18859113e-01      1.06919025e-01      -2.32271189e+00     
O    2.17359798e-01      -8.00216733e-01     -3.02853807e+00     
O    1.48255288e+00      1.04730391e+00      -2.62026080e+00     
H    1.79021112e+00      9.43834498e-01      -3.57040868e+00     
O    2.40705856e+00      8.33993883e-01      -5.07439936e+00     
H    2.00330607e+00      3.02860603e-01      -5.76357904e+00     
H    2.85452809e+00      1.55373502e+00      -5.52701254e+00     
O    1.12619208e+00      -2.63854819e+00     5.29716319e-01      
H    1.64949066e+00      -3.25168852e+00     7.72577573e-03      
H    1.25200117e+00      -2.90809340e+00     1.44268127e+00      
20
-5.68606101e+01
N    9.39931695e-04      -4.40255688e-03     6.57629644e-03      
H    9.05173212e-01      -9.94778603e-02     5.06742174e-01      
H    -3.32224536e-01     -9.33811272e-01     -3.27067200e-01     
H    -7.22709836e-01     4.06858098e-01      6.33722852e-01      
C    1.92941331e-01      8.84372978e-01      -1.15557188e+00     
H    5.35744484e-01      1.85951605e+00      -8.19232941e-01     
H    9.42577591e-01      4.62717654e-01      -1.82024786e+00     
C    -1.11634538e+00     1.03698681e+00      -1.90064754e+00     
O    -2.15643464e+00     5.05463697e-01      -1.58168357e+00     
O    -9.37915384e-01     1.84210832e+00      -2.95158191e+00     
H    -1.79248941e+00     1.92312340e+00      -3.41194544e+00     
O    -1.98049232e+00     1.38946278e+00      1.30931715e+00      
H    -2.81502490e+00     1.29865229e+00      8.40756359e-01      
H    -2.20782896e+00     1.64075693e+00      2.20824612e+00      
O    2.57707210e+00      -1.94127885e-02     1.07451841e+00      
H    2.89976788e+00      5.16525569e-01      1.80256227e+00      
H    3.25098049e+00      -6.89286798e-01     9.38405803e-01      
O    -9.21953875e-01     -2.24486224e+00     -1.29522064e+00     
H    -1.82337425e+00     -2.10602429e+00     -1.59920370e+00     
H    -7.98802482e-01     -3.19691353e+00     -1.25866870e+00     
20
unconverged
N    -6.26951128e-01     2.34441055e-01      4.09632242e-01      
H    -1.63149209e+00     -1.00165101e-02     4.96586332e-01      
H    -5.69580386e-02     -1.66103639e-01     1.18487694e+00      
H    -2.48767796e-01     -1.53450247e-01     -4.53656106e-01     
C    -4.54858070e-01     1.70575316e+00      4.05301144e-01      
H    -1.14138257e+00     2.14957483e+00      -3.11377186e-01     
H    -6.81947421e-01     2.09140658e+00      1.39465556e+00      
C    9.85345108e-01      2.02150162e+00      2.63785805e-02      
O    1.78686938e+00      1.15724483e+00      -2.73239004e-01     
O    1.18399597e+00      3.32299116e+00      7.54820798e-02      
H    2.12783766e+00      3.53639233e+00      -1.87520192e-01     
O    3.66219823e+00      4.01651256e+00      -5.10013520e-01     
H    4.24418794e+00      3.49727907e+00      -1.06822451e+00     
H    3.88454806e+00      4.93499640e+00      -6.82789891e-01     
O    1.21351779e+00      -3.80086198e-01     2.32391414e+00      
H    1.33297339e+00      -9.20217519e-01     3.10925923e+00      
H    2.08807440e+00      -2.73093171e-01     1.93834880e+00      
O    -3.37623611e+00     -1.11644445e-01     5.34829409e-01      
H    -3.94311565e+00     -4.90256212e-01     -1.41070139e-01     
H    -3.92436233e+00     -5.72424895e-02     1.32099692e+00      
20
-5.55117349e+01
N    1.16354164e-02      2.61878181e-01      -1.67396775e-01     
H    -5.46955723e-01     8.43527329e-01      -7.85371281e-01     
H    -2.17886620e-01     4.99243710e-01      8.23937746e-01      
H    -2.11601958e-01     -7.41951426e-01     -3.49209864e-01     
C    1.45410247e+00      4.90368166e-01      -4.10411647e-01     
H    1.68859760e+00      2.49288094e-01      -1.44429927e+00     
H    1.69163560e+00      1.53504289e+00      -2.25037025e-01     
C    2.25348826e+00      -4.01978369e-01     5.29761509e-01      
O    1.73011791e+00      -1.13118571e+00     1.34976463e+00      
O    3.53807401e+00      -2.37591921e-01     2.98332135e-01      
H    4.09571473e+00      -8.13555091e-01     8.96062267e-01      
O    -1.66813324e-01     9.33601360e-01      2.47233195e+00      
H    -7.59851086e-01     1.39574281e+00      3.07021815e+00      
H    2.69657396e-01      2.55730595e-01      2.99639473e+00      
O    5.18341284e+00      -1.74820573e+00     1.71108949e+00      
H    6.12871113e+00      -1.60224565e+00     1.62472623e+00      
H    5.05649576e+00      -2.13173844e+00     2.58049972e+00      
O    -1.15090080e-01     -2.41434220e+00     -7.01603571e-01     
H    3.11556327e-01      -2.91322942e+00     8.85335971e-04      
H    -6.73386890e-01     -3.03847431e+00     -1.17213444e+00
23
unconverged
N    1.42266668e+00      -1.71464465e-01     5.22233571e-01      
H    1.89957770e+00      -4.41240096e-01     1.40066205e+00      
H    4.34126369e-01      9.29929591e-02      7.09833238e-01      
H    1.90753476e+00      6.32672519e-01      7.59359604e-02      
C    1.45162291e+00      -1.31926714e+00     -4.03904395e-01     
H    2.48351251e+00      -1.59774315e+00     -5.99950745e-01     
H    9.44816789e-01      -2.16511321e+00     5.29331991e-02      
C    7.61961923e-01      -9.54123741e-01     -1.70901637e+00     
O    2.33388373e-01      1.21196056e-01      -1.91798666e+00     
O    8.35720428e-01      -1.97924619e+00     -2.53932834e+00     
H    3.89169759e-01      -1.75528320e+00     -3.40667251e+00     
O    2.67937004e+00      1.66696123e+00      -1.09569822e+00     
H    3.31076135e+00      2.38932475e+00      -1.05044467e+00     
H    2.07389386e+00      1.88701861e+00      -1.80958714e+00     
O    2.76518561e+00      -1.24043388e+00     2.73227133e+00      
H    2.36573573e+00      -1.61249699e+00     3.52160617e+00      
H    3.69508150e+00      -1.13709801e+00     2.94597534e+00      
O    -1.29322361e+00     2.42212495e-01      6.38678524e-01      
H    -1.97502691e+00     5.37177852e-01      1.24761933e+00      
H    -1.54641725e+00     5.73831006e-01      -2.27944254e-01     
O    -2.02677610e-01     -1.55278521e+00     -4.94322109e+00     
H    -2.86332411e-01     -2.29852224e+00     -5.54244159e+00     
H    -9.05550650e-01     -9.45964438e-01     -5.18130655e+00     
23
unconverged
N    -3.45473052e-01     -2.52127230e-01     3.51343924e-01      
H    6.77840621e-01      -3.38126026e-01     2.13492533e-01      
H    -6.21542374e-01     6.47120139e-01      -9.11711015e-02     
H    -8.77237980e-01     -1.04613504e+00     -6.73776825e-02     
C    -6.30328809e-01     -1.66226100e-01     1.79315547e+00      
H    -3.51523838e-01     -1.09480488e+00     2.28490152e+00      
H    -5.62785085e-02     6.49338960e-01      2.22560179e+00      
C    -2.11034613e+00     7.42920537e-02      1.99921720e+00      
O    -2.93273834e+00     9.51082473e-02      1.11161802e+00      
O    -2.36104419e+00     2.48889628e-01      3.30207286e+00      
H    -3.31955333e+00     3.92007498e-01      3.39611844e+00      
O    2.35637969e+00      2.00790627e-01      2.25146327e-01      
H    2.52996828e+00      1.08450382e+00      -1.22431484e-01     
H    3.19179677e+00      -2.69447708e-01     2.10021116e-01      
O    -1.99737288e+00     -2.32768907e+00     -3.25264693e-01     
H    -2.89751616e+00     -1.99281150e+00     -2.71146629e-01     
H    -2.03210737e+00     -3.09602860e+00     -9.00798443e-01     
O    -6.28730118e-01     2.37894950e+00      -3.13405430e-01     
H    -1.33477138e+00     2.92829366e+00      -6.58317118e-01     
H    2.05224905e-01      2.79261801e+00      -5.69178449e-01     
O    2.17109597e+00      2.92778329e+00      -7.44587772e-01     
H    2.55740841e+00      3.60643641e+00      -1.83467430e-01     
H    2.49038102e+00      3.12160765e+00      -1.63024631e+00     
26
unconverged
N    3.62637149e-02      -5.17469772e-01     3.04077815e-01      
H    6.06679928e-02      3.40949573e-01      8.79650028e-01      
H    3.40062486e-01      -2.32864804e-01     -6.45700947e-01     
H    6.51901098e-01      -1.26891891e+00     6.80426747e-01      
C    -1.35333767e+00     -9.95813848e-01     2.23478063e-01      
H    -1.70134307e+00     -1.27978485e+00     1.21309473e+00      
H    -1.98092224e+00     -1.93960263e-01     -1.55876294e-01     
C    -1.43288371e+00     -2.20619214e+00     -6.92596081e-01     
O    -4.58952369e-01     -2.77414601e+00     -1.14776459e+00     
O    -2.70243403e+00     -2.52804213e+00     -8.84161466e-01     
H    -2.76095392e+00     -3.33484395e+00     -1.47361735e+00     
O    1.27519496e+00      -2.79282719e+00     1.17932087e+00      
H    2.04129345e+00      -3.11158053e+00     1.66309068e+00      
H    1.16694237e+00      -3.38049449e+00     4.24477368e-01      
O    -2.48477674e-01     2.04381510e+00      1.27272739e+00      
H    -2.47157392e-01     2.53319716e+00      2.09701025e+00      
H    -1.04935548e-01     2.68803930e+00      5.68548649e-01      
O    2.49746605e-01      6.66730748e-01      -2.15496659e+00     
H    3.01327578e-01      1.62934900e+00      -2.11193661e+00     
H    5.33586920e-01      4.07552205e-01      -3.03296610e+00     
O    -3.02433415e+00     -4.59897885e+00     -2.51136237e+00     
H    -2.29160208e+00     -5.16898327e+00     -2.75183587e+00     
H    -3.78870412e+00     -5.17470620e+00     -2.43048925e+00     
O    1.80713899e-01      3.40922848e+00      -1.25181963e+00     
H    9.58306696e-01      3.96561170e+00      -1.34894942e+00     
H    -5.52083752e-01     3.94071778e+00      -1.57571928e+00     
26
unconverged
N    -4.53196421e-01     7.20546620e-02      2.71161883e-02      
H    -1.49063987e+00     3.72439737e-02      1.64484169e-02      
H    -1.41355306e-01     9.70351333e-01      -3.88534069e-01     
H    -9.10701590e-02     -3.52466836e-02     9.96430917e-01      
C    8.08731283e-02      -1.04529111e+00     -7.72626606e-01     
H    1.16542610e+00      -9.91400920e-01     -7.72881014e-01     
H    -2.26281210e-01     -1.98437530e+00     -3.21482647e-01     
C    -4.32735250e-01     -9.62499682e-01     -2.20102342e+00     
O    -1.15689512e+00     -7.69355468e-02     -2.61548769e+00     
O    3.55348400e-02      -1.98925357e+00     -2.89114177e+00     
H    -2.96422755e-01     -1.94597588e+00     -3.83388181e+00     
O    4.89868551e-01      2.16776790e+00      -1.49855599e+00     
H    -2.35245352e-02     2.16633854e+00      -2.31141326e+00     
H    8.39709804e-01      3.05728011e+00      -1.40442230e+00     
O    6.96713656e-01      -6.16605511e-01     2.39692768e+00      
H    7.42620518e-01      -1.57479891e+00     2.52883878e+00      
H    9.34370229e-01      -2.03465109e-01     3.22703541e+00      
O    -3.15031596e+00     -3.48728529e-01     -3.99121704e-01     
H    -3.31530241e+00     -1.31770943e-01     -1.32132361e+00     
H    -3.99072713e+00     -2.43066584e-01     5.37235486e-02      
O    -8.20626623e-01     -2.10107954e+00     -5.40440153e+00     
H    -1.15768193e+00     -1.36197409e+00     -5.91347304e+00     
H    -3.62064499e-01     -2.66411703e+00     -6.03269490e+00     
O    6.07761711e-01      -3.37657942e+00     2.14879857e+00      
H    -4.14267471e-02     -3.93268789e+00     2.58463340e+00      
H    1.39304586e+00      -3.92220901e+00     2.06068819e+00      
26
unconverged
N    1.09889578e+00      3.24536713e-01      -1.43355349e+00     
H    2.21078785e-01      1.09017798e-01      -1.94795589e+00     
H    1.90930197e+00      8.27270559e-02      -2.03743005e+00     
H    1.12898371e+00      1.32387650e+00      -1.16672860e+00     
C    1.15837163e+00      -4.96050968e-01     -2.09714381e-01     
H    2.07483435e+00      -2.72982317e-01     3.29487728e-01      
H    3.12401684e-01      -2.56058068e-01     4.28577889e-01      
C    1.12275261e+00      -1.97405207e+00     -5.69149494e-01     
O    1.00790678e+00      -2.38845285e+00     -1.70797190e+00     
O    1.22955959e+00      -2.68910397e+00     5.33779607e-01      
H    1.21368114e+00      -3.67325868e+00     3.13937985e-01      
O    3.29562282e+00      -7.40962295e-01     -2.70544192e+00     
H    4.03185136e+00      -4.98712372e-01     -3.27250741e+00     
H    3.05857764e+00      -1.64150582e+00     -2.94613797e+00     
O    1.19649179e+00      2.91035674e+00      -3.59271545e-01     
H    4.51452273e-01      3.49347861e+00      -1.98740267e-01     
H    1.97468766e+00      3.46282996e+00      -2.58852006e-01     
O    -1.24061661e+00     -6.44721970e-01     -2.50283576e+00     
H    -1.02980893e+00     -1.55119197e+00     -2.74708503e+00     
H    -1.98302906e+00     -3.84081627e-01     -3.05364376e+00     
O    1.30322970e+00      -5.23613918e+00     6.68127526e-02      
H    9.14681281e-01      -5.65694089e+00     -6.99610748e-01     
H    1.25149169e+00      -5.88032622e+00     7.92541316e-01      
O    1.23047724e+00      -6.99386235e+00     2.22915413e+00      
H    5.45274724e-01      -7.11398249e+00     2.88851041e+00      
H    1.96322946e+00      -7.54049488e+00     2.51781028e+00      
29
unconverged
N    4.79411917e-02      2.38899143e-01      -4.37549800e-01     
H    4.49139651e-01      1.17421582e+00      -6.50670220e-01     
H    -7.98937431e-01     3.11818472e-01      1.65029895e-01      
H    -1.96286403e-01     -2.45709682e-01     -1.32505926e+00     
C    1.04470443e+00      -5.61834403e-01     2.86536015e-01      
H    1.33768650e+00      -4.89730204e-02     1.19862564e+00      
H    6.15319617e-01      -1.52697695e+00     5.44859805e-01      
C    2.26345033e+00      -7.60906014e-01     -5.84101964e-01     
O    2.41286976e+00      -2.74769990e-01     -1.68365795e+00     
O    3.14406433e+00      -1.55417738e+00     3.73074353e-02      
H    3.91347647e+00      -1.64879006e+00     -5.49807465e-01     
O    1.56750696e+00      2.49149631e+00      -8.77730661e-01     
H    1.48859800e+00      3.44881585e+00      -8.73879259e-01     
H    2.21620839e+00      2.28034697e+00      -1.55527718e+00     
O    -1.95886221e+00     -1.94775102e-02     1.38142653e+00      
H    -2.64097263e+00     -6.38921794e-01     1.07997336e+00      
H    -2.38402396e+00     5.87853156e-01      1.98912237e+00      
O    -4.85808060e-01     -1.47710369e+00     -2.62254293e+00     
H    1.81670237e-01      -1.62664419e+00     -3.29571613e+00     
H    -5.65998942e-01     -2.28661999e+00     -2.08346064e+00     
O    -3.40789655e+00     -1.89806726e+00     -8.19666117e-02     
H    -4.25930894e+00     -2.30619629e+00     9.25170539e-02      
H    -3.49553748e+00     -1.40370661e+00     -9.16356381e-01     
O    -3.05046079e+00     -4.13945723e-01     -2.31125554e+00     
H    -2.25276921e+00     -7.38644851e-01     -2.74538912e+00     
H    -3.60833068e+00     -4.79215756e-02     -3.00109870e+00     
O    -9.59204784e-01     -3.13800723e+00     -5.69556193e-01     
H    -1.87327933e+00     -2.92879463e+00     -3.22270790e-01     
H    -8.47290630e-01     -4.08127810e+00     -4.29774233e-01     
29
unconverged
N    6.86160650e-01      8.91839263e-01      9.27874067e-01      
H    7.34691723e-01      1.73736694e-02      3.67151962e-01      
H    1.60402900e+00      1.35953722e+00      9.37765371e-01      
H    -4.41704455e-02     1.53879080e+00      5.47109948e-01      
C    3.03901896e-01      5.66066264e-01      2.31644295e+00      
H    1.04744835e+00      -8.82461441e-02     2.76264121e+00      
H    2.46060260e-01      1.48087013e+00      2.89752628e+00      
C    -1.04457563e+00     -1.35800099e-01     2.30188970e+00      
O    -1.55780736e+00     -5.68451718e-01     1.28605562e+00      
O    -1.52561004e+00     -2.03631280e-01     3.52878910e+00      
H    -2.43261089e+00     -6.40829672e-01     3.51631638e+00      
O    -1.28466945e+00     2.68417127e+00      4.79156751e-01      
H    -2.15114384e+00     2.53764987e+00      8.99887741e-01      
H    -1.38561811e+00     3.43778140e+00      -1.02615885e-01     
O    8.80310405e-01      -1.66304703e+00     -1.21893994e-01     
H    3.05335811e-02      -2.10936335e+00     -8.53142489e-02     
H    1.39091561e+00      -2.12045003e+00     -7.94535367e-01     
O    -3.62563097e+00     2.02133842e+00      1.72760773e+00      
H    -3.80656086e+00     2.09814573e+00      2.66688616e+00      
H    -3.99713307e+00     1.17310833e+00      1.45659090e+00      
O    -3.98564804e+00     -1.06928543e+00     3.46831585e+00      
H    -4.27374519e+00     -1.18746939e+00     2.55351257e+00      
H    -4.36117767e+00     -1.78927259e+00     3.97966183e+00      
O    -4.22805758e+00     -5.99171228e-01     7.12822311e-01      
H    -4.81513322e+00     -7.75043782e-01     -2.74398360e-02     
H    -3.33484618e+00     -7.11032618e-01     3.70907393e-01      
O    3.16640688e+00      2.13424914e+00      1.35837197e+00      
H    3.30783449e+00      3.07929429e+00      1.44697511e+00      
H    4.04296183e+00      1.75617932e+00      1.26133878e+00      
29
unconverged
N    -1.27952458e+00     -6.04274108e-01     7.14049322e-01      
H    -1.84567948e+00     -1.41392387e+00     4.11584228e-01      
H    -1.65084111e+00     2.88122640e-01      3.28766435e-01      
H    -1.25620253e+00     -6.25570104e-01     1.74028755e+00      
C    1.09740922e-01      -8.30878601e-01     2.39960457e-01      
H    6.64689577e-01      9.44298191e-02      3.62699549e-01      
H    5.42813498e-01      -1.61643042e+00     8.48337408e-01      
C    9.46108340e-02      -1.19578630e+00     -1.23916387e+00     
O    -6.99320489e-01     -7.18916983e-01     -2.02762736e+00     
O    1.08502054e+00      -2.05349133e+00     -1.54543975e+00     
H    1.06279559e+00      -2.11477490e+00     -2.57009838e+00     
O    -1.77127993e+00     1.68243369e+00      -6.63748601e-01     
H    -2.31075605e+00     2.47790319e+00      -6.57467102e-01     
H    -1.72573108e+00     1.39349968e+00      -1.58078546e+00     
O    -1.15775224e-01     -4.07290201e+00     1.74058199e+00      
H    -1.13276796e-01     -4.95275550e+00     2.12017297e+00      
H    6.83056367e-01      -4.00851383e+00     1.18300848e+00      
O    -6.60831962e-01     -1.65902459e+00     3.15277827e+00      
H    -4.53610653e-01     -2.58297942e+00     2.95487889e+00      
H    -6.24917457e-01     -1.56555427e+00     4.10550390e+00      
O    1.03718518e+00      -2.36833440e+00     -4.12336780e+00     
H    1.82278348e+00      -2.36308606e+00     -4.67771817e+00     
H    3.90159305e-01      -1.82111802e+00     -4.57600744e+00     
O    -1.95419039e+00     -3.09186556e+00     -8.53554587e-02     
H    -2.59917172e+00     -3.61219051e+00     -5.64772840e-01     
H    -1.47363494e+00     -3.69019519e+00     5.07338025e-01      
O    1.90705969e+00      -3.52008033e+00     3.48003890e-02      
H    1.67998460e+00      -2.88919468e+00     -6.89691484e-01     
H    2.84532285e+00      -3.48398108e+00     2.13092361e-01
29
unconverged
N    -2.76933382e-01     -6.76200529e-01     -2.30225501e-01     
H    -1.88697306e-01     2.69965692e-01      -6.48138434e-01     
H    6.08168400e-01      -8.49199558e-01     2.77837355e-01      
H    -1.11138823e+00     -7.35428357e-01     3.88314858e-01      
C    -3.84237800e-01     -1.65406263e+00     -1.32379640e+00     
H    5.01533991e-01      -1.57992154e+00     -1.94898295e+00     
H    -4.44912065e-01     -2.65799475e+00     -9.12109053e-01     
C    -1.63506469e+00     -1.38751202e+00     -2.14564576e+00     
O    -2.50379243e+00     -6.00936619e-01     -1.82209982e+00     
O    -1.62063666e+00     -2.15348918e+00     -3.22664744e+00     
H    -2.45240317e+00     -1.99846629e+00     -3.76118323e+00     
O    -2.67949448e+00     -1.08666292e+00     1.01701379e+00      
H    -3.29073802e+00     -7.88750249e-01     3.35187901e-01      
H    -3.13721088e+00     -9.83912301e-01     1.85510642e+00      
O    5.31886398e-01      1.47504877e+00      -1.68938330e+00     
H    1.46793119e+00      1.66033813e+00      -1.52437426e+00     
H    1.56980861e-01      2.24723577e+00      -2.11443479e+00     
O    4.14159663e+00      3.47244475e+00      6.98857471e-01      
H    4.74150509e+00      3.41250801e+00      1.44434999e+00      
H    4.02053594e+00      4.41128343e+00      5.46297023e-01      
O    -3.72990242e+00     -1.77437054e+00     -4.79417622e+00     
H    -4.08989422e+00     -2.49095147e+00     -5.32255521e+00     
H    -4.48644265e+00     -1.27780254e+00     -4.47663314e+00     
O    3.23104203e+00      1.39018730e+00      -8.84365326e-01     
H    3.57216695e+00      2.12338121e+00      -3.44168695e-01     
H    3.87843292e+00      1.25613880e+00      -1.58063379e+00     
O    2.35511968e+00      -9.28238223e-01     4.77280041e-01      
H    2.93723518e+00      -1.35987979e+00     1.10388091e+00      
H    2.84161391e+00      -1.74779405e-01     1.11840734e-01      
