23
130.899636
N    3.23449321e-03      -3.20564005e-02     -3.70091482e-02     
H    4.79444008e-01      -2.74248910e-01     8.53649260e-01      
H    -9.81181104e-01     2.62992064e-01      1.41634887e-01      
H    4.95634555e-01      7.51005361e-01      -5.19133705e-01     
C    -8.72792699e-03     -1.22207304e+00     -9.10893616e-01     
H    1.01038372e+00      -1.57466865e+00     -1.06650010e+00     
H    -5.86453240e-01     -2.01503035e+00     -4.35064032e-01     
C    -6.44394567e-01     -8.47076554e-01     -2.23526547e+00     
O    -1.16203164e+00     2.33338436e-01      -2.45111454e+00     
O    -5.51881260e-01     -1.85772139e+00     -3.07811909e+00     
H    -9.76881301e-01     -1.60598693e+00     -3.95137375e+00     
O    1.26789596e+00      1.83002295e+00      -1.64906272e+00     
H    1.87508279e+00      2.56980273e+00      -1.56407000e+00     
H    6.83929296e-01      2.04912619e+00      -2.38111265e+00     
O    1.32579204e+00      -1.00136741e+00     2.22883962e+00      
H    9.15313630e-01      -1.34700012e+00     3.02483448e+00      
H    2.25004974e+00      -8.75073550e-01     2.45570894e+00      
O    -2.70813744e+00     3.82520912e-01      1.12467938e-01      
H    -3.35271183e+00     7.37848835e-01      7.30729043e-01      
H    -2.97442017e+00     6.94959158e-01      -7.57817356e-01     
O    -1.62772396e+00     -1.30093844e+00     -5.42085277e+00     
H    -1.72267526e+00     -1.97024619e+00     -6.10615871e+00     
H    -2.38137175e+00     -7.15799274e-01     -5.52553411e+00     
23
130.899636
N    1.74433862e-03      -3.26429137e-02     -3.62875646e-02     
H    4.77249580e-01      -2.75097512e-01     8.54670002e-01      
H    -9.84875793e-01     2.55804452e-01      1.40466747e-01      
H    4.90530444e-01      7.54969346e-01      -5.14046774e-01     
C    3.12429983e-03      -1.21775021e+00     -9.15940264e-01     
H    1.02591894e+00      -1.55205172e+00     -1.07892615e+00     
H    -5.57789566e-01     -2.02171133e+00     -4.41570303e-01     
C    -6.44161150e-01     -8.46944302e-01     -2.23536494e+00     
O    -1.16375089e+00     2.32733081e-01      -2.45009059e+00     
O    -5.57678001e-01     -1.85981357e+00     -3.07600775e+00     
H    -9.83323871e-01     -1.60832226e+00     -3.94898040e+00     
O    1.26769173e+00      1.82577025e+00      -1.64732640e+00     
H    1.87153894e+00      2.56823511e+00      -1.56211938e+00     
H    6.82611028e-01      2.04268138e+00      -2.37918380e+00     
O    1.32609724e+00      -1.00134536e+00     2.22889192e+00      
H    9.17046559e-01      -1.34777302e+00     3.02527269e+00      
H    2.25046181e+00      -8.73983570e-01     2.45465156e+00      
O    -2.71176454e+00     3.85457629e-01      1.12041857e-01      
H    -3.35679004e+00     7.37184315e-01      7.31723244e-01      
H    -2.97956867e+00     6.99405636e-01      -7.57143779e-01     
O    -1.62585760e+00     -1.30044497e+00     -5.42136285e+00     
H    -1.72046905e+00     -1.96932713e+00     -6.10712796e+00     
H    -2.37596808e+00     -7.11714193e-01     -5.52993380e+00     
23
130.899636
N    9.99261323e-04      -3.29361704e-02     -3.59267728e-02     
H    4.76152365e-01      -2.75521814e-01     8.55180373e-01      
H    -9.86723137e-01     2.52210645e-01      1.39882677e-01      
H    4.87978389e-01      7.56951339e-01      -5.11503309e-01     
C    9.05041324e-03      -1.21558880e+00     -9.18463588e-01     
H    1.03368654e+00      -1.54074325e+00     -1.08513917e+00     
H    -5.43457730e-01     -2.02505183e+00     -4.44823439e-01     
C    -6.44044441e-01     -8.46878175e-01     -2.23541467e+00     
O    -1.16461051e+00     2.32430403e-01      -2.44957862e+00     
O    -5.60576372e-01     -1.86085966e+00     -3.07495208e+00     
H    -9.86545156e-01     -1.60948993e+00     -3.94778373e+00     
O    1.26758961e+00      1.82364390e+00      -1.64645824e+00     
H    1.86976701e+00      2.56745130e+00      -1.56114407e+00     
H    6.81951894e-01      2.03945897e+00      -2.37821938e+00     
O    1.32624984e+00      -1.00133433e+00     2.22891807e+00      
H    9.17913024e-01      -1.34815947e+00     3.02549180e+00      
H    2.25066784e+00      -8.73438580e-01     2.45412288e+00      
O    -2.71357809e+00     3.86925988e-01      1.11828817e-01      
H    -3.35882914e+00     7.36852055e-01      7.32220345e-01      
H    -2.98214291e+00     7.01628874e-01      -7.56806991e-01     
O    -1.62492443e+00     -1.30019824e+00     -5.42161790e+00     
H    -1.71936594e+00     -1.96886759e+00     -6.10761259e+00     
H    -2.37326624e+00     -7.09671653e-01     -5.53213365e+00     
23
130.899636
N    2.54184028e-04      -3.32294270e-02     -3.55659810e-02     
H    4.75055151e-01      -2.75946115e-01     8.55690745e-01      
H    -9.88570481e-01     2.48616839e-01      1.39298606e-01      
H    4.85426334e-01      7.58933332e-01      -5.08959843e-01     
C    1.49765267e-02      -1.21342739e+00     -9.20986912e-01     
H    1.04145415e+00      -1.52943479e+00     -1.09135219e+00     
H    -5.29125893e-01     -2.02839232e+00     -4.48076574e-01     
C    -6.43927732e-01     -8.46812049e-01     -2.23546441e+00     
O    -1.16547014e+00     2.32127726e-01      -2.44906664e+00     
O    -5.63474743e-01     -1.86190575e+00     -3.07389641e+00     
H    -9.89766441e-01     -1.61065759e+00     -3.94658706e+00     
O    1.26748749e+00      1.82151755e+00      -1.64559008e+00     
H    1.86799508e+00      2.56666749e+00      -1.56016876e+00     
H    6.81292760e-01      2.03623657e+00      -2.37725495e+00     
O    1.32640245e+00      -1.00132330e+00     2.22894421e+00      
H    9.18779488e-01      -1.34854592e+00     3.02571090e+00      
H    2.25087388e+00      -8.72893591e-01     2.45359419e+00      
O    -2.71539165e+00     3.88394346e-01      1.11615776e-01      
H    -3.36086825e+00     7.36519795e-01      7.32717445e-01      
H    -2.98471716e+00     7.03852113e-01      -7.56470203e-01     
O    -1.62399125e+00     -1.29995151e+00     -5.42187294e+00     
H    -1.71826283e+00     -1.96840806e+00     -6.10809722e+00     
H    -2.37056440e+00     -7.07629113e-01     -5.53433349e+00     
23
130.899636
N    -4.90893266e-04     -3.35226836e-02     -3.52051892e-02     
H    4.73957937e-01      -2.76370416e-01     8.56201116e-01      
H    -9.90417826e-01     2.45023032e-01      1.38714536e-01      
H    4.82874278e-01      7.60915325e-01      -5.06416378e-01     
C    2.09026401e-02      -1.21126598e+00     -9.23510236e-01     
H    1.04922175e+00      -1.51812632e+00     -1.09756522e+00     
H    -5.14794057e-01     -2.03173281e+00     -4.51329710e-01     
C    -6.43811023e-01     -8.46745922e-01     -2.23551414e+00     
O    -1.16632976e+00     2.31825048e-01      -2.44855467e+00     
O    -5.66373114e-01     -1.86295183e+00     -3.07284073e+00     
H    -9.92987725e-01     -1.61182526e+00     -3.94539038e+00     
O    1.26738537e+00      1.81939120e+00      -1.64472192e+00     
H    1.86622315e+00      2.56588368e+00      -1.55919345e+00     
H    6.80633625e-01      2.03301416e+00      -2.37629053e+00     
O    1.32655505e+00      -1.00131228e+00     2.22897036e+00      
H    9.19645953e-01      -1.34893237e+00     3.02593001e+00      
H    2.25107991e+00      -8.72348601e-01     2.45306550e+00      
O    -2.71720520e+00     3.89862705e-01      1.11402736e-01      
H    -3.36290735e+00     7.36187535e-01      7.33214546e-01      
H    -2.98729141e+00     7.06075352e-01      -7.56133415e-01     
O    -1.62305807e+00     -1.29970478e+00     -5.42212799e+00     
H    -1.71715973e+00     -1.96794853e+00     -6.10858185e+00     
H    -2.36786256e+00     -7.05586572e-01     -5.53653334e+00     
23
130.899636
N    -1.23597056e-03     -3.38159402e-02     -3.48443973e-02     
H    4.72860723e-01      -2.76794717e-01     8.56711487e-01      
H    -9.92265170e-01     2.41429226e-01      1.38130466e-01      
H    4.80322223e-01      7.62897318e-01      -5.03872913e-01     
C    2.68287535e-02      -1.20910456e+00     -9.26033560e-01     
H    1.05698936e+00      -1.50681785e+00     -1.10377824e+00     
H    -5.00462220e-01     -2.03507330e+00     -4.54582845e-01     
C    -6.43694315e-01     -8.46679796e-01     -2.23556387e+00     
O    -1.16718938e+00     2.31522370e-01      -2.44804269e+00     
O    -5.69271484e-01     -1.86399792e+00     -3.07178506e+00     
H    -9.96209010e-01     -1.61299292e+00     -3.94419371e+00     
O    1.26728326e+00      1.81726485e+00      -1.64385376e+00     
H    1.86445123e+00      2.56509987e+00      -1.55821814e+00     
H    6.79974491e-01      2.02979175e+00      -2.37532611e+00     
O    1.32670765e+00      -1.00130125e+00     2.22899651e+00      
H    9.20512417e-01      -1.34931883e+00     3.02614912e+00      
H    2.25128594e+00      -8.71803611e-01     2.45253681e+00      
O    -2.71901875e+00     3.91331063e-01      1.11189695e-01      
H    -3.36494646e+00     7.35855276e-01      7.33711647e-01      
H    -2.98986566e+00     7.08298591e-01      -7.55796627e-01     
O    -1.62212489e+00     -1.29945804e+00     -5.42238303e+00     
H    -1.71605662e+00     -1.96748900e+00     -6.10906647e+00     
H    -2.36516073e+00     -7.03544032e-01     -5.53873318e+00     
23
130.899636
N    -1.60850921e-03     -3.39625685e-02     -3.46640014e-02     
H    4.72312116e-01      -2.77006868e-01     8.56966673e-01      
H    -9.93188842e-01     2.39632323e-01      1.37838431e-01      
H    4.79046195e-01      7.63888315e-01      -5.02601180e-01     
C    2.97918102e-02      -1.20802386e+00     -9.27295222e-01     
H    1.06087316e+00      -1.50116362e+00     -1.10688475e+00     
H    -4.93296302e-01     -2.03674355e+00     -4.56209413e-01     
C    -6.43635960e-01     -8.46646733e-01     -2.23558874e+00     
O    -1.16761920e+00     2.31371031e-01      -2.44778670e+00     
O    -5.70720670e-01     -1.86452097e+00     -3.07125723e+00     
H    -9.97819653e-01     -1.61357675e+00     -3.94359537e+00     
O    1.26723220e+00      1.81620167e+00      -1.64341968e+00     
H    1.86356526e+00      2.56470797e+00      -1.55773049e+00     
H    6.79644924e-01      2.02818055e+00      -2.37484390e+00     
O    1.32678395e+00      -1.00129574e+00     2.22900958e+00      
H    9.20945649e-01      -1.34951205e+00     3.02625867e+00      
H    2.25138896e+00      -8.71531116e-01     2.45227247e+00      
O    -2.71992552e+00     3.92065242e-01      1.11083175e-01      
H    -3.36596601e+00     7.35689146e-01      7.33960197e-01      
H    -2.99115278e+00     7.09410210e-01      -7.55628233e-01     
O    -1.62165831e+00     -1.29933468e+00     -5.42251055e+00     
H    -1.71550507e+00     -1.96725924e+00     -6.10930879e+00     
H    -2.36380981e+00     -7.02522762e-01     -5.53983310e+00     
23
130.899636
N    -1.98104786e-03     -3.41091968e-02     -3.44836055e-02     
H    4.71763509e-01      -2.77219019e-01     8.57221859e-01      
H    -9.94112515e-01     2.37835419e-01      1.37546396e-01      
H    4.77770167e-01      7.64879311e-01      -5.01329447e-01     
C    3.27548669e-02      -1.20694315e+00     -9.28556884e-01     
H    1.06475696e+00      -1.49550939e+00     -1.10999127e+00     
H    -4.86130384e-01     -2.03841380e+00     -4.57835981e-01     
C    -6.43577606e-01     -8.46613669e-01     -2.23561361e+00     
O    -1.16804901e+00     2.31219693e-01      -2.44753072e+00     
O    -5.72169855e-01     -1.86504401e+00     -3.07072939e+00     
H    -9.99430295e-01     -1.61416059e+00     -3.94299703e+00     
O    1.26718114e+00      1.81513850e+00      -1.64298560e+00     
H    1.86267930e+00      2.56431606e+00      -1.55724283e+00     
H    6.79315357e-01      2.02656935e+00      -2.37436168e+00     
O    1.32686025e+00      -1.00129023e+00     2.22902265e+00      
H    9.21378882e-01      -1.34970528e+00     3.02636822e+00      
H    2.25149198e+00      -8.71258621e-01     2.45200813e+00      
O    -2.72083230e+00     3.92799422e-01      1.10976655e-01      
H    -3.36698556e+00     7.35523016e-01      7.34208747e-01      
H    -2.99243990e+00     7.10521829e-01      -7.55459839e-01     
O    -1.62119172e+00     -1.29921131e+00     -5.42263808e+00     
H    -1.71495352e+00     -1.96702947e+00     -6.10955110e+00     
H    -2.36245889e+00     -7.01501491e-01     -5.54093303e+00     
23
130.899636
N    -3.47120244e-03     -3.46957100e-02     -3.37620219e-02     
H    4.69569081e-01      -2.78067621e-01     8.58242601e-01      
H    -9.97807203e-01     2.30647807e-01      1.36378256e-01      
H    4.72666057e-01      7.68843297e-01      -4.96242517e-01     
C    4.46070937e-02      -1.20262033e+00     -9.33603532e-01     
H    1.08029218e+00      -1.47289245e+00     -1.12241731e+00     
H    -4.57466710e-01     -2.04509478e+00     -4.64342251e-01     
C    -6.43344188e-01     -8.46481417e-01     -2.23571307e+00     
O    -1.16976825e+00     2.30614337e-01      -2.44650676e+00     
O    -5.77966597e-01     -1.86713619e+00     -3.06861805e+00     
H    -1.00587286e+00     -1.61649591e+00     -3.94060369e+00     
O    1.26697690e+00      1.81088580e+00      -1.64124928e+00     
H    1.85913544e+00      2.56274844e+00      -1.55529221e+00     
H    6.77997089e-01      2.02012453e+00      -2.37243284e+00     
O    1.32716545e+00      -1.00126817e+00     2.22907495e+00      
H    9.23111810e-01      -1.35047818e+00     3.02680644e+00      
H    2.25190404e+00      -8.70168641e-01     2.45095075e+00      
O    -2.72445940e+00     3.95736138e-01      1.10550573e-01      
H    -3.37106378e+00     7.34858496e-01      7.35202949e-01      
H    -2.99758840e+00     7.14968307e-01      -7.54786263e-01     
O    -1.61932536e+00     -1.29871785e+00     -5.42314816e+00     
H    -1.71274730e+00     -1.96611041e+00     -6.11052036e+00     
H    -2.35705521e+00     -6.97416411e-01     -5.54533271e+00     
23
130.899636
N    -3.84374109e-03     -3.48423383e-02     -3.35816260e-02     
H    4.69020474e-01      -2.78279772e-01     8.58497787e-01      
H    -9.98730876e-01     2.28850903e-01      1.36086221e-01      
H    4.71390029e-01      7.69834293e-01      -4.94970784e-01     
C    4.75701504e-02      -1.20153962e+00     -9.34865194e-01     
H    1.08417598e+00      -1.46723822e+00     -1.12552383e+00     
H    -4.50300792e-01     -2.04676503e+00     -4.65968819e-01     
C    -6.43285834e-01     -8.46448353e-01     -2.23573794e+00     
O    -1.17019806e+00     2.30462999e-01      -2.44625078e+00     
O    -5.79415782e-01     -1.86765923e+00     -3.06809021e+00     
H    -1.00748351e+00     -1.61707975e+00     -3.94000535e+00     
O    1.26692584e+00      1.80982263e+00      -1.64081520e+00     
H    1.85824948e+00      2.56235653e+00      -1.55480455e+00     
H    6.77667522e-01      2.01851333e+00      -2.37195062e+00     
O    1.32724175e+00      -1.00126266e+00     2.22908802e+00      
H    9.23545043e-01      -1.35067141e+00     3.02691599e+00      
H    2.25200706e+00      -8.69896146e-01     2.45068641e+00      
O    -2.72536618e+00     3.96470318e-01      1.10444053e-01      
H    -3.37208333e+00     7.34692366e-01      7.35451499e-01      
H    -2.99887552e+00     7.16079926e-01      -7.54617869e-01     
O    -1.61885877e+00     -1.29859448e+00     -5.42327569e+00     
H    -1.71219575e+00     -1.96588064e+00     -6.11076267e+00     
H    -2.35570429e+00     -6.96395140e-01     -5.54643264e+00     
23
130.899636
N    -4.21627974e-03     -3.49889666e-02     -3.34012301e-02     
H    4.68471867e-01      -2.78491923e-01     8.58752973e-01      
H    -9.99654548e-01     2.27054000e-01      1.35794186e-01      
H    4.70114001e-01      7.70825290e-01      -4.93699051e-01     
C    5.05332071e-02      -1.20045892e+00     -9.36126856e-01     
H    1.08805978e+00      -1.46158399e+00     -1.12863034e+00     
H    -4.43134874e-01     -2.04843528e+00     -4.67595387e-01     
C    -6.43227479e-01     -8.46415290e-01     -2.23576281e+00     
O    -1.17062788e+00     2.30311660e-01      -2.44599479e+00     
O    -5.80864968e-01     -1.86818228e+00     -3.06756238e+00     
H    -1.00909415e+00     -1.61766358e+00     -3.93940701e+00     
O    1.26687478e+00      1.80875945e+00      -1.64038112e+00     
H    1.85736351e+00      2.56196463e+00      -1.55431690e+00     
H    6.77337955e-01      2.01690213e+00      -2.37146841e+00     
O    1.32731805e+00      -1.00125715e+00     2.22910109e+00      
H    9.23978275e-01      -1.35086463e+00     3.02702554e+00      
H    2.25211008e+00      -8.69623651e-01     2.45042207e+00      
O    -2.72627295e+00     3.97204497e-01      1.10337533e-01      
H    -3.37310288e+00     7.34526236e-01      7.35700049e-01      
H    -3.00016264e+00     7.17191545e-01      -7.54449475e-01     
O    -1.61839219e+00     -1.29847112e+00     -5.42340321e+00     
H    -1.71164420e+00     -1.96565088e+00     -6.11100499e+00     
H    -2.35435337e+00     -6.95373870e-01     -5.54753256e+00     
23
130.899636
N    -4.96135703e-03     -3.52822232e-02     -3.30404382e-02     
H    4.67374653e-01      -2.78916224e-01     8.59263344e-01      
H    -1.00150189e+00     2.23460194e-01      1.35210116e-01      
H    4.67561946e-01      7.72807283e-01      -4.91155586e-01     
C    5.64593205e-02      -1.19829750e+00     -9.38650180e-01     
H    1.09582739e+00      -1.45027552e+00     -1.13484336e+00     
H    -4.28803037e-01     -2.05177577e+00     -4.70848522e-01     
C    -6.43110771e-01     -8.46349164e-01     -2.23581254e+00     
O    -1.17148750e+00     2.30008982e-01      -2.44548281e+00     
O    -5.83763338e-01     -1.86922837e+00     -3.06650671e+00     
H    -1.01231543e+00     -1.61883124e+00     -3.93821034e+00     
O    1.26677267e+00      1.80663310e+00      -1.63951296e+00     
H    1.85559159e+00      2.56118082e+00      -1.55334159e+00     
H    6.76678821e-01      2.01367972e+00      -2.37050399e+00     
O    1.32747065e+00      -1.00124612e+00     2.22912724e+00      
H    9.24844739e-01      -1.35125109e+00     3.02724465e+00      
H    2.25231611e+00      -8.69078661e-01     2.44989338e+00      
O    -2.72808650e+00     3.98672855e-01      1.10124492e-01      
H    -3.37514199e+00     7.34193977e-01      7.36197150e-01      
H    -3.00273689e+00     7.19414784e-01      -7.54112687e-01     
O    -1.61745901e+00     -1.29822438e+00     -5.42365825e+00     
H    -1.71054109e+00     -1.96519135e+00     -6.11148961e+00     
H    -2.35165154e+00     -6.93331330e-01     -5.54973240e+00     
23
130.899636
N    -5.70643433e-03     -3.55754798e-02     -3.26796464e-02     
H    4.66277439e-01      -2.79340525e-01     8.59773715e-01      
H    -1.00334924e+00     2.19866387e-01      1.34626046e-01      
H    4.65009890e-01      7.74789276e-01      -4.88612121e-01     
C    6.23854339e-02      -1.19613609e+00     -9.41173504e-01     
H    1.10359499e+00      -1.43896705e+00     -1.14105639e+00     
H    -4.14471201e-01     -2.05511626e+00     -4.74101658e-01     
C    -6.42994062e-01     -8.46283037e-01     -2.23586227e+00     
O    -1.17234712e+00     2.29706304e-01      -2.44497084e+00     
O    -5.86661709e-01     -1.87027445e+00     -3.06545103e+00     
H    -1.01553672e+00     -1.61999891e+00     -3.93701366e+00     
O    1.26667055e+00      1.80450675e+00      -1.63864480e+00     
H    1.85381966e+00      2.56039701e+00      -1.55236628e+00     
H    6.76019686e-01      2.01045731e+00      -2.36953957e+00     
O    1.32762325e+00      -1.00123510e+00     2.22915339e+00      
H    9.25711204e-01      -1.35163754e+00     3.02746376e+00      
H    2.25252214e+00      -8.68533671e-01     2.44936469e+00      
O    -2.72990005e+00     4.00141214e-01      1.09911452e-01      
H    -3.37718109e+00     7.33861717e-01      7.36694251e-01      
H    -3.00531114e+00     7.21638023e-01      -7.53775899e-01     
O    -1.61652583e+00     -1.29797765e+00     -5.42391330e+00     
H    -1.70943799e+00     -1.96473182e+00     -6.11197424e+00     
H    -2.34894970e+00     -6.91288789e-01     -5.55193225e+00     
23
130.899636
N    -6.45151162e-03     -3.58687364e-02     -3.23188546e-02     
H    4.65180225e-01      -2.79764826e-01     8.60284087e-01      
H    -1.00519658e+00     2.16272581e-01      1.34041975e-01      
H    4.62457835e-01      7.76771269e-01      -4.86068655e-01     
C    6.83115474e-02      -1.19397468e+00     -9.43696828e-01     
H    1.11136260e+00      -1.42765859e+00     -1.14726941e+00     
H    -4.00139364e-01     -2.05845675e+00     -4.77354793e-01     
C    -6.42877353e-01     -8.46216911e-01     -2.23591201e+00     
O    -1.17320675e+00     2.29403627e-01      -2.44445886e+00     
O    -5.89560080e-01     -1.87132054e+00     -3.06439536e+00     
H    -1.01875800e+00     -1.62116657e+00     -3.93581699e+00     
O    1.26656843e+00      1.80238040e+00      -1.63777664e+00     
H    1.85204773e+00      2.55961320e+00      -1.55139097e+00     
H    6.75360552e-01      2.00723491e+00      -2.36857514e+00     
O    1.32777586e+00      -1.00122407e+00     2.22917953e+00      
H    9.26577668e-01      -1.35202399e+00     3.02768286e+00      
H    2.25272818e+00      -8.67988682e-01     2.44883600e+00      
O    -2.73171361e+00     4.01609572e-01      1.09698411e-01      
H    -3.37922020e+00     7.33529457e-01      7.37191351e-01      
H    -3.00788539e+00     7.23861262e-01      -7.53439111e-01     
O    -1.61559265e+00     -1.29773092e+00     -5.42416834e+00     
H    -1.70833488e+00     -1.96427229e+00     -6.11245887e+00     
H    -2.34624786e+00     -6.89246249e-01     -5.55413209e+00     
23
130.899636
N    -7.19658892e-03     -3.61619931e-02     -3.19580628e-02     
H    4.64083010e-01      -2.80189128e-01     8.60794458e-01      
H    -1.00704393e+00     2.12678774e-01      1.33457905e-01      
H    4.59905780e-01      7.78753262e-01      -4.83525190e-01     
C    7.42376608e-02      -1.19181327e+00     -9.46220152e-01     
H    1.11913020e+00      -1.41635012e+00     -1.15348243e+00     
H    -3.85807528e-01     -2.06179725e+00     -4.80607929e-01     
C    -6.42760644e-01     -8.46150784e-01     -2.23596174e+00     
O    -1.17406637e+00     2.29100949e-01      -2.44394689e+00     
O    -5.92458451e-01     -1.87236663e+00     -3.06333969e+00     
H    -1.02197929e+00     -1.62233424e+00     -3.93462032e+00     
O    1.26646631e+00      1.80025405e+00      -1.63690848e+00     
H    1.85027580e+00      2.55882939e+00      -1.55041566e+00     
H    6.74701418e-01      2.00401250e+00      -2.36761072e+00     
O    1.32792846e+00      -1.00121304e+00     2.22920568e+00      
H    9.27444133e-01      -1.35241044e+00     3.02790197e+00      
H    2.25293421e+00      -8.67443692e-01     2.44830732e+00      
O    -2.73352716e+00     4.03077931e-01      1.09485371e-01      
H    -3.38125930e+00     7.33197197e-01      7.37688452e-01      
H    -3.01045963e+00     7.26084500e-01      -7.53102323e-01     
O    -1.61465948e+00     -1.29748419e+00     -5.42442339e+00     
H    -1.70723177e+00     -1.96381275e+00     -6.11294350e+00     
H    -2.34354602e+00     -6.87203709e-01     -5.55633194e+00     
23
130.899636
N    -8.68674351e-03     -3.67485063e-02     -3.12364792e-02     
H    4.61888582e-01      -2.81037730e-01     8.61815200e-01      
H    -1.01073861e+00     2.05491162e-01      1.32289765e-01      
H    4.54801669e-01      7.82717247e-01      -4.78438259e-01     
C    8.60898876e-02      -1.18749044e+00     -9.51266800e-01     
H    1.13466542e+00      -1.39373319e+00     -1.16590848e+00     
H    -3.57143854e-01     -2.06847823e+00     -4.87114200e-01     
C    -6.42527227e-01     -8.46018532e-01     -2.23606121e+00     
O    -1.17578562e+00     2.28495594e-01      -2.44292294e+00     
O    -5.98255192e-01     -1.87445881e+00     -3.06122835e+00     
H    -1.02842186e+00     -1.62466957e+00     -3.93222697e+00     
O    1.26626208e+00      1.79600135e+00      -1.63517216e+00     
H    1.84673195e+00      2.55726177e+00      -1.54846504e+00     
H    6.73383150e-01      1.99756769e+00      -2.36568187e+00     
O    1.32823366e+00      -1.00119099e+00     2.22925798e+00      
H    9.29177062e-01      -1.35318334e+00     3.02834018e+00      
H    2.25334628e+00      -8.66353712e-01     2.44724994e+00      
O    -2.73715426e+00     4.06014648e-01      1.09059290e-01      
H    -3.38533751e+00     7.32532677e-01      7.38682653e-01      
H    -3.01560813e+00     7.30530978e-01      -7.52428746e-01     
O    -1.61279312e+00     -1.29699072e+00     -5.42493347e+00     
H    -1.70502556e+00     -1.96289369e+00     -6.11391275e+00     
H    -2.33814235e+00     -6.83118628e-01     -5.56073163e+00     
