23
66.258903
N    9.29802691e-03      -2.99056612e-02     -3.98754125e-02     
H    4.81841319e-01      -2.73338052e-01     8.52371460e-01      
H    -9.82087521e-01     2.42119966e-01      1.34831552e-01      
H    4.87691630e-01      7.68757569e-01      -5.09197971e-01     
C    3.97910029e-02      -1.20436774e+00     -9.31976064e-01     
H    1.07109754e+00      -1.49139191e+00     -1.12014050e+00     
H    -4.74190089e-01     -2.03591783e+00     -4.56264864e-01     
C    -6.44070333e-01     -8.47041118e-01     -2.23586625e+00     
O    -1.15181283e+00     2.37598793e-01      -2.45472892e+00     
O    -5.98260591e-01     -1.87585247e+00     -3.06039246e+00     
H    -1.01671291e+00     -1.62214214e+00     -3.93611727e+00     
O    1.25646187e+00      1.82318228e+00      -1.65977732e+00     
H    1.84187804e+00      2.58230864e+00      -1.59136210e+00     
H    6.55564433e-01      2.01579591e+00      -2.38615845e+00     
O    1.31258461e+00      -1.00622502e+00     2.23473765e+00      
H    8.92027236e-01      -1.45529216e+00     2.98031762e+00      
H    2.20832217e+00      -7.91534933e-01     2.52847680e+00      
O    -2.71144568e+00     3.84971398e-01      1.28888478e-01      
H    -3.34617761e+00     7.16856018e-01      7.69881597e-01      
H    -3.00465524e+00     7.10501962e-01      -7.27779932e-01     
O    -1.60800838e+00     -1.29577089e+00     -5.42591946e+00     
H    -1.71645211e+00     -1.96401320e+00     -6.11041949e+00     
H    -2.32524370e+00     -6.71253652e-01     -5.55836568e+00     
23
66.258903
N    6.29198889e-03      -3.10298592e-02     -3.84372628e-02     
H    4.79047563e-01      -2.74414369e-01     8.53711653e-01      
H    -9.85555606e-01     2.40150378e-01      1.35364246e-01      
H    4.84573251e-01      7.68283502e-01      -5.06594974e-01     
C    3.95134973e-02      -1.20447124e+00     -9.31752100e-01     
H    1.07145430e+00      -1.48959416e+00     -1.11915645e+00     
H    -4.73592203e-01     -2.03737695e+00     -4.57470927e-01     
C    -6.43917974e-01     -8.46917724e-01     -2.23581552e+00     
O    -1.15608678e+00     2.35928348e-01      -2.45280138e+00     
O    -5.92462500e-01     -1.87341188e+00     -3.06271278e+00     
H    -1.01319758e+00     -1.62043867e+00     -3.93753804e+00     
O    1.25911616e+00      1.82063975e+00      -1.65536235e+00     
H    1.84663537e+00      2.57761454e+00      -1.58258845e+00     
H    6.61337381e-01      2.01768367e+00      -2.38296815e+00     
O    1.31619167e+00      -1.00498857e+00     2.23331544e+00      
H    8.99581763e-01      -1.42899205e+00     2.99188505e+00      
H    2.21916613e+00      -8.11329607e-01     2.50922746e+00      
O    -2.71424572e+00     3.87295493e-01      1.24357262e-01      
H    -3.35188938e+00     7.21439702e-01      7.61087660e-01      
H    -3.00224497e+00     7.11062738e-01      -7.34615712e-01     
O    -1.61107092e+00     -1.29656932e+00     -5.42516287e+00     
H    -1.71580168e+00     -1.96465238e+00     -6.11032355e+00     
H    -2.33387204e+00     -6.78304977e-01     -5.55455748e+00     
23
66.258903
N    4.78896988e-03      -3.15919583e-02     -3.77181879e-02     
H    4.77650685e-01      -2.74952527e-01     8.54381749e-01      
H    -9.87289648e-01     2.39165584e-01      1.35630592e-01      
H    4.83014061e-01      7.68046469e-01      -5.05293475e-01     
C    3.93747444e-02      -1.20452299e+00     -9.31640118e-01     
H    1.07163268e+00      -1.48869529e+00     -1.11866442e+00     
H    -4.73293261e-01     -2.03810650e+00     -4.58073958e-01     
C    -6.43841795e-01     -8.46856027e-01     -2.23579016e+00     
O    -1.15822376e+00     2.35093126e-01      -2.45183760e+00     
O    -5.89563454e-01     -1.87219158e+00     -3.06387293e+00     
H    -1.01143991e+00     -1.61958693e+00     -3.93824843e+00     
O    1.26044330e+00      1.81936848e+00      -1.65315487e+00     
H    1.84901404e+00      2.57526749e+00      -1.57820163e+00     
H    6.64223854e-01      2.01862755e+00      -2.38137301e+00     
O    1.31799520e+00      -1.00437034e+00     2.23260433e+00      
H    9.03359027e-01      -1.41584200e+00     2.99766876e+00      
H    2.22458811e+00      -8.21226945e-01     2.49960279e+00      
O    -2.71564575e+00     3.88457541e-01      1.22091654e-01      
H    -3.35474526e+00     7.23731545e-01      7.56690691e-01      
H    -3.00103983e+00     7.11343126e-01      -7.38033601e-01     
O    -1.61260219e+00     -1.29696853e+00     -5.42478458e+00     
H    -1.71547647e+00     -1.96497197e+00     -6.11027558e+00     
H    -2.33818621e+00     -6.81830639e-01     -5.55265338e+00     
23
66.258903
N    3.28595088e-03      -3.21540573e-02     -3.69991131e-02     
H    4.76253807e-01      -2.75490686e-01     8.55051845e-01      
H    -9.89023690e-01     2.38180789e-01      1.35896939e-01      
H    4.81454871e-01      7.67809436e-01      -5.03991977e-01     
C    3.92359916e-02      -1.20457474e+00     -9.31528136e-01     
H    1.07181105e+00      -1.48779641e+00     -1.11817240e+00     
H    -4.72994318e-01     -2.03883606e+00     -4.58676990e-01     
C    -6.43765615e-01     -8.46794330e-01     -2.23576480e+00     
O    -1.16036073e+00     2.34257904e-01      -2.45087383e+00     
O    -5.86664408e-01     -1.87097128e+00     -3.06503309e+00     
H    -1.00968224e+00     -1.61873520e+00     -3.93895881e+00     
O    1.26177045e+00      1.81809722e+00      -1.65094738e+00     
H    1.85139271e+00      2.57292044e+00      -1.57381481e+00     
H    6.67110328e-01      2.01957143e+00      -2.37977786e+00     
O    1.31979873e+00      -1.00375211e+00     2.23189323e+00      
H    9.07136291e-01      -1.40269195e+00     3.00345248e+00      
H    2.23001009e+00      -8.31124282e-01     2.48997812e+00      
O    -2.71704577e+00     3.89619589e-01      1.19826046e-01      
H    -3.35760114e+00     7.26023387e-01      7.52293723e-01      
H    -2.99983470e+00     7.11623515e-01      -7.41451491e-01     
O    -1.61413346e+00     -1.29736774e+00     -5.42440629e+00     
H    -1.71515126e+00     -1.96529157e+00     -6.11022761e+00     
H    -2.34250037e+00     -6.85356302e-01     -5.55074927e+00     
23
66.258903
N    1.78293187e-03      -3.27161563e-02     -3.62800382e-02     
H    4.74856929e-01      -2.76028844e-01     8.55721941e-01      
H    -9.90757732e-01     2.37195995e-01      1.36163286e-01      
H    4.79895681e-01      7.67572403e-01      -5.02690478e-01     
C    3.90972388e-02      -1.20462649e+00     -9.31416154e-01     
H    1.07198943e+00      -1.48689754e+00     -1.11768037e+00     
H    -4.72695375e-01     -2.03956562e+00     -4.59280021e-01     
C    -6.43689436e-01     -8.46732633e-01     -2.23573943e+00     
O    -1.16249771e+00     2.33422682e-01      -2.44991006e+00     
O    -5.83765363e-01     -1.86975099e+00     -3.06619325e+00     
H    -1.00792458e+00     -1.61788346e+00     -3.93966920e+00     
O    1.26309759e+00      1.81682595e+00      -1.64873990e+00     
H    1.85377137e+00      2.57057340e+00      -1.56942799e+00     
H    6.69996802e-01      2.02051530e+00      -2.37818271e+00     
O    1.32160226e+00      -1.00313388e+00     2.23118212e+00      
H    9.10913555e-01      -1.38954189e+00     3.00923619e+00      
H    2.23543207e+00      -8.41021619e-01     2.48035345e+00      
O    -2.71844579e+00     3.90781637e-01      1.17560438e-01      
H    -3.36045702e+00     7.28315229e-01      7.47896754e-01      
H    -2.99862956e+00     7.11903903e-01      -7.44869381e-01     
O    -1.61566473e+00     -1.29776695e+00     -5.42402800e+00     
H    -1.71482605e+00     -1.96561116e+00     -6.11017964e+00     
H    -2.34681454e+00     -6.88881964e-01     -5.54884517e+00     
23
66.258903
N    2.79912864e-04      -3.32782553e-02     -3.55609634e-02     
H    4.73460051e-01      -2.76567003e-01     8.56392038e-01      
H    -9.92491775e-01     2.36211201e-01      1.36429633e-01      
H    4.78336492e-01      7.67335370e-01      -5.01388979e-01     
C    3.89584860e-02      -1.20467824e+00     -9.31304172e-01     
H    1.07216781e+00      -1.48599867e+00     -1.11718834e+00     
H    -4.72396432e-01     -2.04029518e+00     -4.59883053e-01     
C    -6.43613256e-01     -8.46670937e-01     -2.23571407e+00     
O    -1.16463468e+00     2.32587459e-01      -2.44894629e+00     
O    -5.80866317e-01     -1.86853069e+00     -3.06735341e+00     
H    -1.00616691e+00     -1.61703172e+00     -3.94037959e+00     
O    1.26442473e+00      1.81555468e+00      -1.64653241e+00     
H    1.85615004e+00      2.56822635e+00      -1.56504116e+00     
H    6.72883276e-01      2.02145918e+00      -2.37658756e+00     
O    1.32340579e+00      -1.00251566e+00     2.23047101e+00      
H    9.14690818e-01      -1.37639184e+00     3.01501990e+00      
H    2.24085405e+00      -8.50918956e-01     2.47072878e+00      
O    -2.71984581e+00     3.91943684e-01      1.15294830e-01      
H    -3.36331291e+00     7.30607071e-01      7.43499785e-01      
H    -2.99742442e+00     7.12184291e-01      -7.48287271e-01     
O    -1.61719600e+00     -1.29816616e+00     -5.42364970e+00     
H    -1.71450083e+00     -1.96593075e+00     -6.11013167e+00     
H    -2.35112871e+00     -6.92407626e-01     -5.54694107e+00     
23
66.258903
N    -4.71596640e-04     -3.35593049e-02     -3.52014260e-02     
H    4.72761612e-01      -2.76836082e-01     8.56727086e-01      
H    -9.93358796e-01     2.35718804e-01      1.36562806e-01      
H    4.77556897e-01      7.67216854e-01      -5.00738230e-01     
C    3.88891095e-02      -1.20470411e+00     -9.31248181e-01     
H    1.07225700e+00      -1.48554923e+00     -1.11694233e+00     
H    -4.72246961e-01     -2.04065995e+00     -4.60184569e-01     
C    -6.43575166e-01     -8.46640088e-01     -2.23570139e+00     
O    -1.16570317e+00     2.32169848e-01      -2.44846440e+00     
O    -5.79416794e-01     -1.86792054e+00     -3.06793348e+00     
H    -1.00528808e+00     -1.61660585e+00     -3.94073478e+00     
O    1.26508830e+00      1.81491905e+00      -1.64542867e+00     
H    1.85733937e+00      2.56705282e+00      -1.56284775e+00     
H    6.74326512e-01      2.02193112e+00      -2.37578998e+00     
O    1.32430756e+00      -1.00220654e+00     2.23011546e+00      
H    9.16579450e-01      -1.36981681e+00     3.01791176e+00      
H    2.24356504e+00      -8.55867625e-01     2.46591645e+00      
O    -2.72054582e+00     3.92524708e-01      1.14162026e-01      
H    -3.36474085e+00     7.31752993e-01      7.41301301e-01      
H    -2.99682185e+00     7.12324486e-01      -7.49996216e-01     
O    -1.61796164e+00     -1.29836576e+00     -5.42346056e+00     
H    -1.71433823e+00     -1.96609055e+00     -6.11010769e+00     
H    -2.35328580e+00     -6.94170458e-01     -5.54598902e+00     
23
66.258903
N    -1.22310614e-03     -3.38403544e-02     -3.48418885e-02     
H    4.72063173e-01      -2.77105161e-01     8.57062134e-01      
H    -9.94225817e-01     2.35226407e-01      1.36695979e-01      
H    4.76777302e-01      7.67098337e-01      -5.00087481e-01     
C    3.88197331e-02      -1.20472999e+00     -9.31192190e-01     
H    1.07234619e+00      -1.48509979e+00     -1.11669632e+00     
H    -4.72097490e-01     -2.04102473e+00     -4.60486084e-01     
C    -6.43537077e-01     -8.46609240e-01     -2.23568870e+00     
O    -1.16677166e+00     2.31752237e-01      -2.44798251e+00     
O    -5.77967272e-01     -1.86731040e+00     -3.06851356e+00     
H    -1.00440925e+00     -1.61617999e+00     -3.94108997e+00     
O    1.26575188e+00      1.81428342e+00      -1.64432493e+00     
H    1.85852870e+00      2.56587930e+00      -1.56065434e+00     
H    6.75769749e-01      2.02240306e+00      -2.37499241e+00     
O    1.32520932e+00      -1.00189743e+00     2.22975991e+00      
H    9.18468082e-01      -1.36324178e+00     3.02080362e+00      
H    2.24627603e+00      -8.60816294e-01     2.46110411e+00      
O    -2.72124583e+00     3.93105732e-01      1.13029222e-01      
H    -3.36616879e+00     7.32898914e-01      7.39102817e-01      
H    -2.99621929e+00     7.12464680e-01      -7.51705161e-01     
O    -1.61872727e+00     -1.29856537e+00     -5.42327141e+00     
H    -1.71417562e+00     -1.96625035e+00     -6.11008370e+00     
H    -2.35544288e+00     -6.95933289e-01     -5.54503697e+00     
23
66.258903
N    -4.22914416e-03     -3.49645524e-02     -3.34037389e-02     
H    4.69269417e-01      -2.78181479e-01     8.58402326e-01      
H    -9.97693901e-01     2.33256819e-01      1.37228673e-01      
H    4.73658922e-01      7.66624271e-01      -4.97484483e-01     
C    3.85422275e-02      -1.20483349e+00     -9.30968226e-01     
H    1.07270295e+00      -1.48330205e+00     -1.11571226e+00     
H    -4.71499604e-01     -2.04248385e+00     -4.61692148e-01     
C    -6.43384717e-01     -8.46485846e-01     -2.23563798e+00     
O    -1.17104560e+00     2.30081793e-01      -2.44605497e+00     
O    -5.72169180e-01     -1.86486980e+00     -3.07083388e+00     
H    -1.00089391e+00     -1.61447651e+00     -3.94251075e+00     
O    1.26840616e+00      1.81174088e+00      -1.63990995e+00     
H    1.86328604e+00      2.56118520e+00      -1.55188070e+00     
H    6.81542697e-01      2.02429082e+00      -2.37180211e+00     
O    1.32881638e+00      -1.00066097e+00     2.22833769e+00      
H    9.26022610e-01      -1.33694168e+00     3.03237104e+00      
H    2.25711999e+00      -8.80610968e-01     2.44185477e+00      
O    -2.72404587e+00     3.95429828e-01      1.08498006e-01      
H    -3.37188055e+00     7.37482598e-01      7.30308879e-01      
H    -2.99380901e+00     7.13025456e-01      -7.58540941e-01     
O    -1.62178981e+00     -1.29936379e+00     -5.42251483e+00     
H    -1.71352520e+00     -1.96688953e+00     -6.10998776e+00     
H    -2.36407122e+00     -7.02984613e-01     -5.54122877e+00     
23
66.258903
N    -4.98065366e-03     -3.52456019e-02     -3.30442014e-02     
H    4.68570978e-01      -2.78450558e-01     8.58737374e-01      
H    -9.98560922e-01     2.32764422e-01      1.37361846e-01      
H    4.72879327e-01      7.66505754e-01      -4.96833734e-01     
C    3.84728511e-02      -1.20485937e+00     -9.30912235e-01     
H    1.07279214e+00      -1.48285261e+00     -1.11546625e+00     
H    -4.71350133e-01     -2.04284863e+00     -4.61993663e-01     
C    -6.43346628e-01     -8.46454998e-01     -2.23562529e+00     
O    -1.17211409e+00     2.29664182e-01      -2.44557308e+00     
O    -5.70719658e-01     -1.86425966e+00     -3.07141396e+00     
H    -1.00001508e+00     -1.61405065e+00     -3.94286594e+00     
O    1.26906974e+00      1.81110525e+00      -1.63880621e+00     
H    1.86447537e+00      2.56001168e+00      -1.54968729e+00     
H    6.82985934e-01      2.02476276e+00      -2.37100454e+00     
O    1.32971814e+00      -1.00035186e+00     2.22798214e+00      
H    9.27911242e-01      -1.33036665e+00     3.03526290e+00      
H    2.25983098e+00      -8.85559637e-01     2.43704243e+00      
O    -2.72474588e+00     3.96010852e-01      1.07365202e-01      
H    -3.37330849e+00     7.38628519e-01      7.28110395e-01      
H    -2.99320645e+00     7.13165650e-01      -7.60249886e-01     
O    -1.62255544e+00     -1.29956340e+00     -5.42232568e+00     
H    -1.71336259e+00     -1.96704933e+00     -6.10996377e+00     
H    -2.36622830e+00     -7.04747444e-01     -5.54027672e+00     
23
66.258903
N    -5.73216316e-03     -3.55266515e-02     -3.26846640e-02     
H    4.67872539e-01      -2.78719637e-01     8.59072422e-01      
H    -9.99427943e-01     2.32272025e-01      1.37495019e-01      
H    4.72099732e-01      7.66387238e-01      -4.96182985e-01     
C    3.84034746e-02      -1.20488524e+00     -9.30856244e-01     
H    1.07288133e+00      -1.48240317e+00     -1.11522024e+00     
H    -4.71200662e-01     -2.04321340e+00     -4.62295179e-01     
C    -6.43308538e-01     -8.46424149e-01     -2.23561261e+00     
O    -1.17318258e+00     2.29246571e-01      -2.44509119e+00     
O    -5.69270135e-01     -1.86364951e+00     -3.07199403e+00     
H    -9.99136248e-01     -1.61362478e+00     -3.94322113e+00     
O    1.26973331e+00      1.81046962e+00      -1.63770247e+00     
H    1.86566470e+00      2.55883815e+00      -1.54749388e+00     
H    6.84429170e-01      2.02523470e+00      -2.37020696e+00     
O    1.33061991e+00      -1.00004274e+00     2.22762659e+00      
H    9.29799874e-01      -1.32379162e+00     3.03815476e+00      
H    2.26254197e+00      -8.90508306e-01     2.43223010e+00      
O    -2.72544589e+00     3.96591876e-01      1.06232398e-01      
H    -3.37473643e+00     7.39774441e-01      7.25911911e-01      
H    -2.99260388e+00     7.13305845e-01      -7.61958831e-01     
O    -1.62332108e+00     -1.29976300e+00     -5.42213654e+00     
H    -1.71319999e+00     -1.96720913e+00     -6.10993979e+00     
H    -2.36838539e+00     -7.06510276e-01     -5.53932467e+00     
23
66.258903
N    -7.23518217e-03     -3.60887505e-02     -3.19655892e-02     
H    4.66475661e-01      -2.79257796e-01     8.59742519e-01      
H    -1.00116199e+00     2.31287231e-01      1.37761366e-01      
H    4.70540543e-01      7.66150205e-01      -4.94881486e-01     
C    3.82647218e-02      -1.20493699e+00     -9.30744262e-01     
H    1.07305971e+00      -1.48150430e+00     -1.11472821e+00     
H    -4.70901719e-01     -2.04394296e+00     -4.62898211e-01     
C    -6.43232358e-01     -8.46362453e-01     -2.23558725e+00     
O    -1.17531955e+00     2.28411348e-01      -2.44412742e+00     
O    -5.66371089e-01     -1.86242921e+00     -3.07315419e+00     
H    -9.97378582e-01     -1.61277304e+00     -3.94393152e+00     
O    1.27106045e+00      1.80919835e+00      -1.63549498e+00     
H    1.86804337e+00      2.55649110e+00      -1.54310705e+00     
H    6.87315644e-01      2.02617858e+00      -2.36861181e+00     
O    1.33242344e+00      -9.99424516e-01     2.22691548e+00      
H    9.33577137e-01      -1.31064157e+00     3.04393847e+00      
H    2.26796395e+00      -9.00405643e-01     2.42260543e+00      
O    -2.72684591e+00     3.97753923e-01      1.03966790e-01      
H    -3.37759232e+00     7.42066283e-01      7.21514942e-01      
H    -2.99139874e+00     7.13586233e-01      -7.65376721e-01     
O    -1.62485235e+00     -1.30016221e+00     -5.42175824e+00     
H    -1.71287477e+00     -1.96752872e+00     -6.10989182e+00     
H    -2.37269956e+00     -7.10035938e-01     -5.53742057e+00     
23
66.258903
N    -8.73820118e-03     -3.66508495e-02     -3.12465143e-02     
H    4.65078783e-01      -2.79795954e-01     8.60412615e-01      
H    -1.00289603e+00     2.30302437e-01      1.38027713e-01      
H    4.68981353e-01      7.65913172e-01      -4.93579987e-01     
C    3.81259690e-02      -1.20498874e+00     -9.30632280e-01     
H    1.07323809e+00      -1.48060543e+00     -1.11423618e+00     
H    -4.70602776e-01     -2.04467252e+00     -4.63501242e-01     
C    -6.43156179e-01     -8.46300756e-01     -2.23556188e+00     
O    -1.17745653e+00     2.27576126e-01      -2.44316365e+00     
O    -5.63472044e-01     -1.86120892e+00     -3.07431435e+00     
H    -9.95620916e-01     -1.61192130e+00     -3.94464191e+00     
O    1.27238759e+00      1.80792708e+00      -1.63328750e+00     
H    1.87042203e+00      2.55414406e+00      -1.53872023e+00     
H    6.90202118e-01      2.02712245e+00      -2.36701666e+00     
O    1.33422697e+00      -9.98806288e-01     2.22620437e+00      
H    9.37354401e-01      -1.29749151e+00     3.04972218e+00      
H    2.27338593e+00      -9.10302980e-01     2.41298076e+00      
O    -2.72824593e+00     3.98915971e-01      1.01701182e-01      
H    -3.38044820e+00     7.44358125e-01      7.17117973e-01      
H    -2.99019360e+00     7.13866621e-01      -7.68794611e-01     
O    -1.62638362e+00     -1.30056142e+00     -5.42137995e+00     
H    -1.71254956e+00     -1.96784831e+00     -6.10984385e+00     
H    -2.37701373e+00     -7.13561600e-01     -5.53551647e+00     
23
66.258903
N    -1.02412202e-02     -3.72129485e-02     -3.05274395e-02     
H    4.63681905e-01      -2.80334113e-01     8.61082711e-01      
H    -1.00463007e+00     2.29317642e-01      1.38294060e-01      
H    4.67422163e-01      7.65676139e-01      -4.92278489e-01     
C    3.79872162e-02      -1.20504049e+00     -9.30520298e-01     
H    1.07341646e+00      -1.47970655e+00     -1.11374416e+00     
H    -4.70303833e-01     -2.04540208e+00     -4.64104274e-01     
C    -6.43079999e-01     -8.46239059e-01     -2.23553652e+00     
O    -1.17959350e+00     2.26740904e-01      -2.44219988e+00     
O    -5.60572998e-01     -1.85998862e+00     -3.07547451e+00     
H    -9.93863250e-01     -1.61106957e+00     -3.94535229e+00     
O    1.27371474e+00      1.80665582e+00      -1.63108001e+00     
H    1.87280070e+00      2.55179701e+00      -1.53433341e+00     
H    6.93088592e-01      2.02806633e+00      -2.36542151e+00     
O    1.33603050e+00      -9.98188059e-01     2.22549327e+00      
H    9.41131665e-01      -1.28434146e+00     3.05550590e+00      
H    2.27880791e+00      -9.20200317e-01     2.40335609e+00      
O    -2.72964595e+00     4.00078019e-01      9.94355738e-02      
H    -3.38330408e+00     7.46649967e-01      7.12721005e-01      
H    -2.98898847e+00     7.14147010e-01      -7.72212501e-01     
O    -1.62791489e+00     -1.30096063e+00     -5.42100166e+00     
H    -1.71222435e+00     -1.96816791e+00     -6.10979588e+00     
H    -2.38132789e+00     -7.17087263e-01     -5.53361236e+00     
23
66.258903
N    -1.17442392e-02     -3.77750476e-02     -2.98083646e-02     
H    4.62285027e-01      -2.80872271e-01     8.61752807e-01      
H    -1.00636411e+00     2.28332848e-01      1.38560406e-01      
H    4.65862973e-01      7.65439106e-01      -4.90976990e-01     
C    3.78484633e-02      -1.20509224e+00     -9.30408316e-01     
H    1.07359484e+00      -1.47880768e+00     -1.11325213e+00     
H    -4.70004891e-01     -2.04613163e+00     -4.64707305e-01     
C    -6.43003820e-01     -8.46177362e-01     -2.23551116e+00     
O    -1.18173048e+00     2.25905682e-01      -2.44123610e+00     
O    -5.57673952e-01     -1.85876832e+00     -3.07663466e+00     
H    -9.92105584e-01     -1.61021783e+00     -3.94606268e+00     
O    1.27504188e+00      1.80538455e+00      -1.62887253e+00     
H    1.87517937e+00      2.54944996e+00      -1.52994659e+00     
H    6.95975065e-01      2.02901021e+00      -2.36382637e+00     
O    1.33783403e+00      -9.97569831e-01     2.22478216e+00      
H    9.44908929e-01      -1.27119141e+00     3.06128961e+00      
H    2.28422989e+00      -9.30097655e-01     2.39373142e+00      
O    -2.73104598e+00     4.01240067e-01      9.71699658e-02      
H    -3.38615996e+00     7.48941810e-01      7.08324036e-01      
H    -2.98778333e+00     7.14427398e-01      -7.75630390e-01     
O    -1.62944616e+00     -1.30135984e+00     -5.42062337e+00     
H    -1.71189914e+00     -1.96848750e+00     -6.10974791e+00     
H    -2.38564206e+00     -7.20612925e-01     -5.53170826e+00     
23
66.258903
N    -1.47502772e-02     -3.88992456e-02     -2.83702149e-02     
H    4.59491271e-01      -2.81948588e-01     8.63093000e-01      
H    -1.00983220e+00     2.26363260e-01      1.39093100e-01      
H    4.62744594e-01      7.64965039e-01      -4.88373993e-01     
C    3.75709577e-02      -1.20519574e+00     -9.30184352e-01     
H    1.07395160e+00      -1.47700993e+00     -1.11226808e+00     
H    -4.69407005e-01     -2.04759075e+00     -4.65913368e-01     
C    -6.42851461e-01     -8.46053968e-01     -2.23546043e+00     
O    -1.18600443e+00     2.24235237e-01      -2.43930856e+00     
O    -5.51875861e-01     -1.85632773e+00     -3.07895498e+00     
H    -9.88590252e-01     -1.60851436e+00     -3.94748345e+00     
O    1.27769617e+00      1.80284202e+00      -1.62445756e+00     
H    1.87993670e+00      2.54475586e+00      -1.52117294e+00     
H    7.01748013e-01      2.03089797e+00      -2.36063607e+00     
O    1.34144109e+00      -9.96333375e-01     2.22335995e+00      
H    9.52463456e-01      -1.24489130e+00     3.07285704e+00      
H    2.29507385e+00      -9.49892329e-01     2.37448208e+00      
O    -2.73384602e+00     4.03564162e-01      9.26387497e-02      
H    -3.39187173e+00     7.53525494e-01      6.99530099e-01      
H    -2.98537306e+00     7.14988174e-01      -7.82466170e-01     
O    -1.63250870e+00     -1.30215827e+00     -5.41986678e+00     
H    -1.71124871e+00     -1.96912668e+00     -6.10965197e+00     
H    -2.39427040e+00     -7.27664250e-01     -5.52790006e+00     
