23
60.263422
N    2.76891794e-03      -3.21041215e-02     -3.69358648e-02     
H    4.80193805e-01      -2.73619336e-01     8.53241789e-01      
H    -9.88937117e-01     2.37917766e-01      1.39020600e-01      
H    4.78926092e-01      7.67596800e-01      -5.06832687e-01     
C    3.46522943e-02      -1.20634221e+00     -9.29281104e-01     
H    1.06620999e+00      -1.49256973e+00     -1.11697783e+00     
H    -4.78959820e-01     -2.03835312e+00     -4.53909026e-01     
C    -6.48067467e-01     -8.48999905e-01     -2.23375975e+00     
O    -1.15991253e+00     2.33898146e-01      -2.45133176e+00     
O    -5.95227751e-01     -1.87517485e+00     -3.06093597e+00     
H    -1.01394752e+00     -1.62133163e+00     -3.93653705e+00     
O    1.26107450e+00      1.82100362e+00      -1.64758078e+00     
H    1.84487507e+00      2.57940674e+00      -1.56137882e+00     
H    6.69326412e-01      2.02357086e+00      -2.37843665e+00     
O    1.32496805e+00      -1.00223376e+00     2.22914259e+00      
H    9.17702964e-01      -1.22921722e+00     3.07873269e+00      
H    2.28097989e+00      -9.83627952e-01     2.38694147e+00      
O    -2.71829572e+00     3.86627411e-01      1.15153038e-01      
H    -3.36661686e+00     7.16529450e-01      7.43120315e-01      
H    -2.99659758e+00     7.08432031e-01      -7.47613544e-01     
O    -1.60567771e+00     -1.29312634e+00     -5.42548785e+00     
H    -1.70992915e+00     -1.96024593e+00     -6.11168357e+00     
H    -2.32842617e+00     -6.74696567e-01     -5.55454657e+00     
23
60.263422
N    1.39515717e-03      -3.26787045e-02     -3.62326021e-02     
H    4.77811927e-01      -2.74625332e-01     8.54364399e-01      
H    -9.90692803e-01     2.36998728e-01      1.38506032e-01      
H    4.77999097e-01      7.67412926e-01      -5.04821011e-01     
C    3.56594658e-02      -1.20595209e+00     -9.29730880e-01     
H    1.06778863e+00      -1.49047753e+00     -1.11678444e+00     
H    -4.77169502e-01     -2.03920341e+00     -4.55704048e-01     
C    -6.46915825e-01     -8.48386815e-01     -2.23423564e+00     
O    -1.16216155e+00     2.33152863e-01      -2.45025350e+00     
O    -5.90187870e-01     -1.87290366e+00     -3.06312041e+00     
H    -1.01112354e+00     -1.61983079e+00     -3.93785287e+00     
O    1.26257563e+00      1.81900575e+00      -1.64621494e+00     
H    1.84888315e+00      2.57543812e+00      -1.56010099e+00     
H    6.71658865e-01      2.02351488e+00      -2.37717681e+00     
O    1.32547925e+00      -1.00199512e+00     2.22911914e+00      
H    9.18838559e-01      -1.25943585e+00     3.06569635e+00      
H    2.27365942e+00      -9.55399372e-01     2.40307596e+00      
O    -2.71938325e+00     3.88537504e-01      1.14055682e-01      
H    -3.36721881e+00     7.21194777e-01      7.41016698e-01      
H    -2.99620172e+00     7.09510291e-01      -7.49490921e-01     
O    -1.60932292e+00     -1.29458590e+00     -5.42483917e+00     
H    -1.71090947e+00     -1.96182693e+00     -6.11127161e+00     
H    -2.33625889e+00     -6.80887163e-01     -5.55169315e+00     
23
60.263422
N    7.08276783e-04      -3.29659960e-02     -3.58809707e-02     
H    4.76620989e-01      -2.75128330e-01     8.54925704e-01      
H    -9.91570645e-01     2.36539208e-01      1.38248747e-01      
H    4.77535599e-01      7.67320989e-01      -5.03815172e-01     
C    3.61630515e-02      -1.20575703e+00     -9.29955768e-01     
H    1.06857795e+00      -1.48943143e+00     -1.11668775e+00     
H    -4.76274343e-01     -2.03962856e+00     -4.56601560e-01     
C    -6.46340003e-01     -8.48080269e-01     -2.23447359e+00     
O    -1.16328607e+00     2.32780222e-01      -2.44971438e+00     
O    -5.87667929e-01     -1.87176807e+00     -3.06421263e+00     
H    -1.00971154e+00     -1.61908036e+00     -3.93851079e+00     
O    1.26332620e+00      1.81800682e+00      -1.64553203e+00     
H    1.85088718e+00      2.57345381e+00      -1.55946208e+00     
H    6.72825091e-01      2.02348689e+00      -2.37654688e+00     
O    1.32573485e+00      -1.00187580e+00     2.22910742e+00      
H    9.19406357e-01      -1.27454516e+00     3.05917818e+00      
H    2.26999918e+00      -9.41285082e-01     2.41114321e+00      
O    -2.71992702e+00     3.89492550e-01      1.13507004e-01      
H    -3.36751979e+00     7.23527440e-01      7.39964890e-01      
H    -2.99600379e+00     7.10049420e-01      -7.50429609e-01     
O    -1.61114552e+00     -1.29531568e+00     -5.42451483e+00     
H    -1.71139962e+00     -1.96261743e+00     -6.11106563e+00     
H    -2.34017525e+00     -6.83982461e-01     -5.55026643e+00     
23
60.263422
N    2.13963960e-05      -3.32532874e-02     -3.55293393e-02     
H    4.75430050e-01      -2.75631328e-01     8.55487010e-01      
H    -9.92448488e-01     2.36079689e-01      1.37991463e-01      
H    4.77072102e-01      7.67229052e-01      -5.02809334e-01     
C    3.66666373e-02      -1.20556197e+00     -9.30180656e-01     
H    1.06936728e+00      -1.48838533e+00     -1.11659106e+00     
H    -4.75379184e-01     -2.04005371e+00     -4.57499071e-01     
C    -6.45764182e-01     -8.47773724e-01     -2.23471154e+00     
O    -1.16441058e+00     2.32407581e-01      -2.44917525e+00     
O    -5.85147989e-01     -1.87063248e+00     -3.06530485e+00     
H    -1.00829955e+00     -1.61832994e+00     -3.93916870e+00     
O    1.26407676e+00      1.81700788e+00      -1.64484911e+00     
H    1.85289122e+00      2.57146950e+00      -1.55882317e+00     
H    6.73991318e-01      2.02345890e+00      -2.37591696e+00     
O    1.32599045e+00      -1.00175648e+00     2.22909569e+00      
H    9.19974155e-01      -1.28965448e+00     3.05266001e+00      
H    2.26633895e+00      -9.27170792e-01     2.41921045e+00      
O    -2.72047078e+00     3.90447596e-01      1.12958326e-01      
H    -3.36782076e+00     7.25860103e-01      7.38913082e-01      
H    -2.99580586e+00     7.10588550e-01      -7.51368298e-01     
O    -1.61296812e+00     -1.29604546e+00     -5.42419049e+00     
H    -1.71188978e+00     -1.96340793e+00     -6.11085965e+00     
H    -2.34409161e+00     -6.87077759e-01     -5.54883972e+00     
23
60.263422
N    -6.65483990e-04     -3.35405789e-02     -3.51777079e-02     
H    4.74239111e-01      -2.76134326e-01     8.56048315e-01      
H    -9.93326331e-01     2.35620170e-01      1.37734179e-01      
H    4.76608604e-01      7.67137115e-01      -5.01803496e-01     
C    3.71702230e-02      -1.20536692e+00     -9.30405544e-01     
H    1.07015660e+00      -1.48733922e+00     -1.11649437e+00     
H    -4.74484024e-01     -2.04047885e+00     -4.58396582e-01     
C    -6.45188361e-01     -8.47467179e-01     -2.23494949e+00     
O    -1.16553509e+00     2.32034939e-01      -2.44863612e+00     
O    -5.82628048e-01     -1.86949688e+00     -3.06639706e+00     
H    -1.00688756e+00     -1.61757952e+00     -3.93982662e+00     
O    1.26482733e+00      1.81600895e+00      -1.64416619e+00     
H    1.85489526e+00      2.56948518e+00      -1.55818426e+00     
H    6.75157544e-01      2.02343091e+00      -2.37528703e+00     
O    1.32624605e+00      -1.00163716e+00     2.22908397e+00      
H    9.20541953e-01      -1.30476379e+00     3.04614184e+00      
H    2.26267871e+00      -9.13056501e-01     2.42727770e+00      
O    -2.72101455e+00     3.91402642e-01      1.12409648e-01      
H    -3.36812174e+00     7.28192766e-01      7.37861273e-01      
H    -2.99560794e+00     7.11127679e-01      -7.52306986e-01     
O    -1.61479073e+00     -1.29677524e+00     -5.42386615e+00     
H    -1.71237994e+00     -1.96419844e+00     -6.11065367e+00     
H    -2.34800797e+00     -6.90173057e-01     -5.54741301e+00     
23
60.263422
N    -1.35236438e-03     -3.38278704e-02     -3.48260765e-02     
H    4.73048172e-01      -2.76637324e-01     8.56609620e-01      
H    -9.94204174e-01     2.35160651e-01      1.37476895e-01      
H    4.76145107e-01      7.67045178e-01      -5.00797658e-01     
C    3.76738088e-02      -1.20517186e+00     -9.30630432e-01     
H    1.07094592e+00      -1.48629312e+00     -1.11639767e+00     
H    -4.73588865e-01     -2.04090400e+00     -4.59294093e-01     
C    -6.44612540e-01     -8.47160634e-01     -2.23518744e+00     
O    -1.16665960e+00     2.31662298e-01      -2.44809699e+00     
O    -5.80108107e-01     -1.86836129e+00     -3.06748928e+00     
H    -1.00547557e+00     -1.61682910e+00     -3.94048453e+00     
O    1.26557789e+00      1.81501002e+00      -1.64348327e+00     
H    1.85689930e+00      2.56750087e+00      -1.55754534e+00     
H    6.76323770e-01      2.02340292e+00      -2.37465711e+00     
O    1.32650165e+00      -1.00151784e+00     2.22907225e+00      
H    9.21109750e-01      -1.31987310e+00     3.03962367e+00      
H    2.25901848e+00      -8.98942211e-01     2.43534495e+00      
O    -2.72155832e+00     3.92357688e-01      1.11860970e-01      
H    -3.36842272e+00     7.30525430e-01      7.36809465e-01      
H    -2.99541001e+00     7.11666809e-01      -7.53245674e-01     
O    -1.61661333e+00     -1.29750502e+00     -5.42354180e+00     
H    -1.71287010e+00     -1.96498894e+00     -6.11044769e+00     
H    -2.35192433e+00     -6.93268355e-01     -5.54598630e+00     
23
60.263422
N    -1.69580457e-03     -3.39715162e-02     -3.46502608e-02     
H    4.72452703e-01      -2.76888823e-01     8.56890272e-01      
H    -9.94643095e-01     2.34930892e-01      1.37348252e-01      
H    4.75913358e-01      7.66999210e-01      -5.00294739e-01     
C    3.79256017e-02      -1.20507433e+00     -9.30742876e-01     
H    1.07134059e+00      -1.48577007e+00     -1.11634933e+00     
H    -4.73141286e-01     -2.04111657e+00     -4.59742849e-01     
C    -6.44324629e-01     -8.47007361e-01     -2.23530642e+00     
O    -1.16722186e+00     2.31475977e-01      -2.44782743e+00     
O    -5.78848137e-01     -1.86779349e+00     -3.06803539e+00     
H    -1.00476957e+00     -1.61645388e+00     -3.94081349e+00     
O    1.26595317e+00      1.81451055e+00      -1.64314182e+00     
H    1.85790131e+00      2.56650872e+00      -1.55722589e+00     
H    6.76906883e-01      2.02338892e+00      -2.37434215e+00     
O    1.32662945e+00      -1.00145818e+00     2.22906638e+00      
H    9.21393649e-01      -1.32742776e+00     3.03636458e+00      
H    2.25718836e+00      -8.91885066e-01     2.43937857e+00      
O    -2.72183020e+00     3.92835211e-01      1.11586631e-01      
H    -3.36857321e+00     7.31691761e-01      7.36283561e-01      
H    -2.99531104e+00     7.11936374e-01      -7.53715018e-01     
O    -1.61752463e+00     -1.29786991e+00     -5.42337963e+00     
H    -1.71311517e+00     -1.96538419e+00     -6.11034470e+00     
H    -2.35388251e+00     -6.94816004e-01     -5.54527294e+00     
23
60.263422
N    -2.03924476e-03     -3.41151619e-02     -3.44744451e-02     
H    4.71857234e-01      -2.77140322e-01     8.57170925e-01      
H    -9.95082016e-01     2.34701132e-01      1.37219610e-01      
H    4.75681609e-01      7.66953241e-01      -4.99791820e-01     
C    3.81773945e-02      -1.20497680e+00     -9.30855320e-01     
H    1.07173525e+00      -1.48524702e+00     -1.11630098e+00     
H    -4.72693706e-01     -2.04132914e+00     -4.60191605e-01     
C    -6.44036718e-01     -8.46854088e-01     -2.23542539e+00     
O    -1.16778412e+00     2.31289656e-01      -2.44755787e+00     
O    -5.77588167e-01     -1.86722569e+00     -3.06858150e+00     
H    -1.00406357e+00     -1.61607867e+00     -3.94114245e+00     
O    1.26632846e+00      1.81401108e+00      -1.64280036e+00     
H    1.85890333e+00      2.56551656e+00      -1.55690643e+00     
H    6.77489997e-01      2.02337493e+00      -2.37402718e+00     
O    1.32675725e+00      -1.00139852e+00     2.22906052e+00      
H    9.21677548e-01      -1.33498242e+00     3.03310550e+00      
H    2.25535824e+00      -8.84827921e-01     2.44341219e+00      
O    -2.72210208e+00     3.93312734e-01      1.11312292e-01      
H    -3.36872369e+00     7.32858093e-01      7.35757656e-01      
H    -2.99521208e+00     7.12205938e-01      -7.54184363e-01     
O    -1.61843594e+00     -1.29823480e+00     -5.42321746e+00     
H    -1.71336025e+00     -1.96577944e+00     -6.11024171e+00     
H    -2.35584069e+00     -6.96363653e-01     -5.54455958e+00     
23
60.263422
N    -3.41300554e-03     -3.46897449e-02     -3.37711823e-02     
H    4.69475356e-01      -2.78146318e-01     8.58293535e-01      
H    -9.96837702e-01     2.33782094e-01      1.36705042e-01      
H    4.74754615e-01      7.66769367e-01      -4.97780144e-01     
C    3.91845661e-02      -1.20458668e+00     -9.31305096e-01     
H    1.07331389e+00      -1.48315482e+00     -1.11610760e+00     
H    -4.70903388e-01     -2.04217944e+00     -4.61986627e-01     
C    -6.42885076e-01     -8.46240998e-01     -2.23590129e+00     
O    -1.17003314e+00     2.30544374e-01      -2.44647961e+00     
O    -5.72548285e-01     -1.86495451e+00     -3.07076594e+00     
H    -1.00123959e+00     -1.61457783e+00     -3.94245827e+00     
O    1.26782958e+00      1.81201322e+00      -1.64143452e+00     
H    1.86291141e+00      2.56154794e+00      -1.55562861e+00     
H    6.79822449e-01      2.02331895e+00      -2.37276734e+00     
O    1.32726845e+00      -1.00115988e+00     2.22903708e+00      
H    9.22813144e-01      -1.36520104e+00     3.02006916e+00      
H    2.24803778e+00      -8.56599341e-01     2.45954669e+00      
O    -2.72318962e+00     3.95222826e-01      1.10214936e-01      
H    -3.36932565e+00     7.37523419e-01      7.33654040e-01      
H    -2.99481622e+00     7.13284198e-01      -7.56061739e-01     
O    -1.62208114e+00     -1.29969436e+00     -5.42256878e+00     
H    -1.71434057e+00     -1.96736044e+00     -6.10982975e+00     
H    -2.36367341e+00     -7.02554249e-01     -5.54170616e+00     
23
60.263422
N    -3.75644573e-03     -3.48333906e-02     -3.35953666e-02     
H    4.68879887e-01      -2.78397817e-01     8.58574188e-01      
H    -9.97276623e-01     2.33552334e-01      1.36576400e-01      
H    4.74522866e-01      7.66723398e-01      -4.97277225e-01     
C    3.94363589e-02      -1.20448915e+00     -9.31417540e-01     
H    1.07370855e+00      -1.48263177e+00     -1.11605925e+00     
H    -4.70455808e-01     -2.04239201e+00     -4.62435383e-01     
C    -6.42597165e-01     -8.46087725e-01     -2.23602026e+00     
O    -1.17059540e+00     2.30358053e-01      -2.44621005e+00     
O    -5.71288315e-01     -1.86438671e+00     -3.07131205e+00     
H    -1.00053359e+00     -1.61420262e+00     -3.94278723e+00     
O    1.26820487e+00      1.81151375e+00      -1.64109306e+00     
H    1.86391343e+00      2.56055578e+00      -1.55530915e+00     
H    6.80405563e-01      2.02330496e+00      -2.37245237e+00     
O    1.32739625e+00      -1.00110022e+00     2.22903122e+00      
H    9.23097043e-01      -1.37275570e+00     3.01681008e+00      
H    2.24620766e+00      -8.49542196e-01     2.46358031e+00      
O    -2.72346150e+00     3.95700349e-01      1.09940597e-01      
H    -3.36947613e+00     7.38689751e-01      7.33128135e-01      
H    -2.99471726e+00     7.13553762e-01      -7.56531084e-01     
O    -1.62299245e+00     -1.30005925e+00     -5.42240661e+00     
H    -1.71458565e+00     -1.96775569e+00     -6.10972676e+00     
H    -2.36563159e+00     -7.04101898e-01     -5.54099280e+00     
23
60.263422
N    -4.09988592e-03     -3.49770364e-02     -3.34195509e-02     
H    4.68284418e-01      -2.78649316e-01     8.58854840e-01      
H    -9.97715544e-01     2.33322575e-01      1.36447757e-01      
H    4.74291117e-01      7.66677430e-01      -4.96774306e-01     
C    3.96881518e-02      -1.20439162e+00     -9.31529984e-01     
H    1.07410322e+00      -1.48210872e+00     -1.11601091e+00     
H    -4.70008229e-01     -2.04260458e+00     -4.62884139e-01     
C    -6.42309254e-01     -8.45934452e-01     -2.23613924e+00     
O    -1.17115766e+00     2.30171732e-01      -2.44594049e+00     
O    -5.70028345e-01     -1.86381891e+00     -3.07185816e+00     
H    -9.99827594e-01     -1.61382740e+00     -3.94311619e+00     
O    1.26858015e+00      1.81101428e+00      -1.64075161e+00     
H    1.86491544e+00      2.55956363e+00      -1.55498970e+00     
H    6.80988676e-01      2.02329096e+00      -2.37213741e+00     
O    1.32752405e+00      -1.00104056e+00     2.22902535e+00      
H    9.23380942e-01      -1.38031036e+00     3.01355099e+00      
H    2.24437754e+00      -8.42485051e-01     2.46761393e+00      
O    -2.72373338e+00     3.96177872e-01      1.09666258e-01      
H    -3.36962662e+00     7.39856082e-01      7.32602231e-01      
H    -2.99461829e+00     7.13823327e-01      -7.57000428e-01     
O    -1.62390375e+00     -1.30042414e+00     -5.42224444e+00     
H    -1.71483072e+00     -1.96815094e+00     -6.10962377e+00     
H    -2.36758977e+00     -7.05649547e-01     -5.54027944e+00     
23
60.263422
N    -4.78676631e-03     -3.52643279e-02     -3.30679195e-02     
H    4.67093479e-01      -2.79152314e-01     8.59416145e-01      
H    -9.98593387e-01     2.32863056e-01      1.36190473e-01      
H    4.73827620e-01      7.66585493e-01      -4.95768468e-01     
C    4.01917376e-02      -1.20419656e+00     -9.31754872e-01     
H    1.07489254e+00      -1.48106262e+00     -1.11591421e+00     
H    -4.69113070e-01     -2.04302973e+00     -4.63781650e-01     
C    -6.41733433e-01     -8.45627907e-01     -2.23637719e+00     
O    -1.17228217e+00     2.29799091e-01      -2.44540136e+00     
O    -5.67508404e-01     -1.86268332e+00     -3.07295038e+00     
H    -9.98415601e-01     -1.61307698e+00     -3.94377410e+00     
O    1.26933071e+00      1.81001535e+00      -1.64006869e+00     
H    1.86691948e+00      2.55757932e+00      -1.55435078e+00     
H    6.82154902e-01      2.02326297e+00      -2.37150749e+00     
O    1.32777965e+00      -1.00092124e+00     2.22901363e+00      
H    9.23948739e-01      -1.39541967e+00     3.00703282e+00      
H    2.24071731e+00      -8.28370761e-01     2.47568118e+00      
O    -2.72427715e+00     3.97132918e-01      1.09117580e-01      
H    -3.36992760e+00     7.42188746e-01      7.31550423e-01      
H    -2.99442036e+00     7.14362457e-01      -7.57939116e-01     
O    -1.62572635e+00     -1.30115392e+00     -5.42192009e+00     
H    -1.71532088e+00     -1.96894144e+00     -6.10941779e+00     
H    -2.37150613e+00     -7.08744845e-01     -5.53885273e+00     
23
60.263422
N    -5.47364670e-03     -3.55516194e-02     -3.27162881e-02     
H    4.65902540e-01      -2.79655312e-01     8.59977450e-01      
H    -9.99471230e-01     2.32403537e-01      1.35933189e-01      
H    4.73364122e-01      7.66493556e-01      -4.94762630e-01     
C    4.06953233e-02      -1.20400151e+00     -9.31979760e-01     
H    1.07568186e+00      -1.48001651e+00     -1.11581752e+00     
H    -4.68217910e-01     -2.04345487e+00     -4.64679161e-01     
C    -6.41157612e-01     -8.45321362e-01     -2.23661514e+00     
O    -1.17340668e+00     2.29426449e-01      -2.44486223e+00     
O    -5.64988463e-01     -1.86154772e+00     -3.07404259e+00     
H    -9.97003608e-01     -1.61232656e+00     -3.94443202e+00     
O    1.27008128e+00      1.80901642e+00      -1.63938577e+00     
H    1.86892352e+00      2.55559500e+00      -1.55371187e+00     
H    6.83321128e-01      2.02323498e+00      -2.37087756e+00     
O    1.32803525e+00      -1.00080192e+00     2.22900191e+00      
H    9.24516537e-01      -1.41052898e+00     3.00051465e+00      
H    2.23705707e+00      -8.14256470e-01     2.48374843e+00      
O    -2.72482092e+00     3.98087964e-01      1.08568902e-01      
H    -3.37022858e+00     7.44521409e-01      7.30498614e-01      
H    -2.99422244e+00     7.14901586e-01      -7.58877804e-01     
O    -1.62754896e+00     -1.30188370e+00     -5.42159575e+00     
H    -1.71581104e+00     -1.96973195e+00     -6.10921181e+00     
H    -2.37542249e+00     -7.11840143e-01     -5.53742602e+00     
23
60.263422
N    -6.16052708e-03     -3.58389108e-02     -3.23646567e-02     
H    4.64711601e-01      -2.80158310e-01     8.60538756e-01      
H    -1.00034907e+00     2.31944018e-01      1.35675905e-01      
H    4.72900625e-01      7.66401619e-01      -4.93756792e-01     
C    4.11989091e-02      -1.20380645e+00     -9.32204648e-01     
H    1.07647119e+00      -1.47897041e+00     -1.11572083e+00     
H    -4.67322751e-01     -2.04388002e+00     -4.65576672e-01     
C    -6.40581791e-01     -8.45014817e-01     -2.23685309e+00     
O    -1.17453119e+00     2.29053808e-01      -2.44432310e+00     
O    -5.62468523e-01     -1.86041213e+00     -3.07513481e+00     
H    -9.95591616e-01     -1.61157614e+00     -3.94508993e+00     
O    1.27083184e+00      1.80801748e+00      -1.63870285e+00     
H    1.87092756e+00      2.55361069e+00      -1.55307296e+00     
H    6.84487355e-01      2.02320699e+00      -2.37024764e+00     
O    1.32829085e+00      -1.00068260e+00     2.22899018e+00      
H    9.25084335e-01      -1.42563830e+00     2.99399648e+00      
H    2.23339684e+00      -8.00142180e-01     2.49181567e+00      
O    -2.72536468e+00     3.99043010e-01      1.08020224e-01      
H    -3.37052955e+00     7.46854072e-01      7.29446806e-01      
H    -2.99402451e+00     7.15440716e-01      -7.59816493e-01     
O    -1.62937156e+00     -1.30261348e+00     -5.42127141e+00     
H    -1.71630120e+00     -1.97052245e+00     -6.10900583e+00     
H    -2.37933885e+00     -7.14935441e-01     -5.53599931e+00     
23
60.263422
N    -6.84740747e-03     -3.61262023e-02     -3.20130253e-02     
H    4.63520663e-01      -2.80661308e-01     8.61100061e-01      
H    -1.00122692e+00     2.31484498e-01      1.35418620e-01      
H    4.72437127e-01      7.66309682e-01      -4.92750953e-01     
C    4.17024948e-02      -1.20361139e+00     -9.32429536e-01     
H    1.07726051e+00      -1.47792431e+00     -1.11562414e+00     
H    -4.66427592e-01     -2.04430517e+00     -4.66474184e-01     
C    -6.40005969e-01     -8.44708271e-01     -2.23709104e+00     
O    -1.17565571e+00     2.28681167e-01      -2.44378398e+00     
O    -5.59948582e-01     -1.85927654e+00     -3.07622703e+00     
H    -9.94179623e-01     -1.61082571e+00     -3.94574785e+00     
O    1.27158241e+00      1.80701855e+00      -1.63801994e+00     
H    1.87293159e+00      2.55162638e+00      -1.55243405e+00     
H    6.85653581e-01      2.02317900e+00      -2.36961771e+00     
O    1.32854645e+00      -1.00056328e+00     2.22897846e+00      
H    9.25652133e-01      -1.44074761e+00     2.98747831e+00      
H    2.22973660e+00      -7.86027890e-01     2.49988292e+00      
O    -2.72590845e+00     3.99998056e-01      1.07471546e-01      
H    -3.37083053e+00     7.49186735e-01      7.28394998e-01      
H    -2.99382658e+00     7.15979845e-01      -7.60755181e-01     
O    -1.63119416e+00     -1.30334326e+00     -5.42094707e+00     
H    -1.71679135e+00     -1.97131295e+00     -6.10879985e+00     
H    -2.38325521e+00     -7.18030739e-01     -5.53457259e+00     
23
60.263422
N    -8.22116824e-03     -3.67007853e-02     -3.13097626e-02     
H    4.61138785e-01      -2.81667304e-01     8.62222671e-01      
H    -1.00298260e+00     2.30565460e-01      1.34904052e-01      
H    4.71510132e-01      7.66125808e-01      -4.90739277e-01     
C    4.27096663e-02      -1.20322127e+00     -9.32879312e-01     
H    1.07883915e+00      -1.47583211e+00     -1.11543075e+00     
H    -4.64637274e-01     -2.04515546e+00     -4.68269206e-01     
C    -6.38854327e-01     -8.44095181e-01     -2.23756693e+00     
O    -1.17790473e+00     2.27935884e-01      -2.44270572e+00     
O    -5.54908701e-01     -1.85700535e+00     -3.07841147e+00     
H    -9.91355637e-01     -1.60932487e+00     -3.94706367e+00     
O    1.27308354e+00      1.80502068e+00      -1.63665410e+00     
H    1.87693967e+00      2.54765776e+00      -1.55115622e+00     
H    6.87986034e-01      2.02312302e+00      -2.36835787e+00     
O    1.32905765e+00      -1.00032464e+00     2.22895501e+00      
H    9.26787728e-01      -1.47096624e+00     2.97444197e+00      
H    2.22241613e+00      -7.57799310e-01     2.51601741e+00      
O    -2.72699598e+00     4.01908149e-01      1.06374190e-01      
H    -3.37143248e+00     7.53852062e-01      7.26291381e-01      
H    -2.99343072e+00     7.17058105e-01      -7.62632558e-01     
O    -1.63483937e+00     -1.30480282e+00     -5.42029839e+00     
H    -1.71777167e+00     -1.97289395e+00     -6.10838789e+00     
H    -2.39108793e+00     -7.24221335e-01     -5.53171917e+00     
