23
311.392734
N    3.65238237e-03      -3.38867476e-02     -3.57457946e-02     
H    5.04540293e-01      -2.68664125e-01     8.43892626e-01      
H    -9.87975048e-01     2.21760348e-01      1.61093243e-01      
H    4.58614361e-01      7.73283092e-01      -5.14500068e-01     
C    3.84901270e-02      -1.20516536e+00     -9.31831006e-01     
H    1.07108110e+00      -1.48724392e+00     -1.11999198e+00     
H    -4.72421269e-01     -2.04068597e+00     -4.59663224e-01     
C    -6.45435772e-01     -8.46553378e-01     -2.23535607e+00     
O    -1.16884918e+00     2.31703310e-01      -2.44760072e+00     
O    -5.73810648e-01     -1.86497709e+00     -3.07038454e+00     
H    -1.00383452e+00     -1.61589807e+00     -3.94176844e+00     
O    1.25776416e+00      1.81285164e+00      -1.63477418e+00     
H    1.87584675e+00      2.54488619e+00      -1.55912309e+00     
H    7.54779970e-01      1.97638749e+00      -2.44752010e+00     
O    1.33477568e+00      -9.97649657e-01     2.22510480e+00      
H    8.48071927e-01      -1.33496654e+00     2.98615112e+00      
H    2.24849104e+00      -9.18076418e-01     2.52272836e+00      
O    -2.73176303e+00     3.90625527e-01      1.13541121e-01      
H    -3.38409986e+00     7.51272629e-01      7.20860635e-01      
H    -2.93707162e+00     7.73104263e-01      -7.50418459e-01     
O    -1.62074288e+00     -1.30048927e+00     -5.42119111e+00     
H    -1.70731669e+00     -1.95884527e+00     -6.11810467e+00     
H    -2.35157219e+00     -6.91881198e-01     -5.54869786e+00     
23
311.392734
N    2.05775549e-03      -3.40156740e-02     -3.53400494e-02     
H    4.96071793e-01      -2.70908924e-01     8.47352527e-01      
H    -9.89971251e-01     2.24880664e-01      1.55060514e-01      
H    4.62765299e-01      7.71677645e-01      -5.10571546e-01     
C    3.85378403e-02      -1.20506946e+00     -9.31643307e-01     
H    1.07144197e+00      -1.48648317e+00     -1.11904506e+00     
H    -4.72265588e-01     -2.04095305e+00     -4.60019697e-01     
C    -6.44942053e-01     -8.46551919e-01     -2.23543289e+00     
O    -1.16886404e+00     2.31506736e-01      -2.44745522e+00     
O    -5.74125042e-01     -1.86525534e+00     -3.07020684e+00     
H    -1.00353879e+00     -1.61575562e+00     -3.94177642e+00     
O    1.26009287e+00      1.81289177e+00      -1.63660999e+00     
H    1.87211190e+00      2.54954771e+00      -1.55840920e+00     
H    7.35749033e-01      1.98812735e+00      -2.42898939e+00     
O    1.33283497e+00      -9.98557043e-01     2.22609080e+00      
H    8.66615282e-01      -1.33874783e+00     2.99626017e+00      
H    2.24929278e+00      -9.06235721e-01     2.50491613e+00      
O    -2.72948373e+00     3.91536090e-01      1.12846745e-01      
H    -3.38033106e+00     7.47252161e-01      7.24321938e-01      
H    -2.95155725e+00     7.58014464e-01      -7.51594607e-01     
O    -1.62062180e+00     -1.30010810e+00     -5.42161662e+00     
H    -1.70895012e+00     -1.96077644e+00     -6.11608743e+00     
H    -2.35361841e+00     -6.93775636e-01     -5.54730661e+00     
23
311.392734
N    1.26044205e-03      -3.40801372e-02     -3.51371768e-02     
H    4.91837544e-01      -2.72031323e-01     8.49082478e-01      
H    -9.90969352e-01     2.26440822e-01      1.52044149e-01      
H    4.64840768e-01      7.70874922e-01      -5.08607286e-01     
C    3.85616970e-02      -1.20502150e+00     -9.31549457e-01     
H    1.07162240e+00      -1.48610280e+00     -1.11857160e+00     
H    -4.72187748e-01     -2.04108659e+00     -4.60197933e-01     
C    -6.44695194e-01     -8.46551190e-01     -2.23547129e+00     
O    -1.16887147e+00     2.31408449e-01      -2.44738248e+00     
O    -5.74282240e-01     -1.86539447e+00     -3.07011798e+00     
H    -1.00339092e+00     -1.61568439e+00     -3.94178041e+00     
O    1.26125723e+00      1.81291183e+00      -1.63752790e+00     
H    1.87024448e+00      2.55187846e+00      -1.55805225e+00     
H    7.26233565e-01      1.99399728e+00      -2.41972404e+00     
O    1.33186462e+00      -9.99010736e-01     2.22658380e+00      
H    8.75886959e-01      -1.34063848e+00     3.00131470e+00      
H    2.24969365e+00      -9.00315373e-01     2.49601002e+00      
O    -2.72834409e+00     3.91991372e-01      1.12499556e-01      
H    -3.37844666e+00     7.45241927e-01      7.26052590e-01      
H    -2.95880007e+00     7.50469565e-01      -7.52182681e-01     
O    -1.62056125e+00     -1.29991751e+00     -5.42182937e+00     
H    -1.70976684e+00     -1.96174202e+00     -6.11507881e+00     
H    -2.35464151e+00     -6.94722855e-01     -5.54661099e+00     
23
311.392734
N    4.63128610e-04      -3.41446005e-02     -3.49343042e-02     
H    4.87603294e-01      -2.73153723e-01     8.50812428e-01      
H    -9.91967454e-01     2.28000980e-01      1.49027785e-01      
H    4.66916237e-01      7.70072198e-01      -5.06643025e-01     
C    3.85855536e-02      -1.20497355e+00     -9.31455607e-01     
H    1.07180284e+00      -1.48572242e+00     -1.11809813e+00     
H    -4.72109908e-01     -2.04122013e+00     -4.60376170e-01     
C    -6.44448335e-01     -8.46550460e-01     -2.23550970e+00     
O    -1.16887891e+00     2.31310162e-01      -2.44730973e+00     
O    -5.74439437e-01     -1.86553360e+00     -3.07002913e+00     
H    -1.00324305e+00     -1.61561316e+00     -3.94178440e+00     
O    1.26242159e+00      1.81293190e+00      -1.63844581e+00     
H    1.86837706e+00      2.55420922e+00      -1.55769531e+00     
H    7.16718096e-01      1.99986721e+00      -2.41045868e+00     
O    1.33089426e+00      -9.99464429e-01     2.22707680e+00      
H    8.85158636e-01      -1.34252913e+00     3.00636923e+00      
H    2.25009452e+00      -8.94395025e-01     2.48710390e+00      
O    -2.72720444e+00     3.92446653e-01      1.12152368e-01      
H    -3.37656226e+00     7.43231693e-01      7.27783241e-01      
H    -2.96604289e+00     7.42924666e-01      -7.52770755e-01     
O    -1.62050071e+00     -1.29972693e+00     -5.42204212e+00     
H    -1.71058355e+00     -1.96270761e+00     -6.11407020e+00     
H    -2.35566462e+00     -6.95670075e-01     -5.54591537e+00     
23
311.392734
N    -3.34184830e-04     -3.42090637e-02     -3.47314315e-02     
H    4.83369044e-01      -2.74276122e-01     8.52542379e-01      
H    -9.92965555e-01     2.29561138e-01      1.46011420e-01      
H    4.68991705e-01      7.69269475e-01      -5.04678764e-01     
C    3.86094103e-02      -1.20492560e+00     -9.31361757e-01     
H    1.07198327e+00      -1.48534205e+00     -1.11762467e+00     
H    -4.72032068e-01     -2.04135367e+00     -4.60554406e-01     
C    -6.44201475e-01     -8.46549731e-01     -2.23554811e+00     
O    -1.16888634e+00     2.31211876e-01      -2.44723698e+00     
O    -5.74596634e-01     -1.86567272e+00     -3.06994028e+00     
H    -1.00309518e+00     -1.61554193e+00     -3.94178839e+00     
O    1.26358595e+00      1.81295196e+00      -1.63936372e+00     
H    1.86650964e+00      2.55653998e+00      -1.55733836e+00     
H    7.07202628e-01      2.00573715e+00      -2.40119333e+00     
O    1.32992391e+00      -9.99918121e-01     2.22756980e+00      
H    8.94430314e-01      -1.34441978e+00     3.01142375e+00      
H    2.25049539e+00      -8.88474676e-01     2.47819779e+00      
O    -2.72606479e+00     3.92901935e-01      1.11805179e-01      
H    -3.37467787e+00     7.41221458e-01      7.29513893e-01      
H    -2.97328570e+00     7.35379766e-01      -7.53358829e-01     
O    -1.62044017e+00     -1.29953634e+00     -5.42225487e+00     
H    -1.71140027e+00     -1.96367319e+00     -6.11306158e+00     
H    -2.35668773e+00     -6.96617294e-01     -5.54521974e+00     
23
311.392734
N    -1.13149827e-03     -3.42735269e-02     -3.45285589e-02     
H    4.79134794e-01      -2.75398521e-01     8.54272329e-01      
H    -9.93963656e-01     2.31121297e-01      1.42995055e-01      
H    4.71067174e-01      7.68466751e-01      -5.02714503e-01     
C    3.86332670e-02      -1.20487765e+00     -9.31267908e-01     
H    1.07216370e+00      -1.48496167e+00     -1.11715121e+00     
H    -4.71954227e-01     -2.04148721e+00     -4.60732643e-01     
C    -6.43954616e-01     -8.46549002e-01     -2.23558652e+00     
O    -1.16889377e+00     2.31113589e-01      -2.44716423e+00     
O    -5.74753831e-01     -1.86581185e+00     -3.06985143e+00     
H    -1.00294732e+00     -1.61547071e+00     -3.94179238e+00     
O    1.26475030e+00      1.81297202e+00      -1.64028162e+00     
H    1.86464221e+00      2.55887074e+00      -1.55698141e+00     
H    6.97687160e-01      2.01160708e+00      -2.39192797e+00     
O    1.32895356e+00      -1.00037181e+00     2.22806280e+00      
H    9.03701991e-01      -1.34631043e+00     3.01647828e+00      
H    2.25089627e+00      -8.82554328e-01     2.46929167e+00      
O    -2.72492514e+00     3.93357217e-01      1.11457991e-01      
H    -3.37279347e+00     7.39211224e-01      7.31244545e-01      
H    -2.98052852e+00     7.27834867e-01      -7.53946903e-01     
O    -1.62037963e+00     -1.29934575e+00     -5.42246762e+00     
H    -1.71221698e+00     -1.96463877e+00     -6.11205296e+00     
H    -2.35771084e+00     -6.97564513e-01     -5.54452412e+00     
23
311.392734
N    -1.53015499e-03     -3.43057586e-02     -3.44271226e-02     
H    4.77017670e-01      -2.75959721e-01     8.55137304e-01      
H    -9.94462707e-01     2.31901376e-01      1.41486873e-01      
H    4.72104909e-01      7.68065389e-01      -5.01732373e-01     
C    3.86451953e-02      -1.20485367e+00     -9.31220983e-01     
H    1.07225392e+00      -1.48477148e+00     -1.11691448e+00     
H    -4.71915307e-01     -2.04155398e+00     -4.60821761e-01     
C    -6.43831186e-01     -8.46548637e-01     -2.23560573e+00     
O    -1.16889748e+00     2.31064445e-01      -2.44712786e+00     
O    -5.74832430e-01     -1.86588141e+00     -3.06980700e+00     
H    -1.00287338e+00     -1.61543509e+00     -3.94179438e+00     
O    1.26533248e+00      1.81298205e+00      -1.64074058e+00     
H    1.86370850e+00      2.56003611e+00      -1.55680294e+00     
H    6.92929426e-01      2.01454204e+00      -2.38729529e+00     
O    1.32846838e+00      -1.00059866e+00     2.22830930e+00      
H    9.08337830e-01      -1.34725576e+00     3.01900554e+00      
H    2.25109670e+00      -8.79594154e-01     2.46483861e+00      
O    -2.72435532e+00     3.93584858e-01      1.11284397e-01      
H    -3.37185127e+00     7.38206107e-01      7.32109871e-01      
H    -2.98414993e+00     7.24062417e-01      -7.54240940e-01     
O    -1.62034935e+00     -1.29925046e+00     -5.42257399e+00     
H    -1.71262534e+00     -1.96512156e+00     -6.11154866e+00     
H    -2.35822239e+00     -6.98038122e-01     -5.54417631e+00     
23
311.392734
N    -1.92881171e-03     -3.43379902e-02     -3.43256863e-02     
H    4.74900545e-01      -2.76520921e-01     8.56002280e-01      
H    -9.94961758e-01     2.32681455e-01      1.39978691e-01      
H    4.73142643e-01      7.67664028e-01      -5.00750243e-01     
C    3.86571236e-02      -1.20482969e+00     -9.31174058e-01     
H    1.07234414e+00      -1.48458130e+00     -1.11667775e+00     
H    -4.71876387e-01     -2.04162075e+00     -4.60910879e-01     
C    -6.43707756e-01     -8.46548272e-01     -2.23562493e+00     
O    -1.16890120e+00     2.31015302e-01      -2.44709149e+00     
O    -5.74911029e-01     -1.86595097e+00     -3.06976257e+00     
H    -1.00279945e+00     -1.61539948e+00     -3.94179637e+00     
O    1.26591466e+00      1.81299209e+00      -1.64119953e+00     
H    1.86277479e+00      2.56120149e+00      -1.55662447e+00     
H    6.88171691e-01      2.01747701e+00      -2.38266262e+00     
O    1.32798320e+00      -1.00082551e+00     2.22855580e+00      
H    9.12973669e-01      -1.34820108e+00     3.02153280e+00      
H    2.25129714e+00      -8.76633979e-01     2.46038556e+00      
O    -2.72378550e+00     3.93812498e-01      1.11110802e-01      
H    -3.37090907e+00     7.37200990e-01      7.32975196e-01      
H    -2.98777133e+00     7.20289967e-01      -7.54534977e-01     
O    -1.62031908e+00     -1.29915517e+00     -5.42268037e+00     
H    -1.71303370e+00     -1.96560436e+00     -6.11104435e+00     
H    -2.35873394e+00     -6.98511732e-01     -5.54382849e+00     
23
311.392734
N    -3.52343859e-03     -3.44669166e-02     -3.39199411e-02     
H    4.66432045e-01      -2.78765719e-01     8.59462180e-01      
H    -9.96957960e-01     2.35801771e-01      1.33945961e-01      
H    4.77293581e-01      7.66058580e-01      -4.96821721e-01     
C    3.87048370e-02      -1.20473379e+00     -9.30986358e-01     
H    1.07270500e+00      -1.48382054e+00     -1.11573083e+00     
H    -4.71720707e-01     -2.04188783e+00     -4.61267353e-01     
C    -6.43214038e-01     -8.46546814e-01     -2.23570175e+00     
O    -1.16891606e+00     2.30818728e-01      -2.44694599e+00     
O    -5.75225423e-01     -1.86622923e+00     -3.06958487e+00     
H    -1.00250371e+00     -1.61525702e+00     -3.94180435e+00     
O    1.26824338e+00      1.81303221e+00      -1.64303535e+00     
H    1.85903995e+00      2.56586301e+00      -1.55591057e+00     
H    6.69140755e-01      2.02921687e+00      -2.36413190e+00     
O    1.32604250e+00      -1.00173289e+00     2.22954180e+00      
H    9.31517023e-01      -1.35198238e+00     3.03164186e+00      
H    2.25209888e+00      -8.64793283e-01     2.44257332e+00      
O    -2.72150620e+00     3.94723062e-01      1.10416426e-01      
H    -3.36714027e+00     7.33180522e-01      7.36436500e-01      
H    -3.00225697e+00     7.05200169e-01      -7.55711125e-01     
O    -1.62019800e+00     -1.29877399e+00     -5.42310587e+00     
H    -1.71466712e+00     -1.96753552e+00     -6.10902711e+00     
H    -2.36078016e+00     -7.00406170e-01     -5.54243725e+00     
23
311.392734
N    -3.92209531e-03     -3.44991482e-02     -3.38185048e-02     
H    4.64314920e-01      -2.79326919e-01     8.60327156e-01      
H    -9.97457011e-01     2.36581850e-01      1.32437779e-01      
H    4.78331315e-01      7.65657219e-01      -4.95839591e-01     
C    3.87167653e-02      -1.20470981e+00     -9.30939433e-01     
H    1.07279522e+00      -1.48363036e+00     -1.11549410e+00     
H    -4.71681787e-01     -2.04195460e+00     -4.61356471e-01     
C    -6.43090608e-01     -8.46546449e-01     -2.23572095e+00     
O    -1.16891978e+00     2.30769585e-01      -2.44690962e+00     
O    -5.75304022e-01     -1.86629879e+00     -3.06954044e+00     
H    -1.00242978e+00     -1.61522141e+00     -3.94180634e+00     
O    1.26882556e+00      1.81304225e+00      -1.64349430e+00     
H    1.85810624e+00      2.56702839e+00      -1.55573210e+00     
H    6.64383020e-01      2.03215184e+00      -2.35949923e+00     
O    1.32555732e+00      -1.00195974e+00     2.22978830e+00      
H    9.36152862e-01      -1.35292770e+00     3.03416912e+00      
H    2.25229932e+00      -8.61833108e-01     2.43812027e+00      
O    -2.72093638e+00     3.94950702e-01      1.10242831e-01      
H    -3.36619807e+00     7.32175405e-01      7.37301825e-01      
H    -3.00587837e+00     7.01427719e-01      -7.56005162e-01     
O    -1.62016773e+00     -1.29867870e+00     -5.42321225e+00     
H    -1.71507548e+00     -1.96801832e+00     -6.10852280e+00     
H    -2.36129171e+00     -7.00879780e-01     -5.54208943e+00     
23
311.392734
N    -4.32075203e-03     -3.45313799e-02     -3.37170685e-02     
H    4.62197796e-01      -2.79888119e-01     8.61192131e-01      
H    -9.97956062e-01     2.37361929e-01      1.30929597e-01      
H    4.79369050e-01      7.65255857e-01      -4.94857461e-01     
C    3.87286936e-02      -1.20468583e+00     -9.30892508e-01     
H    1.07288544e+00      -1.48344017e+00     -1.11525737e+00     
H    -4.71642867e-01     -2.04202137e+00     -4.61445589e-01     
C    -6.42967178e-01     -8.46546084e-01     -2.23574016e+00     
O    -1.16892349e+00     2.30720441e-01      -2.44687325e+00     
O    -5.75382621e-01     -1.86636835e+00     -3.06949601e+00     
H    -1.00235584e+00     -1.61518579e+00     -3.94180834e+00     
O    1.26940774e+00      1.81305228e+00      -1.64395326e+00     
H    1.85717253e+00      2.56819376e+00      -1.55555363e+00     
H    6.59625286e-01      2.03508680e+00      -2.35486655e+00     
O    1.32507214e+00      -1.00218659e+00     2.23003480e+00      
H    9.40788701e-01      -1.35387303e+00     3.03669638e+00      
H    2.25249975e+00      -8.58872934e-01     2.43366721e+00      
O    -2.72036656e+00     3.95178343e-01      1.10069237e-01      
H    -3.36525587e+00     7.31170288e-01      7.38167151e-01      
H    -3.00949978e+00     6.97655269e-01      -7.56299199e-01     
O    -1.62013745e+00     -1.29858341e+00     -5.42331862e+00     
H    -1.71548384e+00     -1.96850111e+00     -6.10801850e+00     
H    -2.36180326e+00     -7.01353389e-01     -5.54174162e+00     
23
311.392734
N    -5.11806547e-03     -3.45958431e-02     -3.35141959e-02     
H    4.57963546e-01      -2.81010518e-01     8.62922081e-01      
H    -9.98954163e-01     2.38922088e-01      1.27913232e-01      
H    4.81444519e-01      7.64453133e-01      -4.92893200e-01     
C    3.87525503e-02      -1.20463788e+00     -9.30798659e-01     
H    1.07306587e+00      -1.48305979e+00     -1.11478391e+00     
H    -4.71565026e-01     -2.04215491e+00     -4.61623826e-01     
C    -6.42720319e-01     -8.46545355e-01     -2.23577857e+00     
O    -1.16893092e+00     2.30622154e-01      -2.44680050e+00     
O    -5.75539818e-01     -1.86650748e+00     -3.06940716e+00     
H    -1.00220798e+00     -1.61511457e+00     -3.94181233e+00     
O    1.27057209e+00      1.81307234e+00      -1.64487116e+00     
H    1.85530510e+00      2.57052452e+00      -1.55519668e+00     
H    6.50109818e-01      2.04095673e+00      -2.34560119e+00     
O    1.32410179e+00      -1.00264028e+00     2.23052780e+00      
H    9.50060378e-01      -1.35576368e+00     3.04175091e+00      
H    2.25290063e+00      -8.52952586e-01     2.42476109e+00      
O    -2.71922691e+00     3.95633625e-01      1.09722049e-01      
H    -3.36337147e+00     7.29160054e-01      7.39897803e-01      
H    -3.01674260e+00     6.90110370e-01      -7.56887273e-01     
O    -1.62007691e+00     -1.29839282e+00     -5.42353137e+00     
H    -1.71630055e+00     -1.96946669e+00     -6.10700988e+00     
H    -2.36282637e+00     -7.02300608e-01     -5.54104600e+00     
23
311.392734
N    -5.91537891e-03     -3.46603063e-02     -3.33113232e-02     
H    4.53729296e-01      -2.82132917e-01     8.64652032e-01      
H    -9.99952264e-01     2.40482246e-01      1.24896867e-01      
H    4.83519987e-01      7.63650410e-01      -4.90928939e-01     
C    3.87764070e-02      -1.20458993e+00     -9.30704809e-01     
H    1.07324630e+00      -1.48267942e+00     -1.11431045e+00     
H    -4.71487186e-01     -2.04228845e+00     -4.61802062e-01     
C    -6.42473459e-01     -8.46544626e-01     -2.23581698e+00     
O    -1.16893835e+00     2.30523868e-01      -2.44672775e+00     
O    -5.75697015e-01     -1.86664660e+00     -3.06931831e+00     
H    -1.00206011e+00     -1.61504334e+00     -3.94181632e+00     
O    1.27173645e+00      1.81309240e+00      -1.64578907e+00     
H    1.85343768e+00      2.57285528e+00      -1.55483973e+00     
H    6.40594350e-01      2.04682667e+00      -2.33633584e+00     
O    1.32313144e+00      -1.00309397e+00     2.23102080e+00      
H    9.59332056e-01      -1.35765433e+00     3.04680543e+00      
H    2.25330150e+00      -8.47032237e-01     2.41585498e+00      
O    -2.71808726e+00     3.96088907e-01      1.09374860e-01      
H    -3.36148708e+00     7.27149819e-01      7.41628455e-01      
H    -3.02398541e+00     6.82565470e-01      -7.57475347e-01     
O    -1.62001637e+00     -1.29820223e+00     -5.42374412e+00     
H    -1.71711727e+00     -1.97043227e+00     -6.10600126e+00     
H    -2.36384948e+00     -7.03247827e-01     -5.54035037e+00     
23
311.392734
N    -6.71269235e-03     -3.47247696e-02     -3.31084506e-02     
H    4.49495046e-01      -2.83255317e-01     8.66381982e-01      
H    -1.00095037e+00     2.42042404e-01      1.21880503e-01      
H    4.85595456e-01      7.62847686e-01      -4.88964678e-01     
C    3.88002636e-02      -1.20454198e+00     -9.30610959e-01     
H    1.07342674e+00      -1.48229904e+00     -1.11383698e+00     
H    -4.71409346e-01     -2.04242199e+00     -4.61980299e-01     
C    -6.42226600e-01     -8.46543896e-01     -2.23585539e+00     
O    -1.16894579e+00     2.30425581e-01      -2.44665500e+00     
O    -5.75854212e-01     -1.86678573e+00     -3.06922946e+00     
H    -1.00191224e+00     -1.61497211e+00     -3.94182031e+00     
O    1.27290081e+00      1.81311247e+00      -1.64670698e+00     
H    1.85157026e+00      2.57518604e+00      -1.55448279e+00     
H    6.31078881e-01      2.05269660e+00      -2.32707048e+00     
O    1.32216108e+00      -1.00354766e+00     2.23151380e+00      
H    9.68603733e-01      -1.35954498e+00     3.05185996e+00      
H    2.25370237e+00      -8.41111889e-01     2.40694886e+00      
O    -2.71694761e+00     3.96544188e-01      1.09027672e-01      
H    -3.35960268e+00     7.25139585e-01      7.43359106e-01      
H    -3.03122823e+00     6.75020571e-01      -7.58063421e-01     
O    -1.61995583e+00     -1.29801165e+00     -5.42395687e+00     
H    -1.71793398e+00     -1.97139786e+00     -6.10499265e+00     
H    -2.36487259e+00     -7.04195047e-01     -5.53965475e+00     
23
311.392734
N    -7.51000579e-03     -3.47892328e-02     -3.29055780e-02     
H    4.45260797e-01      -2.84377716e-01     8.68111933e-01      
H    -1.00194847e+00     2.43602562e-01      1.18864138e-01      
H    4.87670925e-01      7.62044963e-01      -4.87000418e-01     
C    3.88241203e-02      -1.20449402e+00     -9.30517109e-01     
H    1.07360717e+00      -1.48191867e+00     -1.11336352e+00     
H    -4.71331506e-01     -2.04255553e+00     -4.62158535e-01     
C    -6.41979741e-01     -8.46543167e-01     -2.23589379e+00     
O    -1.16895322e+00     2.30327294e-01      -2.44658226e+00     
O    -5.76011410e-01     -1.86692486e+00     -3.06914060e+00     
H    -1.00176437e+00     -1.61490088e+00     -3.94182430e+00     
O    1.27406517e+00      1.81313253e+00      -1.64762489e+00     
H    1.84970284e+00      2.57751679e+00      -1.55412584e+00     
H    6.21563413e-01      2.05856653e+00      -2.31780513e+00     
O    1.32119073e+00      -1.00400136e+00     2.23200680e+00      
H    9.77875410e-01      -1.36143563e+00     3.05691449e+00      
H    2.25410324e+00      -8.35191541e-01     2.39804275e+00      
O    -2.71580797e+00     3.96999470e-01      1.08680483e-01      
H    -3.35771828e+00     7.23129351e-01      7.45089758e-01      
H    -3.03847105e+00     6.67475672e-01      -7.58651495e-01     
O    -1.61989528e+00     -1.29782106e+00     -5.42416962e+00     
H    -1.71875070e+00     -1.97236344e+00     -6.10398403e+00     
H    -2.36589569e+00     -7.05142266e-01     -5.53895913e+00     
23
311.392734
N    -9.10463267e-03     -3.49181592e-02     -3.24998328e-02     
H    4.36792297e-01      -2.86622515e-01     8.71571834e-01      
H    -1.00394467e+00     2.46722878e-01      1.12831409e-01      
H    4.91821863e-01      7.60439516e-01      -4.83071896e-01     
C    3.88718336e-02      -1.20439812e+00     -9.30329410e-01     
H    1.07396804e+00      -1.48115792e+00     -1.11241660e+00     
H    -4.71175825e-01     -2.04282261e+00     -4.62515008e-01     
C    -6.41486022e-01     -8.46541708e-01     -2.23597061e+00     
O    -1.16896808e+00     2.30130720e-01      -2.44643676e+00     
O    -5.76325804e-01     -1.86720311e+00     -3.06896290e+00     
H    -1.00146864e+00     -1.61475843e+00     -3.94183228e+00     
O    1.27639388e+00      1.81317266e+00      -1.64946070e+00     
H    1.84596799e+00      2.58217831e+00      -1.55341195e+00     
H    6.02532476e-01      2.07030639e+00      -2.29927442e+00     
O    1.31925002e+00      -1.00490874e+00     2.23299280e+00      
H    9.96418765e-01      -1.36521692e+00     3.06702354e+00      
H    2.25490498e+00      -8.23350844e-01     2.38023052e+00      
O    -2.71352867e+00     3.97910033e-01      1.07986107e-01      
H    -3.35394948e+00     7.19108883e-01      7.48551061e-01      
H    -3.05295668e+00     6.52385873e-01      -7.59827643e-01     
O    -1.61977420e+00     -1.29743989e+00     -5.42459513e+00     
H    -1.72038413e+00     -1.97429461e+00     -6.10196679e+00     
H    -2.36794191e+00     -7.07036704e-01     -5.53756788e+00     
