23
257.628851
N    1.63492265e-03      -4.56218958e-02     -3.91475777e-02     
H    4.75156546e-01      -2.92945369e-01     8.51496631e-01      
H    -9.89325114e-01     2.27821014e-01      1.33971027e-01      
H    4.81609305e-01      7.55650245e-01      -5.01382784e-01     
C    3.52971072e-02      -1.21052245e+00     -9.41767801e-01     
H    1.06703231e+00      -1.49530578e+00     -1.13051045e+00     
H    -4.80446314e-01     -2.04721265e+00     -4.77116346e-01     
C    -6.46141323e-01     -8.41178182e-01     -2.24218139e+00     
O    -1.17145412e+00     2.37861899e-01      -2.44830781e+00     
O    -5.74194395e-01     -1.85923551e+00     -3.07489200e+00     
H    -1.01240224e+00     -1.61595467e+00     -3.94477442e+00     
O    1.26994275e+00      1.81393111e+00      -1.64627180e+00     
H    1.86094015e+00      2.56547740e+00      -1.54915174e+00     
H    6.58461616e-01      2.04833232e+00      -2.35214491e+00     
O    1.32627804e+00      -9.99518126e-01     2.22749498e+00      
H    9.18927922e-01      -1.35101619e+00     3.02250537e+00      
H    2.25123735e+00      -8.73907854e-01     2.45145759e+00      
O    -2.72779586e+00     3.97217279e-01      1.12213552e-01      
H    -3.38531010e+00     7.31084434e-01      7.28219079e-01      
H    -3.00620384e+00     6.93281171e-01      -7.59849741e-01     
O    -1.62278268e+00     -1.31317854e+00     -5.38491783e+00     
H    -1.60205263e+00     -1.89363380e+00     -6.17097094e+00     
H    -2.28761542e+00     -6.43971617e-01     -5.60727441e+00     
23
257.628851
N    5.44660697e-04      -4.28170352e-02     -3.78913867e-02     
H    4.74033984e-01      -2.89119856e-01     8.53055531e-01      
H    -9.90983800e-01     2.29426164e-01      1.34718852e-01      
H    4.80011507e-01      7.58453010e-01      -5.00733584e-01     
C    3.61430755e-02      -1.20908727e+00     -9.39095903e-01     
H    1.06840538e+00      -1.49252957e+00     -1.12693391e+00     
H    -4.78284372e-01     -2.04584806e+00     -4.73109538e-01     
C    -6.45471216e-01     -8.42520522e-01     -2.24055188e+00     
O    -1.17081775e+00     2.36125678e-01      -2.44798554e+00     
O    -5.74412853e-01     -1.86094916e+00     -3.07358743e+00     
H    -1.00996457e+00     -1.61579807e+00     -3.94403091e+00     
O    1.26922682e+00      1.81370137e+00      -1.64523321e+00     
H    1.86093196e+00      2.56499111e+00      -1.55093069e+00     
H    6.63510268e-01      2.04208598e+00      -2.35745800e+00     
O    1.32646174e+00      -9.99958394e-01     2.22788343e+00      
H    9.19757278e-01      -1.35078508e+00     3.02352586e+00      
H    2.25135251e+00      -8.73109298e-01     2.45146305e+00      
O    -2.72650836e+00     3.96479904e-01      1.11851068e-01      
H    -3.38123874e+00     7.32111014e-01      7.29840771e-01      
H    -3.00340641e+00     6.98147145e-01      -7.58668068e-01     
O    -1.62215164e+00     -1.30962505e+00     -5.39441165e+00     
H    -1.63000208e+00     -1.91186783e+00     -6.15573714e+00     
H    -2.30565083e+00     -6.57843450e-01     -5.59123902e+00     
23
257.628851
N    -4.70277204e-07     -4.14146049e-02     -3.72632912e-02     
H    4.73472702e-01      -2.87207100e-01     8.53834981e-01      
H    -9.91813144e-01     2.30228739e-01      1.35092764e-01      
H    4.79212608e-01      7.59854392e-01      -5.00408983e-01     
C    3.65660596e-02      -1.20836968e+00     -9.37759954e-01     
H    1.06909191e+00      -1.49114146e+00     -1.12514564e+00     
H    -4.77203402e-01     -2.04516577e+00     -4.71106135e-01     
C    -6.45136163e-01     -8.43191692e-01     -2.23973712e+00     
O    -1.17049956e+00     2.35257568e-01      -2.44782441e+00     
O    -5.74522082e-01     -1.86180598e+00     -3.07293515e+00     
H    -1.00874574e+00     -1.61571976e+00     -3.94365915e+00     
O    1.26886885e+00      1.81358650e+00      -1.64471392e+00     
H    1.86092786e+00      2.56474797e+00      -1.55182016e+00     
H    6.66034594e-01      2.03896280e+00      -2.36011454e+00     
O    1.32655359e+00      -1.00017853e+00     2.22807766e+00      
H    9.20171956e-01      -1.35066952e+00     3.02403611e+00      
H    2.25141009e+00      -8.72710020e-01     2.45146579e+00      
O    -2.72586461e+00     3.96111217e-01      1.11669825e-01      
H    -3.37920306e+00     7.32624305e-01      7.30651618e-01      
H    -3.00200770e+00     7.00580132e-01      -7.58077232e-01     
O    -1.62183613e+00     -1.30784830e+00     -5.39915856e+00     
H    -1.64397680e+00     -1.92098485e+00     -6.14812024e+00     
H    -2.31466853e+00     -6.64779367e-01     -5.58322133e+00     
23
257.628851
N    -5.45601252e-04     -4.00121746e-02     -3.66351957e-02     
H    4.72911421e-01      -2.85294344e-01     8.54614430e-01      
H    -9.92642487e-01     2.31031314e-01      1.35466677e-01      
H    4.78413708e-01      7.61255775e-01      -5.00084383e-01     
C    3.69890437e-02      -1.20765209e+00     -9.36424004e-01     
H    1.06977844e+00      -1.48975335e+00     -1.12335737e+00     
H    -4.76122431e-01     -2.04448347e+00     -4.69102731e-01     
C    -6.44801110e-01     -8.43862862e-01     -2.23892237e+00     
O    -1.17018137e+00     2.34389457e-01      -2.44766327e+00     
O    -5.74631310e-01     -1.86266280e+00     -3.07228286e+00     
H    -1.00752691e+00     -1.61564146e+00     -3.94328739e+00     
O    1.26851089e+00      1.81347163e+00      -1.64419462e+00     
H    1.86092376e+00      2.56450483e+00      -1.55270963e+00     
H    6.68558920e-01      2.03583963e+00      -2.36277108e+00     
O    1.32664544e+00      -1.00039866e+00     2.22827189e+00      
H    9.20586634e-01      -1.35055396e+00     3.02454635e+00      
H    2.25146768e+00      -8.72310742e-01     2.45146852e+00      
O    -2.72522086e+00     3.95742529e-01      1.11488583e-01      
H    -3.37716738e+00     7.33137595e-01      7.31462464e-01      
H    -3.00060899e+00     7.03013119e-01      -7.57486396e-01     
O    -1.62152061e+00     -1.30607156e+00     -5.40390547e+00     
H    -1.65795152e+00     -1.93010187e+00     -6.14050334e+00     
H    -2.32368623e+00     -6.71715284e-01     -5.57520364e+00     
23
257.628851
N    -1.09073223e-03     -3.86097443e-02     -3.60071002e-02     
H    4.72350139e-01      -2.83381588e-01     8.55393880e-01      
H    -9.93471830e-01     2.31833888e-01      1.35840589e-01      
H    4.77614809e-01      7.62657157e-01      -4.99759783e-01     
C    3.74120279e-02      -1.20693451e+00     -9.35088055e-01     
H    1.07046497e+00      -1.48836524e+00     -1.12156910e+00     
H    -4.75041460e-01     -2.04380118e+00     -4.67099327e-01     
C    -6.44466057e-01     -8.44534033e-01     -2.23810761e+00     
O    -1.16986319e+00     2.33521347e-01      -2.44750214e+00     
O    -5.74740539e-01     -1.86351963e+00     -3.07163058e+00     
H    -1.00630808e+00     -1.61556316e+00     -3.94291563e+00     
O    1.26815292e+00      1.81335676e+00      -1.64367533e+00     
H    1.86091966e+00      2.56426168e+00      -1.55359910e+00     
H    6.71083245e-01      2.03271646e+00      -2.36542763e+00     
O    1.32673730e+00      -1.00061880e+00     2.22846612e+00      
H    9.21001312e-01      -1.35043840e+00     3.02505660e+00      
H    2.25152526e+00      -8.71911465e-01     2.45147125e+00      
O    -2.72457710e+00     3.95373842e-01      1.11307341e-01      
H    -3.37513171e+00     7.33650885e-01      7.32273310e-01      
H    -2.99921028e+00     7.05446107e-01      -7.56895560e-01     
O    -1.62120509e+00     -1.30429481e+00     -5.40865239e+00     
H    -1.67192624e+00     -1.93921889e+00     -6.13288643e+00     
H    -2.33270394e+00     -6.78651201e-01     -5.56718595e+00     
23
257.628851
N    -1.63586320e-03     -3.72073140e-02     -3.53790047e-02     
H    4.71788858e-01      -2.81468832e-01     8.56173330e-01      
H    -9.94301173e-01     2.32636463e-01      1.36214501e-01      
H    4.76815910e-01      7.64058539e-01      -4.99435183e-01     
C    3.78350120e-02      -1.20621692e+00     -9.33752106e-01     
H    1.07115151e+00      -1.48697714e+00     -1.11978083e+00     
H    -4.73960489e-01     -2.04311888e+00     -4.65095923e-01     
C    -6.44131003e-01     -8.45205203e-01     -2.23729285e+00     
O    -1.16954500e+00     2.32653236e-01      -2.44734101e+00     
O    -5.74849768e-01     -1.86437645e+00     -3.07097829e+00     
H    -1.00508924e+00     -1.61548486e+00     -3.94254388e+00     
O    1.26779495e+00      1.81324189e+00      -1.64315603e+00     
H    1.86091557e+00      2.56401854e+00      -1.55448858e+00     
H    6.73607571e-01      2.02959329e+00      -2.36808417e+00     
O    1.32682915e+00      -1.00083893e+00     2.22866034e+00      
H    9.21415990e-01      -1.35032285e+00     3.02556684e+00      
H    2.25158284e+00      -8.71512187e-01     2.45147398e+00      
O    -2.72393335e+00     3.95005155e-01      1.11126099e-01      
H    -3.37309603e+00     7.34164175e-01      7.33084156e-01      
H    -2.99781157e+00     7.07879094e-01      -7.56304723e-01     
O    -1.62088957e+00     -1.30251807e+00     -5.41339930e+00     
H    -1.68590097e+00     -1.94833590e+00     -6.12526953e+00     
H    -2.34172164e+00     -6.85587117e-01     -5.55916825e+00     
23
257.628851
N    -1.90842869e-03     -3.65060988e-02     -3.50649570e-02     
H    4.71508217e-01      -2.80512454e-01     8.56563055e-01      
H    -9.94715844e-01     2.33037751e-01      1.36401458e-01      
H    4.76416461e-01      7.64759230e-01      -4.99272882e-01     
C    3.80465041e-02      -1.20585812e+00     -9.33084132e-01     
H    1.07149477e+00      -1.48628308e+00     -1.11888669e+00     
H    -4.73420003e-01     -2.04277773e+00     -4.64094222e-01     
C    -6.43963477e-01     -8.45540788e-01     -2.23688547e+00     
O    -1.16938591e+00     2.32219181e-01      -2.44726044e+00     
O    -5.74904383e-01     -1.86480486e+00     -3.07065215e+00     
H    -1.00447983e+00     -1.61544570e+00     -3.94235800e+00     
O    1.26761597e+00      1.81318445e+00      -1.64289638e+00     
H    1.86091352e+00      2.56389697e+00      -1.55493331e+00     
H    6.74869734e-01      2.02803170e+00      -2.36941244e+00     
O    1.32687507e+00      -1.00094900e+00     2.22875746e+00      
H    9.21623329e-01      -1.35026507e+00     3.02582196e+00      
H    2.25161164e+00      -8.71312548e-01     2.45147534e+00      
O    -2.72361148e+00     3.94820811e-01      1.11035477e-01      
H    -3.37207819e+00     7.34420821e-01      7.33489579e-01      
H    -2.99711222e+00     7.09095587e-01      -7.56009305e-01     
O    -1.62073182e+00     -1.30162970e+00     -5.41577275e+00     
H    -1.69288833e+00     -1.95289441e+00     -6.12146108e+00     
H    -2.34623049e+00     -6.89055076e-01     -5.55515941e+00     
23
257.628851
N    -2.18099418e-03     -3.58048837e-02     -3.47509092e-02     
H    4.71227576e-01      -2.79556076e-01     8.56952780e-01      
H    -9.95130516e-01     2.33439038e-01      1.36588414e-01      
H    4.76017011e-01      7.65459922e-01      -4.99110582e-01     
C    3.82579962e-02      -1.20549933e+00     -9.32416157e-01     
H    1.07183804e+00      -1.48558903e+00     -1.11799256e+00     
H    -4.72879518e-01     -2.04243659e+00     -4.63092520e-01     
C    -6.43795950e-01     -8.45876373e-01     -2.23647810e+00     
O    -1.16922682e+00     2.31785126e-01      -2.44717987e+00     
O    -5.74958997e-01     -1.86523328e+00     -3.07032601e+00     
H    -1.00387041e+00     -1.61540655e+00     -3.94217212e+00     
O    1.26743699e+00      1.81312702e+00      -1.64263674e+00     
H    1.86091147e+00      2.56377539e+00      -1.55537805e+00     
H    6.76131897e-01      2.02647011e+00      -2.37074072e+00     
O    1.32692100e+00      -1.00105907e+00     2.22885457e+00      
H    9.21830668e-01      -1.35020729e+00     3.02607709e+00      
H    2.25164043e+00      -8.71112909e-01     2.45147671e+00      
O    -2.72328960e+00     3.94636467e-01      1.10944856e-01      
H    -3.37106035e+00     7.34677466e-01      7.33895002e-01      
H    -2.99641286e+00     7.10312081e-01      -7.55713887e-01     
O    -1.62057406e+00     -1.30074132e+00     -5.41814621e+00     
H    -1.69987569e+00     -1.95745292e+00     -6.11765263e+00     
H    -2.35073935e+00     -6.92523034e-01     -5.55115056e+00     
23
257.628851
N    -3.27125612e-03     -3.30000231e-02     -3.34947182e-02     
H    4.70105014e-01      -2.75730564e-01     8.58511680e-01      
H    -9.96789202e-01     2.35044188e-01      1.37336238e-01      
H    4.74419213e-01      7.68262686e-01      -4.98461382e-01     
C    3.91039644e-02      -1.20406415e+00     -9.29744259e-01     
H    1.07321110e+00      -1.48281281e+00     -1.11441602e+00     
H    -4.70717576e-01     -2.04107199e+00     -4.59085712e-01     
C    -6.43125844e-01     -8.47218713e-01     -2.23484858e+00     
O    -1.16859044e+00     2.30048904e-01      -2.44685761e+00     
O    -5.75177455e-01     -1.86694692e+00     -3.06902143e+00     
H    -1.00143275e+00     -1.61524995e+00     -3.94142860e+00     
O    1.26672105e+00      1.81289728e+00      -1.64159814e+00     
H    1.86090327e+00      2.56328911e+00      -1.55715699e+00     
H    6.81180549e-01      2.02022377e+00      -2.37605380e+00     
O    1.32710470e+00      -1.00149933e+00     2.22924303e+00      
H    9.22660024e-01      -1.34997617e+00     3.02709757e+00      
H    2.25175559e+00      -8.70314353e-01     2.45148217e+00      
O    -2.72200210e+00     3.93899093e-01      1.10582372e-01      
H    -3.36698899e+00     7.35704046e-01      7.35516694e-01      
H    -2.99361544e+00     7.15178055e-01      -7.54532215e-01     
O    -1.61994302e+00     -1.29718784e+00     -5.42764003e+00     
H    -1.72782513e+00     -1.97568696e+00     -6.10241883e+00     
H    -2.36877475e+00     -7.06394868e-01     -5.53511518e+00     
23
257.628851
N    -3.54382161e-03     -3.22988080e-02     -3.31806704e-02     
H    4.69824373e-01      -2.74774186e-01     8.58901405e-01      
H    -9.97203874e-01     2.35445475e-01      1.37523194e-01      
H    4.74019763e-01      7.68963378e-01      -4.98299082e-01     
C    3.93154565e-02      -1.20370536e+00     -9.29076284e-01     
H    1.07355437e+00      -1.48211876e+00     -1.11352189e+00     
H    -4.70177091e-01     -2.04073085e+00     -4.58084010e-01     
C    -6.42958317e-01     -8.47554298e-01     -2.23444121e+00     
O    -1.16843135e+00     2.29614849e-01      -2.44677704e+00     
O    -5.75232069e-01     -1.86737534e+00     -3.06869529e+00     
H    -1.00082333e+00     -1.61521080e+00     -3.94124272e+00     
O    1.26654207e+00      1.81283985e+00      -1.64133850e+00     
H    1.86090122e+00      2.56316753e+00      -1.55760173e+00     
H    6.82442712e-01      2.01866218e+00      -2.37738208e+00     
O    1.32715063e+00      -1.00160940e+00     2.22934014e+00      
H    9.22867363e-01      -1.34991839e+00     3.02735270e+00      
H    2.25178438e+00      -8.70114714e-01     2.45148354e+00      
O    -2.72168022e+00     3.93714749e-01      1.10491751e-01      
H    -3.36597115e+00     7.35960691e-01      7.35922117e-01      
H    -2.99291608e+00     7.16394549e-01      -7.54236797e-01     
O    -1.61978526e+00     -1.29629946e+00     -5.43001349e+00     
H    -1.73481249e+00     -1.98024547e+00     -6.09861038e+00     
H    -2.37328361e+00     -7.09862826e-01     -5.53110633e+00     
23
257.628851
N    -3.81638710e-03     -3.15975928e-02     -3.28666227e-02     
H    4.69543732e-01      -2.73817808e-01     8.59291130e-01      
H    -9.97618545e-01     2.35846763e-01      1.37710151e-01      
H    4.73620314e-01      7.69664069e-01      -4.98136781e-01     
C    3.95269486e-02      -1.20334656e+00     -9.28408310e-01     
H    1.07389763e+00      -1.48142470e+00     -1.11262775e+00     
H    -4.69636605e-01     -2.04038970e+00     -4.57082309e-01     
C    -6.42790791e-01     -8.47889883e-01     -2.23403383e+00     
O    -1.16827226e+00     2.29180794e-01      -2.44669647e+00     
O    -5.75286684e-01     -1.86780375e+00     -3.06836915e+00     
H    -1.00021392e+00     -1.61517164e+00     -3.94105684e+00     
O    1.26636309e+00      1.81278241e+00      -1.64107885e+00     
H    1.86089917e+00      2.56304596e+00      -1.55804646e+00     
H    6.83704875e-01      2.01710059e+00      -2.37871035e+00     
O    1.32719655e+00      -1.00171947e+00     2.22943726e+00      
H    9.23074702e-01      -1.34986061e+00     3.02760782e+00      
H    2.25181318e+00      -8.69915075e-01     2.45148490e+00      
O    -2.72135835e+00     3.93530405e-01      1.10401129e-01      
H    -3.36495331e+00     7.36217337e-01      7.36327540e-01      
H    -2.99221673e+00     7.17611042e-01      -7.53941379e-01     
O    -1.61962751e+00     -1.29541109e+00     -5.43238694e+00     
H    -1.74179985e+00     -1.98480398e+00     -6.09480193e+00     
H    -2.37779246e+00     -7.13330785e-01     -5.52709749e+00     
23
257.628851
N    -4.36151807e-03     -3.01951625e-02     -3.22385272e-02     
H    4.68982451e-01      -2.71905052e-01     8.60070580e-01      
H    -9.98447888e-01     2.36649338e-01      1.38084063e-01      
H    4.72821415e-01      7.71065451e-01      -4.97812181e-01     
C    3.99499327e-02      -1.20262897e+00     -9.27072361e-01     
H    1.07458417e+00      -1.48003660e+00     -1.11083948e+00     
H    -4.68555634e-01     -2.03970740e+00     -4.55078905e-01     
C    -6.42455737e-01     -8.48561053e-01     -2.23321907e+00     
O    -1.16795407e+00     2.28312683e-01      -2.44653534e+00     
O    -5.75395913e-01     -1.86866057e+00     -3.06771686e+00     
H    -9.98995084e-01     -1.61509334e+00     -3.94068509e+00     
O    1.26600512e+00      1.81266754e+00      -1.64055955e+00     
H    1.86089508e+00      2.56280282e+00      -1.55893594e+00     
H    6.86229201e-01      2.01397742e+00      -2.38136689e+00     
O    1.32728840e+00      -1.00193960e+00     2.22963148e+00      
H    9.23489380e-01      -1.34974506e+00     3.02811806e+00      
H    2.25187076e+00      -8.69515797e-01     2.45148763e+00      
O    -2.72071460e+00     3.93161718e-01      1.10219887e-01      
H    -3.36291763e+00     7.36730627e-01      7.37138386e-01      
H    -2.99081802e+00     7.20044029e-01      -7.53350542e-01     
O    -1.61931199e+00     -1.29363435e+00     -5.43713385e+00     
H    -1.75577458e+00     -1.99392099e+00     -6.08718503e+00     
H    -2.38681016e+00     -7.20266701e-01     -5.51907979e+00     
23
257.628851
N    -4.90664905e-03     -2.87927322e-02     -3.16104317e-02     
H    4.68421169e-01      -2.69992296e-01     8.60850030e-01      
H    -9.99277231e-01     2.37451912e-01      1.38457975e-01      
H    4.72022516e-01      7.72466833e-01      -4.97487581e-01     
C    4.03729169e-02      -1.20191139e+00     -9.25736412e-01     
H    1.07527070e+00      -1.47864849e+00     -1.10905121e+00     
H    -4.67474663e-01     -2.03902511e+00     -4.53075501e-01     
C    -6.42120684e-01     -8.49232224e-01     -2.23240431e+00     
O    -1.16763589e+00     2.27444573e-01      -2.44637421e+00     
O    -5.75505142e-01     -1.86951740e+00     -3.06706458e+00     
H    -9.97776252e-01     -1.61501504e+00     -3.94031333e+00     
O    1.26564715e+00      1.81255267e+00      -1.64004026e+00     
H    1.86089098e+00      2.56255967e+00      -1.55982541e+00     
H    6.88753526e-01      2.01085425e+00      -2.38402344e+00     
O    1.32738026e+00      -1.00215974e+00     2.22982571e+00      
H    9.23904058e-01      -1.34962950e+00     3.02862831e+00      
H    2.25192834e+00      -8.69116520e-01     2.45149036e+00      
O    -2.72007084e+00     3.92793031e-01      1.10038645e-01      
H    -3.36088196e+00     7.37243917e-01      7.37949232e-01      
H    -2.98941931e+00     7.22477017e-01      -7.52759706e-01     
O    -1.61899647e+00     -1.29185760e+00     -5.44188077e+00     
H    -1.76974930e+00     -2.00303801e+00     -6.07956812e+00     
H    -2.39582787e+00     -7.27202618e-01     -5.51106210e+00     
23
257.628851
N    -5.45178002e-03     -2.73903019e-02     -3.09823362e-02     
H    4.67859888e-01      -2.68079540e-01     8.61629479e-01      
H    -1.00010657e+00     2.38254487e-01      1.38831888e-01      
H    4.71223616e-01      7.73868216e-01      -4.97162981e-01     
C    4.07959010e-02      -1.20119380e+00     -9.24400462e-01     
H    1.07595723e+00      -1.47726038e+00     -1.10726294e+00     
H    -4.66393692e-01     -2.03834281e+00     -4.51072097e-01     
C    -6.41785631e-01     -8.49903394e-01     -2.23158956e+00     
O    -1.16731770e+00     2.26576462e-01      -2.44621307e+00     
O    -5.75614370e-01     -1.87037422e+00     -3.06641229e+00     
H    -9.96557420e-01     -1.61493674e+00     -3.93994157e+00     
O    1.26528919e+00      1.81243780e+00      -1.63952096e+00     
H    1.86088688e+00      2.56231653e+00      -1.56071488e+00     
H    6.91277852e-01      2.00773108e+00      -2.38667998e+00     
O    1.32747211e+00      -1.00237987e+00     2.23001994e+00      
H    9.24318736e-01      -1.34951394e+00     3.02913855e+00      
H    2.25198593e+00      -8.68717242e-01     2.45149309e+00      
O    -2.71942709e+00     3.92424343e-01      1.09857403e-01      
H    -3.35884628e+00     7.37757207e-01      7.38760078e-01      
H    -2.98802060e+00     7.24910004e-01      -7.52168870e-01     
O    -1.61868095e+00     -1.29008086e+00     -5.44662768e+00     
H    -1.78372402e+00     -2.01215503e+00     -6.07195122e+00     
H    -2.40484557e+00     -7.34138535e-01     -5.50304441e+00     
23
257.628851
N    -5.99691100e-03     -2.59878716e-02     -3.03542407e-02     
H    4.67298606e-01      -2.66166784e-01     8.62408929e-01      
H    -1.00093592e+00     2.39057062e-01      1.39205800e-01      
H    4.70424717e-01      7.75269598e-01      -4.96838380e-01     
C    4.12188851e-02      -1.20047621e+00     -9.23064513e-01     
H    1.07664376e+00      -1.47587227e+00     -1.10547467e+00     
H    -4.65312722e-01     -2.03766052e+00     -4.49068694e-01     
C    -6.41450578e-01     -8.50574564e-01     -2.23077480e+00     
O    -1.16699951e+00     2.25708352e-01      -2.44605194e+00     
O    -5.75723599e-01     -1.87123104e+00     -3.06576001e+00     
H    -9.95338588e-01     -1.61485843e+00     -3.93956981e+00     
O    1.26493122e+00      1.81232293e+00      -1.63900167e+00     
H    1.86088278e+00      2.56207339e+00      -1.56160435e+00     
H    6.93802178e-01      2.00460790e+00      -2.38933652e+00     
O    1.32756396e+00      -1.00260001e+00     2.23021417e+00      
H    9.24733414e-01      -1.34939838e+00     3.02964880e+00      
H    2.25204351e+00      -8.68317964e-01     2.45149583e+00      
O    -2.71878334e+00     3.92055656e-01      1.09676160e-01      
H    -3.35681060e+00     7.38270498e-01      7.39570925e-01      
H    -2.98662189e+00     7.27342991e-01      -7.51578034e-01     
O    -1.61836544e+00     -1.28830411e+00     -5.45137459e+00     
H    -1.79769874e+00     -2.02127205e+00     -6.06433432e+00     
H    -2.41386327e+00     -7.41074452e-01     -5.49502672e+00     
23
257.628851
N    -7.08717295e-03     -2.31830110e-02     -2.90980497e-02     
H    4.66176044e-01      -2.62341271e-01     8.63967829e-01      
H    -1.00259460e+00     2.40662212e-01      1.39953625e-01      
H    4.68826919e-01      7.78072363e-01      -4.96189180e-01     
C    4.20648534e-02      -1.19904103e+00     -9.20392615e-01     
H    1.07801683e+00      -1.47309606e+00     -1.10189813e+00     
H    -4.63150780e-01     -2.03629593e+00     -4.45061886e-01     
C    -6.40780471e-01     -8.51916904e-01     -2.22914529e+00     
O    -1.16636314e+00     2.23972131e-01      -2.44572967e+00     
O    -5.75942057e-01     -1.87294469e+00     -3.06445544e+00     
H    -9.92900924e-01     -1.61470183e+00     -3.93882630e+00     
O    1.26421529e+00      1.81209319e+00      -1.63796308e+00     
H    1.86087459e+00      2.56158710e+00      -1.56338330e+00     
H    6.98850830e-01      1.99836156e+00      -2.39464961e+00     
O    1.32774766e+00      -1.00304027e+00     2.23060262e+00      
H    9.25562770e-01      -1.34916727e+00     3.03066929e+00      
H    2.25215867e+00      -8.67519408e-01     2.45150129e+00      
O    -2.71749584e+00     3.91318281e-01      1.09313676e-01      
H    -3.35273924e+00     7.39297078e-01      7.41192617e-01      
H    -2.98382446e+00     7.32208965e-01      -7.50396361e-01     
O    -1.61773440e+00     -1.28475062e+00     -5.46086841e+00     
H    -1.82564819e+00     -2.03950608e+00     -6.04910052e+00     
H    -2.43189868e+00     -7.54946285e-01     -5.47899133e+00     
