23
374.135324
N    1.15492521e-02      -3.09366308e-02     -3.97325712e-02     
H    4.82532057e-01      -2.74962705e-01     8.53191379e-01      
H    -9.79079949e-01     2.37007842e-01      1.42174706e-01      
H    4.81632622e-01      7.69805421e-01      -5.15255001e-01     
C    4.09047537e-02      -1.20461431e+00     -9.32490652e-01     
H    1.07141120e+00      -1.49402444e+00     -1.12137291e+00     
H    -4.74910166e-01     -2.03523362e+00     -4.57075423e-01     
C    -6.43460950e-01     -8.44937099e-01     -2.23545725e+00     
O    -1.16762900e+00     2.33305278e-01      -2.44599731e+00     
O    -5.75526391e-01     -1.86534799e+00     -3.06836529e+00     
H    -1.00245548e+00     -1.61945987e+00     -3.94208778e+00     
O    1.25616197e+00      1.80937842e+00      -1.64302148e+00     
H    1.86873750e+00      2.53848446e+00      -1.50018460e+00     
H    7.41119675e-01      2.04080366e+00      -2.42658278e+00     
O    1.31549207e+00      -1.00531594e+00     2.23375531e+00      
H    1.00894713e+00      -1.37403947e+00     3.07219943e+00      
H    2.25323900e+00      -8.14251957e-01     2.36720225e+00      
O    -2.72914856e+00     3.92608217e-01      1.17030543e-01      
H    -3.40315747e+00     7.44974522e-01      7.06117150e-01      
H    -2.93991880e+00     7.33354744e-01      -7.60450380e-01     
O    -1.61942614e+00     -1.30218697e+00     -5.42402243e+00     
H    -1.71956052e+00     -1.94722591e+00     -6.13191985e+00     
H    -2.35644226e+00     -6.94865037e-01     -5.52090359e+00     
23
374.135324
N    7.98040780e-03      -3.18030864e-02     -3.83301318e-02     
H    4.79565617e-01      -2.75632859e-01     8.54326592e-01      
H    -9.83299927e-01     2.36316284e-01      1.40871611e-01      
H    4.80028995e-01      7.69069391e-01      -5.11137746e-01     
C    4.03488103e-02      -1.20465617e+00     -9.32138041e-01     
H    1.07168954e+00      -1.49156856e+00     -1.12008076e+00     
H    -4.74132261e-01     -2.03686379e+00     -4.58078846e-01     
C    -6.43460937e-01     -8.45339710e-01     -2.23550877e+00     
O    -1.16794891e+00     2.32708212e-01      -2.44625267e+00     
O    -5.75411850e-01     -1.86553352e+00     -3.06869239e+00     
H    -1.00250451e+00     -1.61842696e+00     -3.94201593e+00     
O    1.25889123e+00      1.81028685e+00      -1.64279547e+00     
H    1.86677997e+00      2.54474640e+00      -1.51420533e+00     
H    7.25503812e-01      2.03643948e+00      -2.41328640e+00     
O    1.31837227e+00      -1.00430676e+00     2.23257868e+00      
H    9.87271685e-01      -1.36805253e+00     3.06079641e+00      
H    2.25285376e+00      -8.28367376e-01     2.38827155e+00      
O    -2.72752288e+00     3.93023108e-01      1.15463811e-01      
H    -3.39462427e+00     7.42528580e-01      7.13264325e-01      
H    -2.95369264e+00     7.28202325e-01      -7.59118547e-01     
O    -1.61963424e+00     -1.30138137e+00     -5.42374010e+00     
H    -1.71813299e+00     -1.95206192e+00     -6.12644882e+00     
H    -2.35727096e+00     -6.96013515e-01     -5.52646091e+00     
23
374.135324
N    6.19598564e-03      -3.22363143e-02     -3.76289122e-02     
H    4.78082396e-01      -2.75967936e-01     8.54894198e-01      
H    -9.85409915e-01     2.35970506e-01      1.40220064e-01      
H    4.79227181e-01      7.68701377e-01      -5.09079119e-01     
C    4.00708387e-02      -1.20467710e+00     -9.31961735e-01     
H    1.07182871e+00      -1.49034062e+00     -1.11943468e+00     
H    -4.73743309e-01     -2.03767887e+00     -4.58580558e-01     
C    -6.43460930e-01     -8.45541015e-01     -2.23553453e+00     
O    -1.16810886e+00     2.32409679e-01      -2.44638034e+00     
O    -5.75354579e-01     -1.86562628e+00     -3.06885595e+00     
H    -1.00252902e+00     -1.61791051e+00     -3.94198000e+00     
O    1.26025586e+00      1.81074107e+00      -1.64268246e+00     
H    1.86580120e+00      2.54787738e+00      -1.52121569e+00     
H    7.17695880e-01      2.03425739e+00      -2.40663821e+00     
O    1.31981236e+00      -1.00380216e+00     2.23199037e+00      
H    9.76433962e-01      -1.36505907e+00     3.05509489e+00      
H    2.25266113e+00      -8.35425085e-01     2.39880620e+00      
O    -2.72671004e+00     3.93230553e-01      1.14680445e-01      
H    -3.39035767e+00     7.41305610e-01      7.16837912e-01      
H    -2.96057956e+00     7.25626115e-01      -7.58452631e-01     
O    -1.61973829e+00     -1.30097858e+00     -5.42359894e+00     
H    -1.71741923e+00     -1.95447992e+00     -6.12371331e+00     
H    -2.35768531e+00     -6.96587755e-01     -5.52923957e+00     
23
374.135324
N    4.41156348e-03      -3.26695421e-02     -3.69276925e-02     
H    4.76599176e-01      -2.76303013e-01     8.55461805e-01      
H    -9.87519904e-01     2.35624727e-01      1.39568516e-01      
H    4.78425367e-01      7.68333362e-01      -5.07020491e-01     
C    3.97928670e-02      -1.20469802e+00     -9.31785430e-01     
H    1.07196788e+00      -1.48911268e+00     -1.11878860e+00     
H    -4.73354356e-01     -2.03849395e+00     -4.59082269e-01     
C    -6.43460924e-01     -8.45742321e-01     -2.23556030e+00     
O    -1.16826882e+00     2.32111147e-01      -2.44650802e+00     
O    -5.75297309e-01     -1.86571905e+00     -3.06901950e+00     
H    -1.00255353e+00     -1.61739406e+00     -3.94194407e+00     
O    1.26162049e+00      1.81119528e+00      -1.64256946e+00     
H    1.86482244e+00      2.55100835e+00      -1.52822606e+00     
H    7.09887949e-01      2.03207530e+00      -2.39999002e+00     
O    1.32125246e+00      -1.00329757e+00     2.23140205e+00      
H    9.65596239e-01      -1.36206560e+00     3.04939338e+00      
H    2.25246851e+00      -8.42482794e-01     2.40934085e+00      
O    -2.72589721e+00     3.93437998e-01      1.13897079e-01      
H    -3.38609107e+00     7.40082639e-01      7.20411499e-01      
H    -2.96746648e+00     7.23049906e-01      -7.57786715e-01     
O    -1.61984234e+00     -1.30057578e+00     -5.42345778e+00     
H    -1.71670547e+00     -1.95689792e+00     -6.12097779e+00     
H    -2.35809966e+00     -6.97161994e-01     -5.53201823e+00     
23
374.135324
N    2.62714132e-03      -3.31027699e-02     -3.62264728e-02     
H    4.75115956e-01      -2.76638089e-01     8.56029411e-01      
H    -9.89629893e-01     2.35278949e-01      1.38916969e-01      
H    4.77623553e-01      7.67965348e-01      -5.04961864e-01     
C    3.95148953e-02      -1.20471895e+00     -9.31609124e-01     
H    1.07210706e+00      -1.48788474e+00     -1.11814252e+00     
H    -4.72965404e-01     -2.03930904e+00     -4.59583981e-01     
C    -6.43460917e-01     -8.45943626e-01     -2.23558606e+00     
O    -1.16842877e+00     2.31812614e-01      -2.44663570e+00     
O    -5.75240038e-01     -1.86581181e+00     -3.06918306e+00     
H    -1.00257804e+00     -1.61687761e+00     -3.94190814e+00     
O    1.26298512e+00      1.81164950e+00      -1.64245645e+00     
H    1.86384367e+00      2.55413933e+00      -1.53523642e+00     
H    7.02080017e-01      2.02989321e+00      -2.39334183e+00     
O    1.32269256e+00      -1.00279298e+00     2.23081374e+00      
H    9.54758515e-01      -1.35907213e+00     3.04369187e+00      
H    2.25227588e+00      -8.49540503e-01     2.41987549e+00      
O    -2.72508437e+00     3.93645444e-01      1.13113713e-01      
H    -3.38182447e+00     7.38859668e-01      7.23985086e-01      
H    -2.97435339e+00     7.20473696e-01      -7.57120799e-01     
O    -1.61994639e+00     -1.30017298e+00     -5.42331661e+00     
H    -1.71599170e+00     -1.95931593e+00     -6.11824228e+00     
H    -2.35851400e+00     -6.97736233e-01     -5.53479689e+00     
23
374.135324
N    8.42719166e-04      -3.35359977e-02     -3.55252531e-02     
H    4.73632736e-01      -2.76973166e-01     8.56597017e-01      
H    -9.91739882e-01     2.34933170e-01      1.38265421e-01      
H    4.76821740e-01      7.67597333e-01      -5.02903237e-01     
C    3.92369236e-02      -1.20473988e+00     -9.31432819e-01     
H    1.07224623e+00      -1.48665680e+00     -1.11749645e+00     
H    -4.72576452e-01     -2.04012412e+00     -4.60085693e-01     
C    -6.43460910e-01     -8.46144932e-01     -2.23561182e+00     
O    -1.16858872e+00     2.31514081e-01      -2.44676338e+00     
O    -5.75182767e-01     -1.86590457e+00     -3.06934661e+00     
H    -1.00260256e+00     -1.61636115e+00     -3.94187222e+00     
O    1.26434976e+00      1.81210372e+00      -1.64234345e+00     
H    1.86286490e+00      2.55727030e+00      -1.54224679e+00     
H    6.94272086e-01      2.02771112e+00      -2.38669364e+00     
O    1.32413266e+00      -1.00228839e+00     2.23022543e+00      
H    9.43920792e-01      -1.35607866e+00     3.03799036e+00      
H    2.25208326e+00      -8.56598213e-01     2.43041014e+00      
O    -2.72427153e+00     3.93852889e-01      1.12330346e-01      
H    -3.37755787e+00     7.37636697e-01      7.27558674e-01      
H    -2.98124031e+00     7.17897487e-01      -7.56454883e-01     
O    -1.62005044e+00     -1.29977018e+00     -5.42317545e+00     
H    -1.71527794e+00     -1.96173393e+00     -6.11550676e+00     
H    -2.35892835e+00     -6.98310472e-01     -5.53757555e+00     
23
374.135324
N    -4.94919132e-05     -3.37526117e-02     -3.51746432e-02     
H    4.72891125e-01      -2.77140705e-01     8.56880820e-01      
H    -9.92794876e-01     2.34760281e-01      1.37939647e-01      
H    4.76420833e-01      7.67413326e-01      -5.01873923e-01     
C    3.90979378e-02      -1.20475035e+00     -9.31344666e-01     
H    1.07231581e+00      -1.48604283e+00     -1.11717341e+00     
H    -4.72381976e-01     -2.04053166e+00     -4.60336549e-01     
C    -6.43460907e-01     -8.46245585e-01     -2.23562470e+00     
O    -1.16866870e+00     2.31364814e-01      -2.44682722e+00     
O    -5.75154132e-01     -1.86595095e+00     -3.06942839e+00     
H    -1.00261481e+00     -1.61610293e+00     -3.94185425e+00     
O    1.26503207e+00      1.81233083e+00      -1.64228695e+00     
H    1.86237552e+00      2.55883579e+00      -1.54575197e+00     
H    6.90368120e-01      2.02662007e+00      -2.38336954e+00     
O    1.32485270e+00      -1.00203609e+00     2.22993127e+00      
H    9.38501931e-01      -1.35458193e+00     3.03513960e+00      
H    2.25198695e+00      -8.60127067e-01     2.43567747e+00      
O    -2.72386511e+00     3.93956612e-01      1.11938663e-01      
H    -3.37542457e+00     7.37025212e-01      7.29345467e-01      
H    -2.98468377e+00     7.16609382e-01      -7.56121925e-01     
O    -1.62010246e+00     -1.29956878e+00     -5.42310487e+00     
H    -1.71492106e+00     -1.96294293e+00     -6.11413900e+00     
H    -2.35913553e+00     -6.98597592e-01     -5.53896488e+00     
23
374.135324
N    -9.41702992e-04     -3.39692256e-02     -3.48240334e-02     
H    4.72149515e-01      -2.77308243e-01     8.57164624e-01      
H    -9.93849870e-01     2.34587392e-01      1.37613874e-01      
H    4.76019926e-01      7.67229319e-01      -5.00844609e-01     
C    3.89589520e-02      -1.20476081e+00     -9.31256513e-01     
H    1.07238540e+00      -1.48542886e+00     -1.11685037e+00     
H    -4.72187499e-01     -2.04093921e+00     -4.60587404e-01     
C    -6.43460904e-01     -8.46346237e-01     -2.23563758e+00     
O    -1.16874868e+00     2.31215548e-01      -2.44689106e+00     
O    -5.75125497e-01     -1.86599734e+00     -3.06951017e+00     
H    -1.00262707e+00     -1.61584470e+00     -3.94183629e+00     
O    1.26571439e+00      1.81255793e+00      -1.64223044e+00     
H    1.86188614e+00      2.56040128e+00      -1.54925715e+00     
H    6.86464154e-01      2.02552903e+00      -2.38004545e+00     
O    1.32557275e+00      -1.00178379e+00     2.22963711e+00      
H    9.33083069e-01      -1.35308520e+00     3.03228884e+00      
H    2.25189063e+00      -8.63655922e-01     2.44094479e+00      
O    -2.72345869e+00     3.94060335e-01      1.11546980e-01      
H    -3.37329127e+00     7.36413727e-01      7.31132261e-01      
H    -2.98812723e+00     7.15321277e-01      -7.55788967e-01     
O    -1.62015449e+00     -1.29936738e+00     -5.42303428e+00     
H    -1.71456417e+00     -1.96415194e+00     -6.11277125e+00     
H    -2.35934270e+00     -6.98884712e-01     -5.54035421e+00     
23
374.135324
N    -4.51054731e-03     -3.48356812e-02     -3.34215940e-02     
H    4.69183075e-01      -2.77978397e-01     8.58299836e-01      
H    -9.98069848e-01     2.33895834e-01      1.36310778e-01      
H    4.74416298e-01      7.66493289e-01      -4.96727355e-01     
C    3.84030086e-02      -1.20480267e+00     -9.30903903e-01     
H    1.07266374e+00      -1.48297298e+00     -1.11555821e+00     
H    -4.71409595e-01     -2.04256937e+00     -4.61590828e-01     
C    -6.43460890e-01     -8.46748849e-01     -2.23568910e+00     
O    -1.16906858e+00     2.30618482e-01      -2.44714642e+00     
O    -5.75010955e-01     -1.86618286e+00     -3.06983727e+00     
H    -1.00267609e+00     -1.61481180e+00     -3.94176443e+00     
O    1.26844365e+00      1.81346637e+00      -1.64200444e+00     
H    1.85992860e+00      2.56666322e+00      -1.56327789e+00     
H    6.70848292e-01      2.02116485e+00      -2.36674907e+00     
O    1.32845295e+00      -1.00077461e+00     2.22846049e+00      
H    9.11407623e-01      -1.34709826e+00     3.02088582e+00      
H    2.25150539e+00      -8.77771340e-01     2.46201409e+00      
O    -2.72183301e+00     3.94475225e-01      1.09980248e-01      
H    -3.36475807e+00     7.33967785e-01      7.38279435e-01      
H    -3.00190107e+00     7.10168859e-01      -7.54457135e-01     
O    -1.62036259e+00     -1.29856178e+00     -5.42275196e+00     
H    -1.71313665e+00     -1.96898794e+00     -6.10730021e+00     
H    -2.36017140e+00     -7.00033190e-01     -5.54591153e+00     
23
374.135324
N    -5.40275839e-03     -3.50522951e-02     -3.30709842e-02     
H    4.68441465e-01      -2.78145935e-01     8.58583640e-01      
H    -9.99124842e-01     2.33722945e-01      1.35985005e-01      
H    4.74015391e-01      7.66309282e-01      -4.95698041e-01     
C    3.82640228e-02      -1.20481313e+00     -9.30815750e-01     
H    1.07273333e+00      -1.48235901e+00     -1.11523517e+00     
H    -4.71215118e-01     -2.04297692e+00     -4.61841683e-01     
C    -6.43460887e-01     -8.46849501e-01     -2.23570198e+00     
O    -1.16914856e+00     2.30469216e-01      -2.44721026e+00     
O    -5.74982320e-01     -1.86622925e+00     -3.06991905e+00     
H    -1.00268835e+00     -1.61455357e+00     -3.94174647e+00     
O    1.26912597e+00      1.81369347e+00      -1.64194793e+00     
H    1.85943922e+00      2.56822871e+00      -1.56678307e+00     
H    6.66944326e-01      2.02007381e+00      -2.36342498e+00     
O    1.32917300e+00      -1.00052231e+00     2.22816633e+00      
H    9.05988761e-01      -1.34560153e+00     3.01803506e+00      
H    2.25140907e+00      -8.81300195e-01     2.46728141e+00      
O    -2.72142659e+00     3.94578948e-01      1.09588565e-01      
H    -3.36262477e+00     7.33356300e-01      7.40066229e-01      
H    -3.00534453e+00     7.08880754e-01      -7.54124177e-01     
O    -1.62041462e+00     -1.29836038e+00     -5.42268137e+00     
H    -1.71277976e+00     -1.97019695e+00     -6.10593246e+00     
H    -2.36037857e+00     -7.00320310e-01     -5.54730086e+00     
23
374.135324
N    -6.29496947e-03     -3.52689091e-02     -3.27203743e-02     
H    4.67699854e-01      -2.78313474e-01     8.58867443e-01      
H    -1.00017984e+00     2.33550056e-01      1.35659231e-01      
H    4.73614484e-01      7.66125275e-01      -4.94668727e-01     
C    3.81250370e-02      -1.20482360e+00     -9.30727597e-01     
H    1.07280291e+00      -1.48174504e+00     -1.11491213e+00     
H    -4.71020642e-01     -2.04338446e+00     -4.62092539e-01     
C    -6.43460884e-01     -8.46950154e-01     -2.23571486e+00     
O    -1.16922854e+00     2.30319949e-01      -2.44727410e+00     
O    -5.74953685e-01     -1.86627563e+00     -3.07000083e+00     
H    -1.00270060e+00     -1.61429535e+00     -3.94172850e+00     
O    1.26980828e+00      1.81392058e+00      -1.64189143e+00     
H    1.85894984e+00      2.56979420e+00      -1.57028825e+00     
H    6.63040360e-01      2.01898276e+00      -2.36010088e+00     
O    1.32989304e+00      -1.00027001e+00     2.22787217e+00      
H    9.00569900e-01      -1.34410480e+00     3.01518430e+00      
H    2.25131276e+00      -8.84829049e-01     2.47254874e+00      
O    -2.72102017e+00     3.94682671e-01      1.09196882e-01      
H    -3.36049147e+00     7.32744815e-01      7.41853022e-01      
H    -3.00878799e+00     7.07592649e-01      -7.53791219e-01     
O    -1.62046664e+00     -1.29815898e+00     -5.42261079e+00     
H    -1.71242288e+00     -1.97140595e+00     -6.10456470e+00     
H    -2.36058575e+00     -7.00607430e-01     -5.54869019e+00     
23
374.135324
N    -8.07939162e-03     -3.57021369e-02     -3.20191546e-02     
H    4.66216634e-01      -2.78648551e-01     8.59435049e-01      
H    -1.00228983e+00     2.33204277e-01      1.35007683e-01      
H    4.72812671e-01      7.65757260e-01      -4.92610100e-01     
C    3.78470653e-02      -1.20484453e+00     -9.30551292e-01     
H    1.07294208e+00      -1.48051710e+00     -1.11426606e+00     
H    -4.70631690e-01     -2.04419954e+00     -4.62594251e-01     
C    -6.43460877e-01     -8.47151460e-01     -2.23574062e+00     
O    -1.16938849e+00     2.30021416e-01      -2.44740178e+00     
O    -5.74896414e-01     -1.86636839e+00     -3.07016438e+00     
H    -1.00272512e+00     -1.61377889e+00     -3.94169258e+00     
O    1.27117292e+00      1.81437480e+00      -1.64177843e+00     
H    1.85797107e+00      2.57292517e+00      -1.57729862e+00     
H    6.55232429e-01      2.01680067e+00      -2.35345269e+00     
O    1.33133314e+00      -9.99765422e-01     2.22728386e+00      
H    8.89732177e-01      -1.34111133e+00     3.00948279e+00      
H    2.25112014e+00      -8.91886759e-01     2.48308339e+00      
O    -2.72020733e+00     3.94890116e-01      1.08413515e-01      
H    -3.35622487e+00     7.31521844e-01      7.45426610e-01      
H    -3.01567491e+00     7.05016440e-01      -7.53125303e-01     
O    -1.62057069e+00     -1.29775618e+00     -5.42246963e+00     
H    -1.71170912e+00     -1.97382395e+00     -6.10182918e+00     
H    -2.36100010e+00     -7.01181669e-01     -5.55146885e+00     
23
374.135324
N    -9.86381378e-03     -3.61353647e-02     -3.13179349e-02     
H    4.64733414e-01      -2.78983627e-01     8.60002655e-01      
H    -1.00439981e+00     2.32858499e-01      1.34356136e-01      
H    4.72010857e-01      7.65389246e-01      -4.90551473e-01     
C    3.75690936e-02      -1.20486546e+00     -9.30374986e-01     
H    1.07308126e+00      -1.47928916e+00     -1.11361998e+00     
H    -4.70242738e-01     -2.04501463e+00     -4.63095963e-01     
C    -6.43460870e-01     -8.47352765e-01     -2.23576638e+00     
O    -1.16954844e+00     2.29722883e-01      -2.44752946e+00     
O    -5.74839143e-01     -1.86646115e+00     -3.07032794e+00     
H    -1.00274963e+00     -1.61326244e+00     -3.94165665e+00     
O    1.27253755e+00      1.81482902e+00      -1.64166542e+00     
H    1.85699230e+00      2.57605615e+00      -1.58430898e+00     
H    6.47424497e-01      2.01461858e+00      -2.34680450e+00     
O    1.33277324e+00      -9.99260829e-01     2.22669555e+00      
H    8.78894453e-01      -1.33811786e+00     3.00378128e+00      
H    2.25092751e+00      -8.98944468e-01     2.49361803e+00      
O    -2.71939449e+00     3.95097562e-01      1.07630149e-01      
H    -3.35195827e+00     7.30298873e-01      7.49000197e-01      
H    -3.02256182e+00     7.02440230e-01      -7.52459387e-01     
O    -1.62067474e+00     -1.29735338e+00     -5.42232846e+00     
H    -1.71099535e+00     -1.97624196e+00     -6.09909367e+00     
H    -2.36141444e+00     -7.01755908e-01     -5.55424751e+00     
23
374.135324
N    -1.16482359e-02     -3.65685925e-02     -3.06167152e-02     
H    4.63250194e-01      -2.79318704e-01     8.60570262e-01      
H    -1.00650980e+00     2.32512720e-01      1.33704588e-01      
H    4.71209043e-01      7.65021231e-01      -4.88492845e-01     
C    3.72911219e-02      -1.20488638e+00     -9.30198681e-01     
H    1.07322043e+00      -1.47806122e+00     -1.11297390e+00     
H    -4.69853785e-01     -2.04582971e+00     -4.63597674e-01     
C    -6.43460864e-01     -8.47554071e-01     -2.23579215e+00     
O    -1.16970840e+00     2.29424351e-01      -2.44765714e+00     
O    -5.74781873e-01     -1.86655392e+00     -3.07049149e+00     
H    -1.00277414e+00     -1.61274599e+00     -3.94162072e+00     
O    1.27390218e+00      1.81528323e+00      -1.64155242e+00     
H    1.85601354e+00      2.57918712e+00      -1.59131935e+00     
H    6.39616566e-01      2.01243649e+00      -2.34015631e+00     
O    1.33421334e+00      -9.98756236e-01     2.22610723e+00      
H    8.68056730e-01      -1.33512439e+00     2.99807977e+00      
H    2.25073489e+00      -9.06002177e-01     2.50415268e+00      
O    -2.71858166e+00     3.95305007e-01      1.06846783e-01      
H    -3.34769167e+00     7.29075902e-01      7.52573784e-01      
H    -3.02944874e+00     6.99864021e-01      -7.51793471e-01     
O    -1.62077879e+00     -1.29695058e+00     -5.42218730e+00     
H    -1.71028159e+00     -1.97865996e+00     -6.09635815e+00     
H    -2.36182879e+00     -7.02330147e-01     -5.55702617e+00     
23
374.135324
N    -1.34326581e-02     -3.70018204e-02     -2.99154956e-02     
H    4.61766973e-01      -2.79653781e-01     8.61137868e-01      
H    -1.00861979e+00     2.32166942e-01      1.33053041e-01      
H    4.70407229e-01      7.64653217e-01      -4.86434218e-01     
C    3.70131503e-02      -1.20490731e+00     -9.30022375e-01     
H    1.07335960e+00      -1.47683328e+00     -1.11232782e+00     
H    -4.69464833e-01     -2.04664479e+00     -4.64099386e-01     
C    -6.43460857e-01     -8.47755376e-01     -2.23581791e+00     
O    -1.16986835e+00     2.29125818e-01      -2.44778481e+00     
O    -5.74724602e-01     -1.86664668e+00     -3.07065505e+00     
H    -1.00279865e+00     -1.61222954e+00     -3.94158479e+00     
O    1.27526681e+00      1.81573745e+00      -1.64143941e+00     
H    1.85503477e+00      2.58231810e+00      -1.59832971e+00     
H    6.31808634e-01      2.01025440e+00      -2.33350812e+00     
O    1.33565343e+00      -9.98251643e-01     2.22551892e+00      
H    8.57219007e-01      -1.33213093e+00     2.99237825e+00      
H    2.25054226e+00      -9.13059886e-01     2.51468733e+00      
O    -2.71776882e+00     3.95512452e-01      1.06063417e-01      
H    -3.34342507e+00     7.27852932e-01      7.56147371e-01      
H    -3.03633566e+00     6.97287811e-01      -7.51127555e-01     
O    -1.62088284e+00     -1.29654779e+00     -5.42204614e+00     
H    -1.70956783e+00     -1.98107796e+00     -6.09362264e+00     
H    -2.36224314e+00     -7.02904387e-01     -5.55980483e+00     
23
374.135324
N    -1.70015024e-02     -3.78682760e-02     -2.85130562e-02     
H    4.58800533e-01      -2.80323935e-01     8.62273081e-01      
H    -1.01283977e+00     2.31475384e-01      1.31749946e-01      
H    4.68803602e-01      7.63917187e-01      -4.82316963e-01     
C    3.64572069e-02      -1.20494917e+00     -9.29669764e-01     
H    1.07363794e+00      -1.47437740e+00     -1.11103567e+00     
H    -4.68686928e-01     -2.04827496e+00     -4.65102809e-01     
C    -6.43460844e-01     -8.48157987e-01     -2.23586943e+00     
O    -1.17018826e+00     2.28528752e-01      -2.44804017e+00     
O    -5.74610061e-01     -1.86683221e+00     -3.07098215e+00     
H    -1.00284768e+00     -1.61119663e+00     -3.94151294e+00     
O    1.27799607e+00      1.81664588e+00      -1.64121340e+00     
H    1.85307724e+00      2.58858004e+00      -1.61235044e+00     
H    6.16192771e-01      2.00589022e+00      -2.32021174e+00     
O    1.33853363e+00      -9.97242457e-01     2.22434229e+00      
H    8.35543561e-01      -1.32614399e+00     2.98097523e+00      
H    2.25015702e+00      -9.27175305e-01     2.53575663e+00      
O    -2.71614314e+00     3.95927343e-01      1.04496685e-01      
H    -3.33489187e+00     7.25406990e-01      7.63294546e-01      
H    -3.05010950e+00     6.92135392e-01      -7.49795722e-01     
O    -1.62109094e+00     -1.29574219e+00     -5.42176381e+00     
H    -1.70814030e+00     -1.98591397e+00     -6.08815161e+00     
H    -2.36307184e+00     -7.04052865e-01     -5.56536215e+00     
