23
271.738264
N    -3.29488076e-02     -4.73036264e-02     -2.09005775e-02     
H    4.37103090e-01      -2.92663984e-01     8.72169033e-01      
H    -1.03412729e+00     2.05721238e-01      1.43431076e-01      
H    4.36537408e-01      7.64452740e-01      -4.70575402e-01     
C    3.73143945e-02      -1.20557860e+00     -9.31871481e-01     
H    1.07865674e+00      -1.45864850e+00     -1.11678719e+00     
H    -4.55278398e-01     -2.06047280e+00     -4.75082462e-01     
C    -6.46109618e-01     -8.46244871e-01     -2.23525179e+00     
O    -1.17002387e+00     2.31892528e-01      -2.44714722e+00     
O    -5.74241860e-01     -1.86486305e+00     -3.06980559e+00     
H    -1.00326921e+00     -1.61582793e+00     -3.94168411e+00     
O    1.27505612e+00      1.83117562e+00      -1.65006181e+00     
H    1.87372477e+00      2.58279040e+00      -1.61108134e+00     
H    7.31939352e-01      1.97262757e+00      -2.43696218e+00     
O    1.32193394e+00      -1.00266100e+00     2.23069313e+00      
H    9.63256944e-01      -1.35743166e+00     3.04898652e+00      
H    2.25381801e+00      -8.47836414e-01     2.40901954e+00      
O    -2.70380745e+00     3.86385285e-01      1.06631386e-01      
H    -3.31443246e+00     7.38854312e-01      7.61788343e-01      
H    -2.95599086e+00     7.89571014e-01      -7.34979977e-01     
O    -1.62122089e+00     -1.30153872e+00     -5.41845231e+00     
H    -1.69903729e+00     -1.95341349e+00     -6.12273603e+00     
H    -2.34642473e+00     -6.87767089e-01     -5.55384730e+00     
23
271.738264
N    -2.53931370e-02     -4.40783331e-02     -2.42061366e-02     
H    4.45493891e-01      -2.88908818e-01     8.68559833e-01      
H    -1.02458543e+00     2.12851332e-01      1.41813889e-01      
H    4.46207584e-01      7.65054881e-01      -4.77628047e-01     
C    3.76560409e-02      -1.20537939e+00     -9.31673663e-01     
H    1.07712370e+00      -1.46503660e+00     -1.11664147e+00     
H    -4.59408435e-01     -2.05579317e+00     -4.71584125e-01     
C    -6.45447438e-01     -8.46320539e-01     -2.23535468e+00     
O    -1.16974506e+00     2.31648650e-01      -2.44711510e+00     
O    -5.74448452e-01     -1.86516981e+00     -3.06977262e+00     
H    -1.00311481e+00     -1.61570301e+00     -3.94171317e+00     
O    1.27306185e+00      1.82663475e+00      -1.64807572e+00     
H    1.87052042e+00      2.57797586e+00      -1.59737789e+00     
H    7.18618570e-01      1.98530741e+00      -2.42107095e+00     
O    1.32320367e+00      -1.00231555e+00     2.23028205e+00      
H    9.53004044e-01      -1.35559668e+00     3.04338672e+00      
H    2.25328801e+00      -8.53555719e-01     2.41963451e+00      
O    -2.70851705e+00     3.88355909e-01      1.07664443e-01      
H    -3.32808051e+00     7.37938423e-01      7.55017719e-01      
H    -2.96574668e+00     7.70364527e-01      -7.40015746e-01     
O    -1.62098030e+00     -1.30089519e+00     -5.41956251e+00     
H    -1.70274057e+00     -1.95670261e+00     -6.11956095e+00     
H    -2.34975781e+00     -6.90690055e-01     -5.55116869e+00     
23
271.738264
N    -2.16153017e-02     -4.24656865e-02     -2.58589161e-02     
H    4.49689292e-01      -2.87031235e-01     8.66755232e-01      
H    -1.01981450e+00     2.16416379e-01      1.41005295e-01      
H    4.51042672e-01      7.65355951e-01      -4.81154369e-01     
C    3.78268641e-02      -1.20527978e+00     -9.31574754e-01     
H    1.07635718e+00      -1.46823066e+00     -1.11656860e+00     
H    -4.61473454e-01     -2.05345336e+00     -4.69834957e-01     
C    -6.45116348e-01     -8.46358373e-01     -2.23540612e+00     
O    -1.16960566e+00     2.31526710e-01      -2.44709904e+00     
O    -5.74551747e-01     -1.86532319e+00     -3.06975614e+00     
H    -1.00303760e+00     -1.61564055e+00     -3.94172770e+00     
O    1.27206471e+00      1.82436432e+00      -1.64708267e+00     
H    1.86891824e+00      2.57556859e+00      -1.59052616e+00     
H    7.11958178e-01      1.99164734e+00      -2.41312533e+00     
O    1.32383853e+00      -1.00214282e+00     2.23007651e+00      
H    9.47877595e-01      -1.35467919e+00     3.04058682e+00      
H    2.25302301e+00      -8.56415371e-01     2.42494200e+00      
O    -2.71087185e+00     3.89341221e-01      1.08180971e-01      
H    -3.33490454e+00     7.37480478e-01      7.51632407e-01      
H    -2.97062459e+00     7.60761284e-01      -7.42533630e-01     
O    -1.62086001e+00     -1.30057342e+00     -5.42011761e+00     
H    -1.70459221e+00     -1.95834716e+00     -6.11797342e+00     
H    -2.35142435e+00     -6.92151537e-01     -5.54982939e+00     
23
271.738264
N    -1.78374664e-02     -4.08530399e-02     -2.75116956e-02     
H    4.53884693e-01      -2.85153652e-01     8.64950632e-01      
H    -1.01504357e+00     2.19981426e-01      1.40196701e-01      
H    4.55877760e-01      7.65657022e-01      -4.84680692e-01     
C    3.79976874e-02      -1.20518017e+00     -9.31475845e-01     
H    1.07559066e+00      -1.47142471e+00     -1.11649574e+00     
H    -4.63538473e-01     -2.05111354e+00     -4.68085789e-01     
C    -6.44785257e-01     -8.46396207e-01     -2.23545757e+00     
O    -1.16946625e+00     2.31404771e-01      -2.44708298e+00     
O    -5.74655043e-01     -1.86547657e+00     -3.06973965e+00     
H    -1.00296040e+00     -1.61557809e+00     -3.94174223e+00     
O    1.27106757e+00      1.82209389e+00      -1.64608962e+00     
H    1.86731607e+00      2.57316132e+00      -1.58367443e+00     
H    7.05297787e-01      1.99798726e+00      -2.40517972e+00     
O    1.32447340e+00      -1.00197010e+00     2.22987097e+00      
H    9.42751145e-01      -1.35376169e+00     3.03778693e+00      
H    2.25275801e+00      -8.59275023e-01     2.43024949e+00      
O    -2.71322665e+00     3.90326533e-01      1.08697500e-01      
H    -3.34172856e+00     7.37022534e-01      7.48247095e-01      
H    -2.97550250e+00     7.51158041e-01      -7.45051514e-01     
O    -1.62073972e+00     -1.30025165e+00     -5.42067271e+00     
H    -1.70644385e+00     -1.95999172e+00     -6.11638588e+00     
H    -2.35309089e+00     -6.93613020e-01     -5.54849008e+00     
23
271.738264
N    -1.40596311e-02     -3.92403933e-02     -2.91644751e-02     
H    4.58080093e-01      -2.83276069e-01     8.63146031e-01      
H    -1.01027265e+00     2.23546472e-01      1.39388107e-01      
H    4.60712848e-01      7.65958092e-01      -4.88207014e-01     
C    3.81685106e-02      -1.20508056e+00     -9.31376935e-01     
H    1.07482413e+00      -1.47461876e+00     -1.11642288e+00     
H    -4.65603491e-01     -2.04877373e+00     -4.66336621e-01     
C    -6.44454167e-01     -8.46434041e-01     -2.23550901e+00     
O    -1.16932685e+00     2.31282832e-01      -2.44706692e+00     
O    -5.74758339e-01     -1.86562996e+00     -3.06972317e+00     
H    -1.00288319e+00     -1.61551563e+00     -3.94175677e+00     
O    1.27007043e+00      1.81982345e+00      -1.64509658e+00     
H    1.86571389e+00      2.57075406e+00      -1.57682270e+00     
H    6.98637396e-01      2.00432718e+00      -2.39723410e+00     
O    1.32510826e+00      -1.00179737e+00     2.22966542e+00      
H    9.37624695e-01      -1.35284420e+00     3.03498703e+00      
H    2.25249301e+00      -8.62134675e-01     2.43555698e+00      
O    -2.71558145e+00     3.91311844e-01      1.09214028e-01      
H    -3.34855259e+00     7.36564589e-01      7.44861783e-01      
H    -2.98038041e+00     7.41554798e-01      -7.47569398e-01     
O    -1.62061942e+00     -1.29992988e+00     -5.42122782e+00     
H    -1.70829549e+00     -1.96163627e+00     -6.11479834e+00     
H    -2.35475743e+00     -6.95074503e-01     -5.54715078e+00     
23
271.738264
N    -1.02817958e-02     -3.76277466e-02     -3.08172547e-02     
H    4.62275494e-01      -2.81398486e-01     8.61341431e-01      
H    -1.00550172e+00     2.27111519e-01      1.38579514e-01      
H    4.65547936e-01      7.66259163e-01      -4.91733337e-01     
C    3.83393338e-02      -1.20498096e+00     -9.31278026e-01     
H    1.07405761e+00      -1.47781281e+00     -1.11635002e+00     
H    -4.67668510e-01     -2.04643392e+00     -4.64587452e-01     
C    -6.44123077e-01     -8.46471875e-01     -2.23556045e+00     
O    -1.16918744e+00     2.31160893e-01      -2.44705086e+00     
O    -5.74861635e-01     -1.86578334e+00     -3.06970669e+00     
H    -1.00280599e+00     -1.61545317e+00     -3.94177130e+00     
O    1.26907330e+00      1.81755302e+00      -1.64410353e+00     
H    1.86411172e+00      2.56834679e+00      -1.56997098e+00     
H    6.91977005e-01      2.01066710e+00      -2.38928849e+00     
O    1.32574312e+00      -1.00162465e+00     2.22945988e+00      
H    9.32498245e-01      -1.35192671e+00     3.03218713e+00      
H    2.25222801e+00      -8.64994327e-01     2.44086446e+00      
O    -2.71793625e+00     3.92297156e-01      1.09730557e-01      
H    -3.35537662e+00     7.36106645e-01      7.41476472e-01      
H    -2.98525833e+00     7.31951554e-01      -7.50087283e-01     
O    -1.62049913e+00     -1.29960812e+00     -5.42178292e+00     
H    -1.71014713e+00     -1.96328083e+00     -6.11321080e+00     
H    -2.35642397e+00     -6.96535986e-01     -5.54581148e+00     
23
271.738264
N    -8.39287811e-03     -3.68214233e-02     -3.16436444e-02     
H    4.64373194e-01      -2.80459695e-01     8.60439131e-01      
H    -1.00311625e+00     2.28894043e-01      1.38175217e-01      
H    4.67965480e-01      7.66409698e-01      -4.93496498e-01     
C    3.84247455e-02      -1.20493115e+00     -9.31228572e-01     
H    1.07367435e+00      -1.47940984e+00     -1.11631358e+00     
H    -4.68701019e-01     -2.04526401e+00     -4.63712868e-01     
C    -6.43957532e-01     -8.46490792e-01     -2.23558617e+00     
O    -1.16911774e+00     2.31099924e-01      -2.44704283e+00     
O    -5.74913282e-01     -1.86586003e+00     -3.06969845e+00     
H    -1.00276739e+00     -1.61542194e+00     -3.94177856e+00     
O    1.26857473e+00      1.81641780e+00      -1.64360701e+00     
H    1.86331063e+00      2.56714315e+00      -1.56654511e+00     
H    6.88646810e-01      2.01383706e+00      -2.38531568e+00     
O    1.32606055e+00      -1.00153829e+00     2.22935711e+00      
H    9.29935021e-01      -1.35146797e+00     3.03078718e+00      
H    2.25209551e+00      -8.66424153e-01     2.44351821e+00      
O    -2.71911365e+00     3.92789812e-01      1.09988821e-01      
H    -3.35878863e+00     7.35877673e-01      7.39783816e-01      
H    -2.98769728e+00     7.27149933e-01      -7.51346225e-01     
O    -1.62043898e+00     -1.29944723e+00     -5.42206047e+00     
H    -1.71107295e+00     -1.96410311e+00     -6.11241704e+00     
H    -2.35725724e+00     -6.97266727e-01     -5.54514183e+00     
23
271.738264
N    -6.50396046e-03     -3.60151000e-02     -3.24700342e-02     
H    4.66470894e-01      -2.79520903e-01     8.59536830e-01      
H    -1.00073079e+00     2.30676566e-01      1.37770920e-01      
H    4.70383024e-01      7.66560233e-01      -4.95259659e-01     
C    3.85101571e-02      -1.20488135e+00     -9.31179117e-01     
H    1.07329109e+00      -1.48100687e+00     -1.11627715e+00     
H    -4.69733528e-01     -2.04409410e+00     -4.62838284e-01     
C    -6.43791987e-01     -8.46509709e-01     -2.23561190e+00     
O    -1.16904804e+00     2.31038954e-01      -2.44703480e+00     
O    -5.74964930e-01     -1.86593672e+00     -3.06969020e+00     
H    -1.00272878e+00     -1.61539071e+00     -3.94178583e+00     
O    1.26807616e+00      1.81528258e+00      -1.64311049e+00     
H    1.86250954e+00      2.56593952e+00      -1.56311925e+00     
H    6.85316614e-01      2.01700702e+00      -2.38134287e+00     
O    1.32637799e+00      -1.00145192e+00     2.22925434e+00      
H    9.27371796e-01      -1.35100922e+00     3.02938723e+00      
H    2.25196301e+00      -8.67853979e-01     2.44617195e+00      
O    -2.72029105e+00     3.93282468e-01      1.10247085e-01      
H    -3.36220064e+00     7.35648700e-01      7.38091160e-01      
H    -2.99013624e+00     7.22348311e-01      -7.52605167e-01     
O    -1.62037883e+00     -1.29928635e+00     -5.42233802e+00     
H    -1.71199877e+00     -1.96492538e+00     -6.11162327e+00     
H    -2.35809051e+00     -6.97997468e-01     -5.54447217e+00     
23
271.738264
N    1.05171016e-03      -3.27898068e-02     -3.57755932e-02     
H    4.74861696e-01      -2.75765737e-01     8.55927630e-01      
H    -9.91188930e-01     2.37806660e-01      1.36153732e-01      
H    4.80053200e-01      7.67162375e-01      -5.02312305e-01     
C    3.88518035e-02      -1.20468213e+00     -9.30981299e-01     
H    1.07175805e+00      -1.48739497e+00     -1.11613143e+00     
H    -4.73863566e-01     -2.03941448e+00     -4.59339948e-01     
C    -6.43129807e-01     -8.46585377e-01     -2.23571478e+00     
O    -1.16876922e+00     2.30795076e-01      -2.44700268e+00     
O    -5.75171522e-01     -1.86624348e+00     -3.06965724e+00     
H    -1.00257438e+00     -1.61526579e+00     -3.94181489e+00     
O    1.26608188e+00      1.81074172e+00      -1.64112439e+00     
H    1.85930520e+00      2.56112498e+00      -1.54941579e+00     
H    6.71995832e-01      2.02968686e+00      -2.36545165e+00     
O    1.32764771e+00      -1.00110648e+00     2.22884326e+00      
H    9.17118896e-01      -1.34917424e+00     3.02378743e+00      
H    2.25143301e+00      -8.73573283e-01     2.45678693e+00      
O    -2.72500065e+00     3.95253092e-01      1.11280143e-01      
H    -3.37584870e+00     7.34732812e-01      7.31320536e-01      
H    -2.99989206e+00     7.03141825e-01      -7.57640935e-01     
O    -1.62013825e+00     -1.29864281e+00     -5.42344822e+00     
H    -1.71570205e+00     -1.96821450e+00     -6.10844819e+00     
H    -2.36142359e+00     -7.00920434e-01     -5.54179357e+00     
23
271.738264
N    2.94062781e-03      -3.19834835e-02     -3.66019830e-02     
H    4.76959396e-01      -2.74826945e-01     8.55025329e-01      
H    -9.88803466e-01     2.39589183e-01      1.35749435e-01      
H    4.82470744e-01      7.67312910e-01      -5.04075466e-01     
C    3.89372151e-02      -1.20463233e+00     -9.30931844e-01     
H    1.07137479e+00      -1.48899200e+00     -1.11609500e+00     
H    -4.74896075e-01     -2.03824457e+00     -4.58465364e-01     
C    -6.42964262e-01     -8.46604294e-01     -2.23574051e+00     
O    -1.16869952e+00     2.30734106e-01      -2.44699465e+00     
O    -5.75223170e-01     -1.86632017e+00     -3.06964899e+00     
H    -1.00253577e+00     -1.61523456e+00     -3.94182216e+00     
O    1.26558331e+00      1.80960650e+00      -1.64062787e+00     
H    1.85850411e+00      2.55992135e+00      -1.54598993e+00     
H    6.68665636e-01      2.03285682e+00      -2.36147884e+00     
O    1.32796515e+00      -1.00102011e+00     2.22874049e+00      
H    9.14555671e-01      -1.34871549e+00     3.02238748e+00      
H    2.25130051e+00      -8.75003109e-01     2.45944067e+00      
O    -2.72617805e+00     3.95745748e-01      1.11538407e-01      
H    -3.37926071e+00     7.34503839e-01      7.29627880e-01      
H    -3.00233102e+00     6.98340203e-01      -7.58899877e-01     
O    -1.62007810e+00     -1.29848193e+00     -5.42372577e+00     
H    -1.71662787e+00     -1.96903677e+00     -6.10765442e+00     
H    -2.36225686e+00     -7.01651175e-01     -5.54112391e+00     
23
271.738264
N    4.82954547e-03      -3.11771602e-02     -3.74283727e-02     
H    4.79057096e-01      -2.73888154e-01     8.54123029e-01      
H    -9.86418002e-01     2.41371707e-01      1.35345138e-01      
H    4.84888288e-01      7.67463445e-01      -5.05838627e-01     
C    3.90226268e-02      -1.20458252e+00     -9.30882390e-01     
H    1.07099153e+00      -1.49058903e+00     -1.11605856e+00     
H    -4.75928584e-01     -2.03707466e+00     -4.57590780e-01     
C    -6.42798717e-01     -8.46623211e-01     -2.23576623e+00     
O    -1.16862982e+00     2.30673137e-01      -2.44698662e+00     
O    -5.75274817e-01     -1.86639686e+00     -3.06964075e+00     
H    -1.00249717e+00     -1.61520333e+00     -3.94182942e+00     
O    1.26508474e+00      1.80847128e+00      -1.64013135e+00     
H    1.85770302e+00      2.55871771e+00      -1.54256406e+00     
H    6.65335441e-01      2.03602678e+00      -2.35750603e+00     
O    1.32828258e+00      -1.00093375e+00     2.22863772e+00      
H    9.11992447e-01      -1.34825675e+00     3.02098753e+00      
H    2.25116801e+00      -8.76432935e-01     2.46209442e+00      
O    -2.72735545e+00     3.96238404e-01      1.11796671e-01      
H    -3.38267272e+00     7.34274867e-01      7.27935224e-01      
H    -3.00476997e+00     6.93538582e-01      -7.60158819e-01     
O    -1.62001795e+00     -1.29832104e+00     -5.42400332e+00     
H    -1.71755369e+00     -1.96985905e+00     -6.10686066e+00     
H    -2.36309013e+00     -7.02381916e-01     -5.54045426e+00     
23
271.738264
N    8.60738078e-03      -2.95645135e-02     -3.90811523e-02     
H    4.83252497e-01      -2.72010571e-01     8.52318429e-01      
H    -9.81647073e-01     2.44936754e-01      1.34536545e-01      
H    4.89723376e-01      7.67764516e-01      -5.09364950e-01     
C    3.91934500e-02      -1.20448292e+00     -9.30783481e-01     
H    1.07022501e+00      -1.49378308e+00     -1.11598570e+00     
H    -4.77993603e-01     -2.03473485e+00     -4.55841611e-01     
C    -6.42467627e-01     -8.46661045e-01     -2.23581767e+00     
O    -1.16849041e+00     2.30551198e-01      -2.44697056e+00     
O    -5.75378113e-01     -1.86655024e+00     -3.06962427e+00     
H    -1.00241997e+00     -1.61514087e+00     -3.94184395e+00     
O    1.26408761e+00      1.80620085e+00      -1.63913830e+00     
H    1.85610085e+00      2.55631044e+00      -1.53571234e+00     
H    6.58675050e-01      2.04236670e+00      -2.34956042e+00     
O    1.32891744e+00      -1.00076103e+00     2.22843218e+00      
H    9.06865997e-01      -1.34733926e+00     3.01818763e+00      
H    2.25090301e+00      -8.79292587e-01     2.46740190e+00      
O    -2.72971025e+00     3.97223716e-01      1.12313200e-01      
H    -3.38949675e+00     7.33816923e-01      7.24549913e-01      
H    -3.00964789e+00     6.83935338e-01      -7.62676704e-01     
O    -1.61989766e+00     -1.29799928e+00     -5.42455842e+00     
H    -1.71940533e+00     -1.97150361e+00     -6.10527312e+00     
H    -2.36475667e+00     -7.03843399e-01     -5.53911496e+00     
23
271.738264
N    1.23852161e-02      -2.79518669e-02     -4.07339318e-02     
H    4.87447897e-01      -2.70132988e-01     8.50513828e-01      
H    -9.76876144e-01     2.48501800e-01      1.33727951e-01      
H    4.94558464e-01      7.68065586e-01      -5.12891272e-01     
C    3.93642732e-02      -1.20438331e+00     -9.30684571e-01     
H    1.06945848e+00      -1.49697713e+00     -1.11591284e+00     
H    -4.80058621e-01     -2.03239504e+00     -4.54092443e-01     
C    -6.42136537e-01     -8.46698879e-01     -2.23586911e+00     
O    -1.16835101e+00     2.30429259e-01      -2.44695450e+00     
O    -5.75481409e-01     -1.86670363e+00     -3.06960779e+00     
H    -1.00234276e+00     -1.61507841e+00     -3.94185849e+00     
O    1.26309047e+00      1.80393041e+00      -1.63814526e+00     
H    1.85449867e+00      2.55390318e+00      -1.52886061e+00     
H    6.52014659e-01      2.04870662e+00      -2.34161480e+00     
O    1.32955230e+00      -1.00058830e+00     2.22822663e+00      
H    9.01739547e-01      -1.34642177e+00     3.01538773e+00      
H    2.25063801e+00      -8.82152239e-01     2.47270939e+00      
O    -2.73206505e+00     3.98209027e-01      1.12829728e-01      
H    -3.39632078e+00     7.33358978e-01      7.21164601e-01      
H    -3.01452580e+00     6.74332095e-01      -7.65194588e-01     
O    -1.61977736e+00     -1.29767751e+00     -5.42511353e+00     
H    -1.72125697e+00     -1.97314816e+00     -6.10368558e+00     
H    -2.36642321e+00     -7.05304882e-01     -5.53777566e+00     
23
271.738264
N    1.61630514e-02      -2.63392203e-02     -4.23867113e-02     
H    4.91643298e-01      -2.68255405e-01     8.48709228e-01      
H    -9.72105215e-01     2.52066847e-01      1.32919357e-01      
H    4.99393552e-01      7.68366657e-01      -5.16417595e-01     
C    3.95350965e-02      -1.20428370e+00     -9.30585662e-01     
H    1.06869196e+00      -1.50017118e+00     -1.11583998e+00     
H    -4.82123640e-01     -2.03005522e+00     -4.52343275e-01     
C    -6.41805446e-01     -8.46736713e-01     -2.23592056e+00     
O    -1.16821160e+00     2.30307320e-01      -2.44693844e+00     
O    -5.75584705e-01     -1.86685701e+00     -3.06959130e+00     
H    -1.00226556e+00     -1.61501595e+00     -3.94187302e+00     
O    1.26209333e+00      1.80165998e+00      -1.63715221e+00     
H    1.85289650e+00      2.55149591e+00      -1.52200888e+00     
H    6.45354268e-01      2.05504654e+00      -2.33366919e+00     
O    1.33018717e+00      -1.00041558e+00     2.22802109e+00      
H    8.96613097e-01      -1.34550427e+00     3.01258784e+00      
H    2.25037301e+00      -8.85011891e-01     2.47801688e+00      
O    -2.73441985e+00     3.99194339e-01      1.13346257e-01      
H    -3.40314480e+00     7.32901034e-01      7.17779289e-01      
H    -3.01940371e+00     6.64728852e-01      -7.67712472e-01     
O    -1.61965707e+00     -1.29735574e+00     -5.42566863e+00     
H    -1.72310861e+00     -1.97479272e+00     -6.10209804e+00     
H    -2.36808975e+00     -7.06766365e-01     -5.53643635e+00     
23
271.738264
N    1.99408867e-02      -2.47265737e-02     -4.40394908e-02     
H    4.95838699e-01      -2.66377822e-01     8.46904627e-01      
H    -9.67334287e-01     2.55631894e-01      1.32110763e-01      
H    5.04228640e-01      7.68667727e-01      -5.19943917e-01     
C    3.97059197e-02      -1.20418409e+00     -9.30486753e-01     
H    1.06792544e+00      -1.50336524e+00     -1.11576711e+00     
H    -4.84188659e-01     -2.02771541e+00     -4.50594107e-01     
C    -6.41474356e-01     -8.46774547e-01     -2.23597200e+00     
O    -1.16807220e+00     2.30185380e-01      -2.44692238e+00     
O    -5.75688000e-01     -1.86701039e+00     -3.06957482e+00     
H    -1.00218835e+00     -1.61495349e+00     -3.94188755e+00     
O    1.26109619e+00      1.79938955e+00      -1.63615916e+00     
H    1.85129432e+00      2.54908864e+00      -1.51515715e+00     
H    6.38693876e-01      2.06138647e+00      -2.32572357e+00     
O    1.33082203e+00      -1.00024285e+00     2.22781555e+00      
H    8.91486648e-01      -1.34458678e+00     3.00978794e+00      
H    2.25010801e+00      -8.87871543e-01     2.48332437e+00      
O    -2.73677465e+00     4.00179651e-01      1.13862785e-01      
H    -3.40996883e+00     7.32443089e-01      7.14393977e-01      
H    -3.02428162e+00     6.55125609e-01      -7.70230356e-01     
O    -1.61953678e+00     -1.29703397e+00     -5.42622373e+00     
H    -1.72496025e+00     -1.97643727e+00     -6.10051051e+00     
H    -2.36975629e+00     -7.08227847e-01     -5.53509705e+00     
23
271.738264
N    2.74965573e-02      -2.15012804e-02     -4.73450499e-02     
H    5.04229500e-01      -2.62622656e-01     8.43295427e-01      
H    -9.57792429e-01     2.62761988e-01      1.30493576e-01      
H    5.13898816e-01      7.69269868e-01      -5.26996562e-01     
C    4.00475661e-02      -1.20398488e+00     -9.30288935e-01     
H    1.06639240e+00      -1.50975334e+00     -1.11562139e+00     
H    -4.88318696e-01     -2.02303578e+00     -4.47095770e-01     
C    -6.40812176e-01     -8.46850215e-01     -2.23607489e+00     
O    -1.16779339e+00     2.29941502e-01      -2.44689026e+00     
O    -5.75894592e-01     -1.86731715e+00     -3.06954185e+00     
H    -1.00203395e+00     -1.61482857e+00     -3.94191661e+00     
O    1.25910192e+00      1.79484868e+00      -1.63417307e+00     
H    1.84808997e+00      2.54427410e+00      -1.50145370e+00     
H    6.25373094e-01      2.07406631e+00      -2.30983234e+00     
O    1.33209176e+00      -9.99897401e-01     2.22740447e+00      
H    8.81233748e-01      -1.34275180e+00     3.00418814e+00      
H    2.24957801e+00      -8.93590848e-01     2.49393934e+00      
O    -2.74148425e+00     4.02150275e-01      1.14895842e-01      
H    -3.42361688e+00     7.31527200e-01      7.07623353e-01      
H    -3.03403744e+00     6.35919122e-01      -7.75266125e-01     
O    -1.61929619e+00     -1.29639044e+00     -5.42733393e+00     
H    -1.72866353e+00     -1.97972639e+00     -6.09733543e+00     
H    -2.37308937e+00     -7.11150813e-01     -5.53241844e+00     
