23
351.823605
N    1.11581985e-02      -4.95783536e-02     -1.32367853e-02     
H    4.90890514e-01      -3.12276267e-01     8.71872902e-01      
H    -9.78081118e-01     2.22372436e-01      1.71819446e-01      
H    4.92252229e-01      7.56630545e-01      -4.64516162e-01     
C    3.71474678e-02      -1.20194951e+00     -9.32873474e-01     
H    1.06790745e+00      -1.48473493e+00     -1.12932208e+00     
H    -4.73451867e-01     -2.04454152e+00     -4.73316617e-01     
C    -6.47995903e-01     -8.37412992e-01     -2.23597897e+00     
O    -1.17735627e+00     2.35484192e-01      -2.46153662e+00     
O    -5.69769959e-01     -1.86991450e+00     -3.05558548e+00     
H    -9.87241884e-01     -1.63912015e+00     -3.93748664e+00     
O    1.27801644e+00      1.81602701e+00      -1.64980760e+00     
H    1.84661342e+00      2.58715457e+00      -1.56617897e+00     
H    6.16868108e-01      2.05229178e+00      -2.31566916e+00     
O    1.32415053e+00      -9.97264412e-01     2.22245826e+00      
H    9.08540432e-01      -1.34459983e+00     3.01517620e+00      
H    2.24773628e+00      -8.72652922e-01     2.45296634e+00      
O    -2.73490089e+00     3.88964206e-01      1.12198201e-01      
H    -3.37355629e+00     7.59441713e-01      7.28515960e-01      
H    -2.94238059e+00     7.83996838e-01      -7.46412666e-01     
O    -1.61924910e+00     -1.30488955e+00     -5.43383887e+00     
H    -1.74659148e+00     -1.91437389e+00     -6.17199827e+00     
H    -2.36600154e+00     -6.96207387e-01     -5.46449390e+00     
23
351.823605
N    7.68711758e-03      -4.57843786e-02     -1.84582924e-02     
H    4.85834459e-01      -3.03618030e-01     8.68337734e-01      
H    -9.82550803e-01     2.25339730e-01      1.63105166e-01      
H    4.87993700e-01      7.59188234e-01      -4.73083617e-01     
C    3.75308459e-02      -1.20265757e+00     -9.32425158e-01     
H    1.06906173e+00      -1.48460143e+00     -1.12604263e+00     
H    -4.73038537e-01     -2.04384471e+00     -4.70259742e-01     
C    -6.46862151e-01     -8.39696630e-01     -2.23590007e+00     
O    -1.17524436e+00     2.34342398e-01      -2.45790715e+00     
O    -5.71094526e-01     -1.86895840e+00     -3.05910754e+00     
H    -9.91094308e-01     -1.63317217e+00     -3.93856507e+00     
O    1.27528209e+00      1.81527329e+00      -1.64788506e+00     
H    1.85018691e+00      2.58124899e+00      -1.56370111e+00     
H    6.32315137e-01      2.04505557e+00      -2.33010119e+00     
O    1.32486611e+00      -9.98268109e-01     2.22410589e+00      
H    9.11966660e-01      -1.34597280e+00     3.01802898e+00      
H    2.24872671e+00      -8.72168099e-01     2.45259462e+00      
O    -2.73183713e+00     3.90290099e-01      1.11839555e-01      
H    -3.37242339e+00     7.53378974e-01      7.30063432e-01      
H    -2.95553898e+00     7.66183896e-01      -7.48590262e-01     
O    -1.61950146e+00     -1.30340830e+00     -5.43110243e+00     
H    -1.73840622e+00     -1.92742290e+00     -6.15650763e+00     
H    -2.36444041e+00     -6.97020278e-01     -5.48415364e+00     
23
351.823605
N    5.95157712e-03      -4.38873910e-02     -2.10690460e-02     
H    4.83306432e-01      -2.99288912e-01     8.66570150e-01      
H    -9.84785646e-01     2.26823377e-01      1.58748026e-01      
H    4.85864435e-01      7.60467079e-01      -4.77367344e-01     
C    3.77225350e-02      -1.20301160e+00     -9.32200999e-01     
H    1.06963887e+00      -1.48453468e+00     -1.12440291e+00     
H    -4.72831872e-01     -2.04349631e+00     -4.68731304e-01     
C    -6.46295276e-01     -8.40838449e-01     -2.23586061e+00     
O    -1.17418840e+00     2.33771501e-01      -2.45609242e+00     
O    -5.71756809e-01     -1.86848035e+00     -3.06086857e+00     
H    -9.93020520e-01     -1.63019819e+00     -3.93910428e+00     
O    1.27391491e+00      1.81489644e+00      -1.64692379e+00     
H    1.85197365e+00      2.57829620e+00      -1.56246218e+00     
H    6.40038651e-01      2.04143746e+00      -2.33731720e+00     
O    1.32522390e+00      -9.98769958e-01     2.22492971e+00      
H    9.13679774e-01      -1.34665929e+00     3.01945538e+00      
H    2.24922193e+00      -8.71925688e-01     2.45240875e+00      
O    -2.73030525e+00     3.90953046e-01      1.11660231e-01      
H    -3.37185693e+00     7.50347604e-01      7.30837168e-01      
H    -2.96211818e+00     7.57277424e-01      -7.49679060e-01     
O    -1.61962764e+00     -1.30266768e+00     -5.42973422e+00     
H    -1.73431358e+00     -1.93394741e+00     -6.14876232e+00     
H    -2.36365985e+00     -6.97426724e-01     -5.49398351e+00     
23
351.823605
N    4.21603667e-03      -4.19904035e-02     -2.36797995e-02     
H    4.80778404e-01      -2.94959794e-01     8.64802566e-01      
H    -9.87020488e-01     2.28307025e-01      1.54390886e-01      
H    4.83735171e-01      7.61745924e-01      -4.81651072e-01     
C    3.79142241e-02      -1.20336563e+00     -9.31976841e-01     
H    1.07021601e+00      -1.48446793e+00     -1.12276319e+00     
H    -4.72625207e-01     -2.04314790e+00     -4.67202866e-01     
C    -6.45728400e-01     -8.41980267e-01     -2.23582116e+00     
O    -1.17313245e+00     2.33200604e-01      -2.45427768e+00     
O    -5.72419092e-01     -1.86800230e+00     -3.06262960e+00     
H    -9.94946732e-01     -1.62722420e+00     -3.93964350e+00     
O    1.27254773e+00      1.81451958e+00      -1.64596252e+00     
H    1.85376040e+00      2.57534341e+00      -1.56122324e+00     
H    6.47762166e-01      2.03781936e+00      -2.34453321e+00     
O    1.32558169e+00      -9.99271806e-01     2.22575353e+00      
H    9.15392889e-01      -1.34734578e+00     3.02088177e+00      
H    2.24971714e+00      -8.71683276e-01     2.45222289e+00      
O    -2.72877337e+00     3.91615993e-01      1.11480908e-01      
H    -3.37129048e+00     7.47316235e-01      7.31610904e-01      
H    -2.96869737e+00     7.48370953e-01      -7.50767859e-01     
O    -1.61975382e+00     -1.30192706e+00     -5.42836600e+00     
H    -1.73022095e+00     -1.94047191e+00     -6.14101700e+00     
H    -2.36287929e+00     -6.97833169e-01     -5.50381339e+00     
23
351.823605
N    2.48049621e-03      -4.00934160e-02     -2.62905531e-02     
H    4.78250377e-01      -2.90630675e-01     8.63034982e-01      
H    -9.89255331e-01     2.29790672e-01      1.50033746e-01      
H    4.81605906e-01      7.63024769e-01      -4.85934799e-01     
C    3.81059131e-02      -1.20371965e+00     -9.31752683e-01     
H    1.07079315e+00      -1.48440117e+00     -1.12112346e+00     
H    -4.72418542e-01     -2.04279950e+00     -4.65674429e-01     
C    -6.45161524e-01     -8.43122086e-01     -2.23578170e+00     
O    -1.17207649e+00     2.32629707e-01      -2.45246295e+00     
O    -5.73081376e-01     -1.86752425e+00     -3.06439063e+00     
H    -9.96872944e-01     -1.62425021e+00     -3.94018271e+00     
O    1.27118055e+00      1.81414272e+00      -1.64500125e+00     
H    1.85554714e+00      2.57239062e+00      -1.55998431e+00     
H    6.55485680e-01      2.03420125e+00      -2.35174922e+00     
O    1.32593948e+00      -9.99773655e-01     2.22657735e+00      
H    9.17106003e-01      -1.34803227e+00     3.02230816e+00      
H    2.25021236e+00      -8.71440865e-01     2.45203703e+00      
O    -2.72724149e+00     3.92278940e-01      1.11301584e-01      
H    -3.37072403e+00     7.44284865e-01      7.32384640e-01      
H    -2.97527657e+00     7.39464482e-01      -7.51856657e-01     
O    -1.61988000e+00     -1.30118644e+00     -5.42699778e+00     
H    -1.72612831e+00     -1.94699642e+00     -6.13327168e+00     
H    -2.36209873e+00     -6.98239615e-01     -5.51364326e+00     
23
351.823605
N    7.44955759e-04      -3.81964285e-02     -2.89013066e-02     
H    4.75722350e-01      -2.86301557e-01     8.61267398e-01      
H    -9.91490174e-01     2.31274319e-01      1.45676606e-01      
H    4.79476641e-01      7.64303614e-01      -4.90218527e-01     
C    3.82976022e-02      -1.20407368e+00     -9.31528525e-01     
H    1.07137029e+00      -1.48433442e+00     -1.11948374e+00     
H    -4.72211877e-01     -2.04245110e+00     -4.64145991e-01     
C    -6.44594648e-01     -8.44263905e-01     -2.23574225e+00     
O    -1.17102054e+00     2.32058809e-01      -2.45064821e+00     
O    -5.73743659e-01     -1.86704620e+00     -3.06615166e+00     
H    -9.98799156e-01     -1.62127622e+00     -3.94072193e+00     
O    1.26981338e+00      1.81376586e+00      -1.64403998e+00     
H    1.85733388e+00      2.56943783e+00      -1.55874538e+00     
H    6.63209194e-01      2.03058315e+00      -2.35896524e+00     
O    1.32629727e+00      -1.00027550e+00     2.22740116e+00      
H    9.18819117e-01      -1.34871875e+00     3.02373455e+00      
H    2.25070758e+00      -8.71198454e-01     2.45185117e+00      
O    -2.72570961e+00     3.92941886e-01      1.11122261e-01      
H    -3.37015758e+00     7.41253495e-01      7.33158376e-01      
H    -2.98185576e+00     7.30558011e-01      -7.52945455e-01     
O    -1.62000618e+00     -1.30044582e+00     -5.42562956e+00     
H    -1.72203568e+00     -1.95352093e+00     -6.12552636e+00     
H    -2.36131817e+00     -6.98646060e-01     -5.52347313e+00     
23
351.823605
N    -1.22814468e-04     -3.72479347e-02     -3.02066834e-02     
H    4.74458336e-01      -2.84136998e-01     8.60383606e-01      
H    -9.92607595e-01     2.32016142e-01      1.43498036e-01      
H    4.78412009e-01      7.64943037e-01      -4.92360391e-01     
C    3.83934467e-02      -1.20425070e+00     -9.31416445e-01     
H    1.07165886e+00      -1.48430105e+00     -1.11866388e+00     
H    -4.72108544e-01     -2.04227689e+00     -4.63381772e-01     
C    -6.44311211e-01     -8.44834815e-01     -2.23572252e+00     
O    -1.17049256e+00     2.31773361e-01      -2.44974084e+00     
O    -5.74074801e-01     -1.86680718e+00     -3.06703217e+00     
H    -9.99762262e-01     -1.61978923e+00     -3.94099154e+00     
O    1.26912979e+00      1.81357744e+00      -1.64355934e+00     
H    1.85822726e+00      2.56796143e+00      -1.55812592e+00     
H    6.67070952e-01      2.02877410e+00      -2.36257324e+00     
O    1.32647616e+00      -1.00052643e+00     2.22781307e+00      
H    9.19675675e-01      -1.34906200e+00     3.02444774e+00      
H    2.25095518e+00      -8.71077248e-01     2.45175823e+00      
O    -2.72494367e+00     3.93273360e-01      1.11032599e-01      
H    -3.36987435e+00     7.39737811e-01      7.33545244e-01      
H    -2.98514536e+00     7.26104775e-01      -7.53489854e-01     
O    -1.62006927e+00     -1.30007551e+00     -5.42494545e+00     
H    -1.71998936e+00     -1.95678318e+00     -6.12165371e+00     
H    -2.36092789e+00     -6.98849283e-01     -5.52838806e+00     
23
351.823605
N    -9.90584695e-04     -3.62994409e-02     -3.15120602e-02     
H    4.73194322e-01      -2.81972438e-01     8.59499814e-01      
H    -9.93725016e-01     2.32757966e-01      1.41319466e-01      
H    4.77347377e-01      7.65582459e-01      -4.94502254e-01     
C    3.84892912e-02      -1.20442771e+00     -9.31304366e-01     
H    1.07194743e+00      -1.48426767e+00     -1.11784401e+00     
H    -4.72005212e-01     -2.04210269e+00     -4.62617554e-01     
C    -6.44027773e-01     -8.45405724e-01     -2.23570279e+00     
O    -1.16996458e+00     2.31487912e-01      -2.44883348e+00     
O    -5.74405943e-01     -1.86656815e+00     -3.06791269e+00     
H    -1.00072537e+00     -1.61830224e+00     -3.94126114e+00     
O    1.26844620e+00      1.81338901e+00      -1.64307871e+00     
H    1.85912063e+00      2.56648504e+00      -1.55750645e+00     
H    6.70932709e-01      2.02696504e+00      -2.36618125e+00     
O    1.32665506e+00      -1.00077735e+00     2.22822498e+00      
H    9.20532232e-01      -1.34940524e+00     3.02516094e+00      
H    2.25120279e+00      -8.70956042e-01     2.45166530e+00      
O    -2.72417773e+00     3.93604833e-01      1.10942937e-01      
H    -3.36959112e+00     7.38222126e-01      7.33932112e-01      
H    -2.98843496e+00     7.21651539e-01      -7.54034253e-01     
O    -1.62013236e+00     -1.29970520e+00     -5.42426134e+00     
H    -1.71794304e+00     -1.96004543e+00     -6.11778105e+00     
H    -2.36053761e+00     -6.99052506e-01     -5.53330300e+00     
23
351.823605
N    -4.46166560e-03     -3.25054659e-02     -3.67335672e-02     
H    4.68138268e-01      -2.73314202e-01     8.55964646e-01      
H    -9.98194702e-01     2.35725260e-01      1.32605186e-01      
H    4.73088847e-01      7.68140149e-01      -5.03069710e-01     
C    3.88726694e-02      -1.20513577e+00     -9.30856050e-01     
H    1.07310171e+00      -1.48413417e+00     -1.11456457e+00     
H    -4.71591882e-01     -2.04140589e+00     -4.59560678e-01     
C    -6.42894021e-01     -8.47689362e-01     -2.23562389e+00     
O    -1.16785268e+00     2.30346118e-01      -2.44520400e+00     
O    -5.75730509e-01     -1.86561205e+00     -3.07143475e+00     
H    -1.00457779e+00     -1.61235426e+00     -3.94233958e+00     
O    1.26571184e+00      1.81263529e+00      -1.64115617e+00     
H    1.86269411e+00      2.56057946e+00      -1.55502859e+00     
H    6.86379737e-01      2.01972884e+00      -2.38061327e+00     
O    1.32737064e+00      -1.00178105e+00     2.22987262e+00      
H    9.23958460e-01      -1.35077822e+00     3.02801372e+00      
H    2.25219323e+00      -8.70471220e-01     2.45129358e+00      
O    -2.72111397e+00     3.94930727e-01      1.10584291e-01      
H    -3.36845822e+00     7.32159386e-01      7.35479584e-01      
H    -3.00159334e+00     7.03838597e-01      -7.56211849e-01     
O    -1.62038472e+00     -1.29822396e+00     -5.42152490e+00     
H    -1.70975778e+00     -1.97309445e+00     -6.10229041e+00     
H    -2.35897649e+00     -6.99865396e-01     -5.55296274e+00     
23
351.823605
N    -5.32943583e-03     -3.15569721e-02     -3.80389440e-02     
H    4.66874254e-01      -2.71149642e-01     8.55080854e-01      
H    -9.99312123e-01     2.36467084e-01      1.30426616e-01      
H    4.72024215e-01      7.68779571e-01      -5.05211573e-01     
C    3.89685139e-02      -1.20531278e+00     -9.30743971e-01     
H    1.07339028e+00      -1.48410079e+00     -1.11374470e+00     
H    -4.71488550e-01     -2.04123169e+00     -4.58796460e-01     
C    -6.42610583e-01     -8.48260271e-01     -2.23560416e+00     
O    -1.16732470e+00     2.30060669e-01      -2.44429664e+00     
O    -5.76061651e-01     -1.86537302e+00     -3.07231527e+00     
H    -1.00554090e+00     -1.61086727e+00     -3.94260918e+00     
O    1.26502825e+00      1.81244686e+00      -1.64067554e+00     
H    1.86358748e+00      2.55910307e+00      -1.55440912e+00     
H    6.90241494e-01      2.01791978e+00      -2.38422128e+00     
O    1.32754954e+00      -1.00203197e+00     2.23028453e+00      
H    9.24815017e-01      -1.35112146e+00     3.02872692e+00      
H    2.25244084e+00      -8.70350014e-01     2.45120065e+00      
O    -2.72034803e+00     3.95262200e-01      1.10494629e-01      
H    -3.36817499e+00     7.30643701e-01      7.35866452e-01      
H    -3.00488294e+00     6.99385361e-01      -7.56756248e-01     
O    -1.62044781e+00     -1.29785365e+00     -5.42084079e+00     
H    -1.70771146e+00     -1.97635670e+00     -6.09841775e+00     
H    -2.35858621e+00     -7.00068619e-01     -5.55787768e+00     
23
351.823605
N    -6.19720606e-03     -3.06084783e-02     -3.93443208e-02     
H    4.65610240e-01      -2.68985083e-01     8.54197062e-01      
H    -1.00042954e+00     2.37208907e-01      1.28248046e-01      
H    4.70959583e-01      7.69418994e-01      -5.07353437e-01     
C    3.90643584e-02      -1.20548980e+00     -9.30631891e-01     
H    1.07367885e+00      -1.48406742e+00     -1.11292484e+00     
H    -4.71385217e-01     -2.04105748e+00     -4.58032241e-01     
C    -6.42327146e-01     -8.48831181e-01     -2.23558443e+00     
O    -1.16679672e+00     2.29775221e-01      -2.44338927e+00     
O    -5.76392793e-01     -1.86513400e+00     -3.07319578e+00     
H    -1.00650400e+00     -1.60938028e+00     -3.94287879e+00     
O    1.26434466e+00      1.81225844e+00      -1.64019490e+00     
H    1.86448086e+00      2.55762667e+00      -1.55378966e+00     
H    6.94103252e-01      2.01611073e+00      -2.38782928e+00     
O    1.32772843e+00      -1.00228290e+00     2.23069644e+00      
H    9.25671575e-01      -1.35146471e+00     3.02944011e+00      
H    2.25268844e+00      -8.70228808e-01     2.45110771e+00      
O    -2.71958209e+00     3.95593674e-01      1.10404967e-01      
H    -3.36789176e+00     7.29128017e-01      7.36253320e-01      
H    -3.00817254e+00     6.94932125e-01      -7.57300647e-01     
O    -1.62051090e+00     -1.29748334e+00     -5.42015668e+00     
H    -1.70566514e+00     -1.97961895e+00     -6.09454510e+00     
H    -2.35819593e+00     -7.00271842e-01     -5.56279261e+00     
23
351.823605
N    -7.93274651e-03     -2.87114908e-02     -4.19550743e-02     
H    4.63082213e-01      -2.64655965e-01     8.52429478e-01      
H    -1.00266439e+00     2.38692554e-01      1.23890906e-01      
H    4.68830318e-01      7.70697839e-01      -5.11637165e-01     
C    3.92560475e-02      -1.20584383e+00     -9.30407733e-01     
H    1.07425599e+00      -1.48400067e+00     -1.11128512e+00     
H    -4.71178552e-01     -2.04070908e+00     -4.56503803e-01     
C    -6.41760270e-01     -8.49973000e-01     -2.23554498e+00     
O    -1.16574077e+00     2.29204323e-01      -2.44157453e+00     
O    -5.77055076e-01     -1.86465595e+00     -3.07495681e+00     
H    -1.00843022e+00     -1.60640629e+00     -3.94341801e+00     
O    1.26297749e+00      1.81188158e+00      -1.63923363e+00     
H    1.86626760e+00      2.55467388e+00      -1.55255073e+00     
H    7.01826766e-01      2.01249263e+00      -2.39504530e+00     
O    1.32808622e+00      -1.00278475e+00     2.23152025e+00      
H    9.27384689e-01      -1.35215119e+00     3.03086650e+00      
H    2.25318366e+00      -8.69986397e-01     2.45092185e+00      
O    -2.71805021e+00     3.96256620e-01      1.10225644e-01      
H    -3.36732531e+00     7.26096647e-01      7.37027056e-01      
H    -3.01475173e+00     6.86025654e-01      -7.58389445e-01     
O    -1.62063708e+00     -1.29674272e+00     -5.41878846e+00     
H    -1.70157251e+00     -1.98614346e+00     -6.08679978e+00     
H    -2.35741537e+00     -7.00678287e-01     -5.57262248e+00     
23
351.823605
N    -9.66828697e-03     -2.68145033e-02     -4.45658279e-02     
H    4.60554186e-01      -2.60326846e-01     8.50661894e-01      
H    -1.00489923e+00     2.40176201e-01      1.19533766e-01      
H    4.66701053e-01      7.71976684e-01      -5.15920892e-01     
C    3.94477365e-02      -1.20619785e+00     -9.30183575e-01     
H    1.07483313e+00      -1.48393391e+00     -1.10964539e+00     
H    -4.70971887e-01     -2.04036068e+00     -4.54975366e-01     
C    -6.41193394e-01     -8.51114819e-01     -2.23550552e+00     
O    -1.16468481e+00     2.28633426e-01      -2.43975980e+00     
O    -5.77717360e-01     -1.86417790e+00     -3.07671784e+00     
H    -1.01035643e+00     -1.60343230e+00     -3.94395722e+00     
O    1.26161031e+00      1.81150472e+00      -1.63827236e+00     
H    1.86805434e+00      2.55172109e+00      -1.55131180e+00     
H    7.09550280e-01      2.00887452e+00      -2.40226131e+00     
O    1.32844401e+00      -1.00328659e+00     2.23234407e+00      
H    9.29097803e-01      -1.35283768e+00     3.03229289e+00      
H    2.25367888e+00      -8.69743986e-01     2.45073599e+00      
O    -2.71651833e+00     3.96919567e-01      1.10046320e-01      
H    -3.36675886e+00     7.23065277e-01      7.37800792e-01      
H    -3.02133093e+00     6.77119183e-01      -7.59478243e-01     
O    -1.62076326e+00     -1.29600210e+00     -5.41742024e+00     
H    -1.69747987e+00     -1.99266797e+00     -6.07905446e+00     
H    -2.35663481e+00     -7.01084733e-01     -5.58245235e+00     
23
351.823605
N    -1.14038274e-02     -2.49175158e-02     -4.71765814e-02     
H    4.58026158e-01      -2.55997728e-01     8.48894310e-01      
H    -1.00713407e+00     2.41659849e-01      1.15176626e-01      
H    4.64571789e-01      7.73255529e-01      -5.20204620e-01     
C    3.96394256e-02      -1.20655188e+00     -9.29959417e-01     
H    1.07541027e+00      -1.48386716e+00     -1.10800567e+00     
H    -4.70765222e-01     -2.04001227e+00     -4.53446928e-01     
C    -6.40626518e-01     -8.52256637e-01     -2.23546607e+00     
O    -1.16362886e+00     2.28062529e-01      -2.43794506e+00     
O    -5.78379643e-01     -1.86369985e+00     -3.07847887e+00     
H    -1.01228264e+00     -1.60045831e+00     -3.94449644e+00     
O    1.26024313e+00      1.81112786e+00      -1.63731109e+00     
H    1.86984109e+00      2.54876830e+00      -1.55007286e+00     
H    7.17273795e-01      2.00525642e+00      -2.40947732e+00     
O    1.32880180e+00      -1.00378844e+00     2.23316789e+00      
H    9.30810918e-01      -1.35352417e+00     3.03371928e+00      
H    2.25417409e+00      -8.69501574e-01     2.45055013e+00      
O    -2.71498645e+00     3.97582514e-01      1.09866997e-01      
H    -3.36619241e+00     7.20033908e-01      7.38574528e-01      
H    -3.02791012e+00     6.68212712e-01      -7.60567042e-01     
O    -1.62088944e+00     -1.29526148e+00     -5.41605202e+00     
H    -1.69338724e+00     -1.99919247e+00     -6.07130914e+00     
H    -2.35585425e+00     -7.01491178e-01     -5.59228223e+00     
23
351.823605
N    -1.31393679e-02     -2.30205282e-02     -4.97873350e-02     
H    4.55498131e-01      -2.51668610e-01     8.47126726e-01      
H    -1.00936891e+00     2.43143496e-01      1.10819486e-01      
H    4.62442524e-01      7.74534374e-01      -5.24488347e-01     
C    3.98311147e-02      -1.20690591e+00     -9.29735258e-01     
H    1.07598741e+00      -1.48380041e+00     -1.10636595e+00     
H    -4.70558557e-01     -2.03966387e+00     -4.51918490e-01     
C    -6.40059643e-01     -8.53398456e-01     -2.23542661e+00     
O    -1.16257290e+00     2.27491632e-01      -2.43613033e+00     
O    -5.79041926e-01     -1.86322180e+00     -3.08023990e+00     
H    -1.01420885e+00     -1.59748433e+00     -3.94503565e+00     
O    1.25887595e+00      1.81075101e+00      -1.63634982e+00     
H    1.87162783e+00      2.54581551e+00      -1.54883393e+00     
H    7.24997309e-01      2.00163831e+00      -2.41669333e+00     
O    1.32915959e+00      -1.00429029e+00     2.23399171e+00      
H    9.32524032e-01      -1.35421066e+00     3.03514568e+00      
H    2.25466931e+00      -8.69259163e-01     2.45036426e+00      
O    -2.71345457e+00     3.98245461e-01      1.09687673e-01      
H    -3.36562595e+00     7.17002538e-01      7.39348264e-01      
H    -3.03448932e+00     6.59306240e-01      -7.61655840e-01     
O    -1.62101562e+00     -1.29452086e+00     -5.41468381e+00     
H    -1.68929460e+00     -2.00571698e+00     -6.06356383e+00     
H    -2.35507369e+00     -7.01897624e-01     -5.60211210e+00     
23
351.823605
N    -1.66104488e-02     -1.92265532e-02     -5.50088421e-02     
H    4.50442076e-01      -2.43010373e-01     8.43591558e-01      
H    -1.01383860e+00     2.46110790e-01      1.02105206e-01      
H    4.58183995e-01      7.77092063e-01      -5.33055802e-01     
C    4.02144928e-02      -1.20761397e+00     -9.29286942e-01     
H    1.07714169e+00      -1.48366691e+00     -1.10308650e+00     
H    -4.70145227e-01     -2.03896706e+00     -4.48861615e-01     
C    -6.38925891e-01     -8.55682094e-01     -2.23534771e+00     
O    -1.16046099e+00     2.26349838e-01      -2.43250086e+00     
O    -5.80366493e-01     -1.86226570e+00     -3.08376196e+00     
H    -1.01806128e+00     -1.59153635e+00     -3.94611408e+00     
O    1.25614160e+00      1.80999729e+00      -1.63442728e+00     
H    1.87520132e+00      2.53990993e+00      -1.54635607e+00     
H    7.40444338e-01      1.99440210e+00      -2.43112536e+00     
O    1.32987517e+00      -1.00529399e+00     2.23563934e+00      
H    9.35950260e-01      -1.35558363e+00     3.03799846e+00      
H    2.25565974e+00      -8.68774340e-01     2.44999254e+00      
O    -2.71039081e+00     3.99571354e-01      1.09329027e-01      
H    -3.36449305e+00     7.10939799e-01      7.40895736e-01      
H    -3.04764771e+00     6.41493298e-01      -7.63833436e-01     
O    -1.62126798e+00     -1.29303961e+00     -5.41194737e+00     
H    -1.68110934e+00     -2.01876599e+00     -6.04807319e+00     
H    -2.35351256e+00     -7.02710515e-01     -5.62177184e+00     
