23
385.448941
N    -8.68579728e-03     -3.51974508e-02     -4.08244476e-02     
H    4.61861997e-01      -2.71819354e-01     8.53653083e-01      
H    -1.00384774e+00     2.34498648e-01      1.19499346e-01      
H    4.69013316e-01      7.64447194e-01      -5.08571394e-01     
C    3.90528419e-02      -1.20824842e+00     -9.32626028e-01     
H    1.07384148e+00      -1.48410888e+00     -1.11773669e+00     
H    -4.69439095e-01     -2.04666510e+00     -4.63040284e-01     
C    -6.44295650e-01     -8.44008123e-01     -2.23387338e+00     
O    -1.16562178e+00     2.38097111e-01      -2.43266020e+00     
O    -5.78864911e-01     -1.86114074e+00     -3.06941579e+00     
H    -9.94198989e-01     -1.62442034e+00     -3.95153911e+00     
O    1.26317849e+00      1.81306823e+00      -1.64058870e+00     
H    1.86350753e+00      2.55801682e+00      -1.55248075e+00     
H    7.07436465e-01      2.00884416e+00      -2.40200051e+00     
O    1.32990074e+00      -1.00136639e+00     2.22942084e+00      
H    9.08154749e-01      -1.34619160e+00     3.02011687e+00      
H    2.25215177e+00      -8.81052225e-01     2.46776251e+00      
O    -2.71632634e+00     3.98368493e-01      1.06182302e-01      
H    -3.35098018e+00     7.24089651e-01      7.50292925e-01      
H    -3.05697550e+00     6.56877951e-01      -7.59635874e-01     
O    -1.61493739e+00     -1.31243624e+00     -5.42808393e+00     
H    -1.75048153e+00     -1.89072487e+00     -6.19539775e+00     
H    -2.35845028e+00     -6.92834142e-01     -5.42613354e+00     
23
385.448941
N    -7.19587925e-03     -3.49987015e-02     -3.91490392e-02     
H    4.64063072e-01      -2.73275345e-01     8.54672870e-01      
H    -1.00187577e+00     2.34434389e-01      1.23865091e-01      
H    4.70564515e-01      7.65050722e-01      -5.06125041e-01     
C    3.89598765e-02      -1.20738175e+00     -9.32239573e-01     
H    1.07351226e+00      -1.48413189e+00     -1.11735359e+00     
H    -4.70028958e-01     -2.04543739e+00     -4.62552492e-01     
C    -6.44086962e-01     -8.44642978e-01     -2.23432087e+00     
O    -1.16644349e+00     2.36302087e-01      -2.43624984e+00     
O    -5.77915740e-01     -1.86237808e+00     -3.06948027e+00     
H    -9.96312137e-01     -1.62214732e+00     -3.94910442e+00     
O    1.26415362e+00      1.81305421e+00      -1.64097088e+00     
H    1.86285749e+00      2.55939568e+00      -1.55342744e+00     
H    7.00241404e-01      2.01246985e+00      -2.39484970e+00     
O    1.32917877e+00      -1.00134459e+00     2.22932783e+00      
H    9.11677398e-01      -1.34716663e+00     3.02173449e+00      
H    2.25203833e+00      -8.78467577e-01     2.46369174e+00      
O    -2.71790622e+00     3.97343314e-01      1.07327630e-01      
H    -3.35549130e+00     7.26864927e-01      7.46396156e-01      
H    -3.04148516e+00     6.70844731e-01      -7.58507668e-01     
O    -1.61626767e+00     -1.30906833e+00     -5.42678623e+00     
H    -1.74132375e+00     -1.90968614e+00     -6.17405724e+00     
H    -2.35877697e+00     -6.94490344e-01     -5.45538338e+00     
23
385.448941
N    -6.45092023e-03     -3.48993268e-02     -3.83113349e-02     
H    4.65163609e-01      -2.74003341e-01     8.55182763e-01      
H    -1.00088979e+00     2.34402260e-01      1.26047963e-01      
H    4.71340115e-01      7.65352485e-01      -5.04901865e-01     
C    3.89133938e-02      -1.20694841e+00     -9.32046346e-01     
H    1.07334764e+00      -1.48414340e+00     -1.11716204e+00     
H    -4.70323890e-01     -2.04482354e+00     -4.62308596e-01     
C    -6.43982618e-01     -8.44960406e-01     -2.23454461e+00     
O    -1.16685435e+00     2.35404575e-01      -2.43804466e+00     
O    -5.77441154e-01     -1.86299675e+00     -3.06951251e+00     
H    -9.97368711e-01     -1.62101081e+00     -3.94788708e+00     
O    1.26464119e+00      1.81304720e+00      -1.64116198e+00     
H    1.86253247e+00      2.56008511e+00      -1.55390079e+00     
H    6.96643874e-01      2.01428270e+00      -2.39127429e+00     
O    1.32881778e+00      -1.00133369e+00     2.22928132e+00      
H    9.13438723e-01      -1.34765415e+00     3.02254329e+00      
H    2.25198161e+00      -8.77175253e-01     2.46165636e+00      
O    -2.71869616e+00     3.96830725e-01      1.07900294e-01      
H    -3.35774686e+00     7.28252565e-01      7.44447771e-01      
H    -3.03374000e+00     6.77828120e-01      -7.57943565e-01     
O    -1.61693282e+00     -1.30738437e+00     -5.42613738e+00     
H    -1.73674486e+00     -1.91916677e+00     -6.16338699e+00     
H    -2.35894032e+00     -6.95318445e-01     -5.47000829e+00     
23
385.448941
N    -5.70596121e-03     -3.47999521e-02     -3.74736307e-02     
H    4.66264146e-01      -2.74731337e-01     8.55692657e-01      
H    -9.99903800e-01     2.34370131e-01      1.28230836e-01      
H    4.72115714e-01      7.65654249e-01      -5.03678688e-01     
C    3.88669111e-02      -1.20651508e+00     -9.31853118e-01     
H    1.07318303e+00      -1.48415490e+00     -1.11697049e+00     
H    -4.70618821e-01     -2.04420969e+00     -4.62064700e-01     
C    -6.43878274e-01     -8.45277833e-01     -2.23476836e+00     
O    -1.16726520e+00     2.34507063e-01      -2.43983947e+00     
O    -5.76966569e-01     -1.86361542e+00     -3.06954475e+00     
H    -9.98425285e-01     -1.61987430e+00     -3.94666973e+00     
O    1.26512875e+00      1.81304019e+00      -1.64135307e+00     
H    1.86220745e+00      2.56077453e+00      -1.55437413e+00     
H    6.93046344e-01      2.01609555e+00      -2.38769889e+00     
O    1.32845680e+00      -1.00132279e+00     2.22923482e+00      
H    9.15200048e-01      -1.34814166e+00     3.02335210e+00      
H    2.25192489e+00      -8.75882928e-01     2.45962098e+00      
O    -2.71948609e+00     3.96318136e-01      1.08472958e-01      
H    -3.36000243e+00     7.29640203e-01      7.42499387e-01      
H    -3.02599483e+00     6.84811510e-01      -7.57379462e-01     
O    -1.61759796e+00     -1.30570041e+00     -5.42548852e+00     
H    -1.73216597e+00     -1.92864741e+00     -6.15271674e+00     
H    -2.35910366e+00     -6.96146546e-01     -5.48463321e+00     
23
385.448941
N    -4.96100220e-03     -3.47005774e-02     -3.66359264e-02     
H    4.67364683e-01      -2.75459333e-01     8.56202550e-01      
H    -9.98917815e-01     2.34338001e-01      1.30413708e-01      
H    4.72891314e-01      7.65956013e-01      -5.02455512e-01     
C    3.88204284e-02      -1.20608174e+00     -9.31659891e-01     
H    1.07301841e+00      -1.48416641e+00     -1.11677894e+00     
H    -4.70913753e-01     -2.04359584e+00     -4.61820804e-01     
C    -6.43773929e-01     -8.45595261e-01     -2.23499210e+00     
O    -1.16767606e+00     2.33609551e-01      -2.44163429e+00     
O    -5.76491983e-01     -1.86423409e+00     -3.06957699e+00     
H    -9.99481858e-01     -1.61873779e+00     -3.94545239e+00     
O    1.26561632e+00      1.81303318e+00      -1.64154416e+00     
H    1.86188243e+00      2.56146396e+00      -1.55484748e+00     
H    6.89448814e-01      2.01790840e+00      -2.38412348e+00     
O    1.32809581e+00      -1.00131190e+00     2.22918831e+00      
H    9.16961372e-01      -1.34862918e+00     3.02416091e+00      
H    2.25186817e+00      -8.74590604e-01     2.45758559e+00      
O    -2.72027603e+00     3.95805547e-01      1.09045622e-01      
H    -3.36225799e+00     7.31027842e-01      7.40551002e-01      
H    -3.01824966e+00     6.91794899e-01      -7.56815360e-01     
O    -1.61826311e+00     -1.30401645e+00     -5.42483967e+00     
H    -1.72758708e+00     -1.93812804e+00     -6.14204649e+00     
H    -2.35926701e+00     -6.96974648e-01     -5.49925812e+00     
23
385.448941
N    -4.21604318e-03     -3.46012028e-02     -3.57982222e-02     
H    4.68465221e-01      -2.76187328e-01     8.56712443e-01      
H    -9.97931830e-01     2.34305872e-01      1.32596581e-01      
H    4.73666913e-01      7.66257777e-01      -5.01232335e-01     
C    3.87739457e-02      -1.20564841e+00     -9.31466663e-01     
H    1.07285380e+00      -1.48417791e+00     -1.11658739e+00     
H    -4.71208684e-01     -2.04298199e+00     -4.61576908e-01     
C    -6.43669585e-01     -8.45912688e-01     -2.23521585e+00     
O    -1.16808692e+00     2.32712039e-01      -2.44342911e+00     
O    -5.76017397e-01     -1.86485276e+00     -3.06960924e+00     
H    -1.00053843e+00     -1.61760127e+00     -3.94423505e+00     
O    1.26610389e+00      1.81302617e+00      -1.64173525e+00     
H    1.86155741e+00      2.56215339e+00      -1.55532083e+00     
H    6.85851283e-01      2.01972124e+00      -2.38054807e+00     
O    1.32773482e+00      -1.00130100e+00     2.22914181e+00      
H    9.18722697e-01      -1.34911670e+00     3.02496972e+00      
H    2.25181145e+00      -8.73298280e-01     2.45555021e+00      
O    -2.72106597e+00     3.95292958e-01      1.09618286e-01      
H    -3.36451355e+00     7.32415480e-01      7.38602617e-01      
H    -3.01050449e+00     6.98778289e-01      -7.56251257e-01     
O    -1.61892825e+00     -1.30233250e+00     -5.42419082e+00     
H    -1.72300819e+00     -1.94760867e+00     -6.13137623e+00     
H    -2.35943036e+00     -6.97802749e-01     -5.51388304e+00     
23
385.448941
N    -3.84356367e-03     -3.45515154e-02     -3.53793701e-02     
H    4.69015489e-01      -2.76551326e-01     8.56967390e-01      
H    -9.97438837e-01     2.34289807e-01      1.33688017e-01      
H    4.74054713e-01      7.66408658e-01      -5.00620747e-01     
C    3.87507044e-02      -1.20543174e+00     -9.31370049e-01     
H    1.07277149e+00      -1.48418366e+00     -1.11649162e+00     
H    -4.71356150e-01     -2.04267507e+00     -4.61454960e-01     
C    -6.43617413e-01     -8.46071402e-01     -2.23532772e+00     
O    -1.16829235e+00     2.32263283e-01      -2.44432651e+00     
O    -5.75780104e-01     -1.86516210e+00     -3.06962536e+00     
H    -1.00106672e+00     -1.61703302e+00     -3.94362638e+00     
O    1.26634767e+00      1.81302267e+00      -1.64183080e+00     
H    1.86139490e+00      2.56249811e+00      -1.55555750e+00     
H    6.84052518e-01      2.02062767e+00      -2.37876037e+00     
O    1.32755433e+00      -1.00129555e+00     2.22911856e+00      
H    9.19603359e-01      -1.34936045e+00     3.02537412e+00      
H    2.25178309e+00      -8.72652117e-01     2.45453252e+00      
O    -2.72146094e+00     3.95036664e-01      1.09904618e-01      
H    -3.36564133e+00     7.33109299e-01      7.37628425e-01      
H    -3.00663190e+00     7.02269984e-01      -7.55969205e-01     
O    -1.61926082e+00     -1.30149052e+00     -5.42386640e+00     
H    -1.72071874e+00     -1.95234899e+00     -6.12604111e+00     
H    -2.35951203e+00     -6.98216799e-01     -5.52119550e+00     
23
385.448941
N    -3.47108417e-03     -3.45018281e-02     -3.49605179e-02     
H    4.69565758e-01      -2.76915324e-01     8.57222337e-01      
H    -9.96945844e-01     2.34273742e-01      1.34779453e-01      
H    4.74442513e-01      7.66559540e-01      -5.00009159e-01     
C    3.87274630e-02      -1.20521507e+00     -9.31273436e-01     
H    1.07268918e+00      -1.48418942e+00     -1.11639584e+00     
H    -4.71503616e-01     -2.04236814e+00     -4.61333012e-01     
C    -6.43565241e-01     -8.46230116e-01     -2.23543959e+00     
O    -1.16849777e+00     2.31814527e-01      -2.44522392e+00     
O    -5.75542812e-01     -1.86547143e+00     -3.06964148e+00     
H    -1.00159501e+00     -1.61646476e+00     -3.94301770e+00     
O    1.26659145e+00      1.81301916e+00      -1.64192635e+00     
H    1.86123239e+00      2.56284282e+00      -1.55579417e+00     
H    6.82253753e-01      2.02153409e+00      -2.37697267e+00     
O    1.32737384e+00      -1.00129010e+00     2.22909530e+00      
H    9.20484021e-01      -1.34960421e+00     3.02577852e+00      
H    2.25175473e+00      -8.72005955e-01     2.45351482e+00      
O    -2.72185591e+00     3.94780369e-01      1.10190950e-01      
H    -3.36676911e+00     7.33803118e-01      7.36654233e-01      
H    -3.00275932e+00     7.05761678e-01      -7.55687154e-01     
O    -1.61959340e+00     -1.30064854e+00     -5.42354197e+00     
H    -1.71842930e+00     -1.95708931e+00     -6.12070598e+00     
H    -2.35959370e+00     -6.98630850e-01     -5.52850795e+00     
23
385.448941
N    -1.98116613e-03     -3.43030787e-02     -3.32851095e-02     
H    4.71766832e-01      -2.78371316e-01     8.58242123e-01      
H    -9.94973874e-01     2.34209484e-01      1.39145199e-01      
H    4.75993711e-01      7.67163068e-01      -4.97562805e-01     
C    3.86344976e-02      -1.20434841e+00     -9.30886980e-01     
H    1.07235996e+00      -1.48421242e+00     -1.11601274e+00     
H    -4.72093478e-01     -2.04114044e+00     -4.60845220e-01     
C    -6.43356553e-01     -8.46864970e-01     -2.23588709e+00     
O    -1.16931949e+00     2.30019503e-01      -2.44881356e+00     
O    -5.74593640e-01     -1.86670877e+00     -3.06970596e+00     
H    -1.00370815e+00     -1.61419174e+00     -3.94058302e+00     
O    1.26756659e+00      1.81300514e+00      -1.64230853e+00     
H    1.86058235e+00      2.56422168e+00      -1.55674087e+00     
H    6.75058693e-01      2.02515979e+00      -2.36982185e+00     
O    1.32665186e+00      -1.00126830e+00     2.22900230e+00      
H    9.24006671e-01      -1.35057925e+00     3.02739614e+00      
H    2.25164129e+00      -8.69421307e-01     2.44944406e+00      
O    -2.72343579e+00     3.93755191e-01      1.11336278e-01      
H    -3.37128023e+00     7.36578394e-01      7.32757463e-01      
H    -2.98726898e+00     7.19728458e-01      -7.54558948e-01     
O    -1.62092368e+00     -1.29728062e+00     -5.42224427e+00     
H    -1.70927152e+00     -1.97605057e+00     -6.09936548e+00     
H    -2.35992040e+00     -7.00287052e-01     -5.55775779e+00     
23
385.448941
N    -1.60868663e-03     -3.42533914e-02     -3.28662573e-02     
H    4.72317101e-01      -2.78735314e-01     8.58497070e-01      
H    -9.94480881e-01     2.34193419e-01      1.40236635e-01      
H    4.76381511e-01      7.67313950e-01      -4.96951217e-01     
C    3.86112562e-02      -1.20413174e+00     -9.30790367e-01     
H    1.07227765e+00      -1.48421818e+00     -1.11591696e+00     
H    -4.72240944e-01     -2.04083351e+00     -4.60723272e-01     
C    -6.43304381e-01     -8.47023684e-01     -2.23599896e+00     
O    -1.16952491e+00     2.29570747e-01      -2.44971097e+00     
O    -5.74356348e-01     -1.86701810e+00     -3.06972208e+00     
H    -1.00423644e+00     -1.61362348e+00     -3.93997434e+00     
O    1.26781037e+00      1.81300163e+00      -1.64240408e+00     
H    1.86041984e+00      2.56456639e+00      -1.55697754e+00     
H    6.73259928e-01      2.02606621e+00      -2.36803415e+00     
O    1.32647137e+00      -1.00126285e+00     2.22897904e+00      
H    9.24887333e-01      -1.35082301e+00     3.02780054e+00      
H    2.25161293e+00      -8.68775145e-01     2.44842636e+00      
O    -2.72383076e+00     3.93498896e-01      1.11622610e-01      
H    -3.37240801e+00     7.37272213e-01      7.31783271e-01      
H    -2.98339640e+00     7.23220152e-01      -7.54276897e-01     
O    -1.62125626e+00     -1.29643864e+00     -5.42191984e+00     
H    -1.70698208e+00     -1.98079089e+00     -6.09403035e+00     
H    -2.36000207e+00     -7.00701103e-01     -5.56507024e+00     
23
385.448941
N    -1.23620712e-03     -3.42037040e-02     -3.24474052e-02     
H    4.72867369e-01      -2.79099312e-01     8.58752017e-01      
H    -9.93987888e-01     2.34177354e-01      1.41328071e-01      
H    4.76769311e-01      7.67464831e-01      -4.96339629e-01     
C    3.85880149e-02      -1.20391507e+00     -9.30693753e-01     
H    1.07219534e+00      -1.48422393e+00     -1.11582119e+00     
H    -4.72388410e-01     -2.04052659e+00     -4.60601324e-01     
C    -6.43252209e-01     -8.47182398e-01     -2.23611083e+00     
O    -1.16973034e+00     2.29121991e-01      -2.45060837e+00     
O    -5.74119055e-01     -1.86732744e+00     -3.06973820e+00     
H    -1.00476473e+00     -1.61305523e+00     -3.93936567e+00     
O    1.26805415e+00      1.81299813e+00      -1.64249963e+00     
H    1.86025733e+00      2.56491111e+00      -1.55721421e+00     
H    6.71461163e-01      2.02697264e+00      -2.36624645e+00     
O    1.32629088e+00      -1.00125740e+00     2.22895579e+00      
H    9.25767995e-01      -1.35106676e+00     3.02820494e+00      
H    2.25158457e+00      -8.68128982e-01     2.44740867e+00      
O    -2.72422573e+00     3.93242602e-01      1.11908942e-01      
H    -3.37353579e+00     7.37966032e-01      7.30809079e-01      
H    -2.97952381e+00     7.26711847e-01      -7.53994845e-01     
O    -1.62158883e+00     -1.29559666e+00     -5.42159542e+00     
H    -1.70469263e+00     -1.98553121e+00     -6.08869523e+00     
H    -2.36008374e+00     -7.01115153e-01     -5.57238270e+00     
23
385.448941
N    -4.91248102e-04     -3.41043294e-02     -3.16097010e-02     
H    4.73967907e-01      -2.79827307e-01     8.59261910e-01      
H    -9.93001903e-01     2.34145225e-01      1.43510944e-01      
H    4.77544910e-01      7.67766595e-01      -4.95116452e-01     
C    3.85415322e-02      -1.20348174e+00     -9.30500525e-01     
H    1.07203073e+00      -1.48423543e+00     -1.11562964e+00     
H    -4.72683341e-01     -2.03991274e+00     -4.60357428e-01     
C    -6.43147865e-01     -8.47499825e-01     -2.23633458e+00     
O    -1.17014120e+00     2.28224479e-01      -2.45240319e+00     
O    -5.73644469e-01     -1.86794611e+00     -3.06977045e+00     
H    -1.00582130e+00     -1.61191871e+00     -3.93814833e+00     
O    1.26854172e+00      1.81299112e+00      -1.64269072e+00     
H    1.85993231e+00      2.56560054e+00      -1.55768756e+00     
H    6.67863632e-01      2.02878548e+00      -2.36267104e+00     
O    1.32592989e+00      -1.00124650e+00     2.22890929e+00      
H    9.27529320e-01      -1.35155428e+00     3.02901375e+00      
H    2.25152785e+00      -8.66836658e-01     2.44537329e+00      
O    -2.72501567e+00     3.92730013e-01      1.12481606e-01      
H    -3.37579135e+00     7.39353670e-01      7.28860694e-01      
H    -2.97177864e+00     7.33695237e-01      -7.53430742e-01     
O    -1.62225397e+00     -1.29391271e+00     -5.42094657e+00     
H    -1.70011374e+00     -1.99501184e+00     -6.07802497e+00     
H    -2.36024709e+00     -7.01943254e-01     -5.58700762e+00     
23
385.448941
N    2.53710915e-04      -3.40049547e-02     -3.07719967e-02     
H    4.75068444e-01      -2.80555303e-01     8.59771803e-01      
H    -9.92015918e-01     2.34113095e-01      1.45693816e-01      
H    4.78320510e-01      7.68068359e-01      -4.93893276e-01     
C    3.84950495e-02      -1.20304840e+00     -9.30307298e-01     
H    1.07186611e+00      -1.48424694e+00     -1.11543809e+00     
H    -4.72978273e-01     -2.03929889e+00     -4.60113532e-01     
C    -6.43043520e-01     -8.47817253e-01     -2.23655832e+00     
O    -1.17055206e+00     2.27326967e-01      -2.45419801e+00     
O    -5.73169883e-01     -1.86856478e+00     -3.06980269e+00     
H    -1.00687788e+00     -1.61078220e+00     -3.93693099e+00     
O    1.26902929e+00      1.81298411e+00      -1.64288181e+00     
H    1.85960729e+00      2.56628997e+00      -1.55816091e+00     
H    6.64266102e-01      2.03059833e+00      -2.35909563e+00     
O    1.32556890e+00      -1.00123561e+00     2.22886278e+00      
H    9.29290644e-01      -1.35204180e+00     3.02982256e+00      
H    2.25147113e+00      -8.65544334e-01     2.44333790e+00      
O    -2.72580561e+00     3.92217424e-01      1.13054270e-01      
H    -3.37804691e+00     7.40741309e-01      7.26912309e-01      
H    -2.96403347e+00     7.40678626e-01      -7.52866640e-01     
O    -1.62291912e+00     -1.29222875e+00     -5.42029772e+00     
H    -1.69553485e+00     -2.00449247e+00     -6.06735472e+00     
H    -2.36041044e+00     -7.02771356e-01     -5.60163253e+00     
23
385.448941
N    9.98669931e-04      -3.39055800e-02     -2.99342925e-02     
H    4.76168981e-01      -2.81283299e-01     8.60281697e-01      
H    -9.91029932e-01     2.34080966e-01      1.47876689e-01      
H    4.79096109e-01      7.68370123e-01      -4.92670099e-01     
C    3.84485668e-02      -1.20261507e+00     -9.30114070e-01     
H    1.07170150e+00      -1.48425844e+00     -1.11524654e+00     
H    -4.73273204e-01     -2.03868504e+00     -4.59869636e-01     
C    -6.42939176e-01     -8.48134680e-01     -2.23678207e+00     
O    -1.17096291e+00     2.26429455e-01      -2.45599282e+00     
O    -5.72695298e-01     -1.86918345e+00     -3.06983493e+00     
H    -1.00793445e+00     -1.60964569e+00     -3.93571364e+00     
O    1.26951685e+00      1.81297710e+00      -1.64307290e+00     
H    1.85928227e+00      2.56697939e+00      -1.55863425e+00     
H    6.60668572e-01      2.03241118e+00      -2.35552023e+00     
O    1.32520792e+00      -1.00122471e+00     2.22881628e+00      
H    9.31051969e-01      -1.35252931e+00     3.03063137e+00      
H    2.25141441e+00      -8.64252009e-01     2.44130252e+00      
O    -2.72659554e+00     3.91704835e-01      1.13626934e-01      
H    -3.38030248e+00     7.42128947e-01      7.24963925e-01      
H    -2.95628830e+00     7.47662016e-01      -7.52302537e-01     
O    -1.62358426e+00     -1.29054479e+00     -5.41964886e+00     
H    -1.69095596e+00     -2.01397311e+00     -6.05668447e+00     
H    -2.36057378e+00     -7.03599457e-01     -5.61625745e+00     
23
385.448941
N    1.74362895e-03      -3.38062053e-02     -2.90965882e-02     
H    4.77269518e-01      -2.82011295e-01     8.60791590e-01      
H    -9.90043947e-01     2.34048837e-01      1.50059561e-01      
H    4.79871709e-01      7.68671886e-01      -4.91446923e-01     
C    3.84020841e-02      -1.20218173e+00     -9.29920843e-01     
H    1.07153688e+00      -1.48426995e+00     -1.11505499e+00     
H    -4.73568136e-01     -2.03807119e+00     -4.59625740e-01     
C    -6.42834832e-01     -8.48452108e-01     -2.23700581e+00     
O    -1.17137377e+00     2.25531943e-01      -2.45778764e+00     
O    -5.72220712e-01     -1.86980212e+00     -3.06986717e+00     
H    -1.00899102e+00     -1.60850918e+00     -3.93449630e+00     
O    1.27000442e+00      1.81297009e+00      -1.64326400e+00     
H    1.85895725e+00      2.56766882e+00      -1.55910760e+00     
H    6.57071042e-01      2.03422403e+00      -2.35194482e+00     
O    1.32484693e+00      -1.00121381e+00     2.22876977e+00      
H    9.32813294e-01      -1.35301683e+00     3.03144017e+00      
H    2.25135769e+00      -8.62959685e-01     2.43926714e+00      
O    -2.72738548e+00     3.91192246e-01      1.14199598e-01      
H    -3.38255804e+00     7.43516585e-01      7.23015540e-01      
H    -2.94854314e+00     7.54645405e-01      -7.51738434e-01     
O    -1.62424941e+00     -1.28886083e+00     -5.41900001e+00     
H    -1.68637707e+00     -2.02345374e+00     -6.04601422e+00     
H    -2.36073713e+00     -7.04427558e-01     -5.63088236e+00     
23
385.448941
N    3.23354698e-03      -3.36074560e-02     -2.74211798e-02     
H    4.79470593e-01      -2.83467286e-01     8.61811377e-01      
H    -9.88071976e-01     2.33984578e-01      1.54425306e-01      
H    4.81422908e-01      7.69275414e-01      -4.89000570e-01     
C    3.83091187e-02      -1.20131506e+00     -9.29534388e-01     
H    1.07120766e+00      -1.48429296e+00     -1.11467189e+00     
H    -4.74157999e-01     -2.03684348e+00     -4.59137948e-01     
C    -6.42626144e-01     -8.49086963e-01     -2.23745330e+00     
O    -1.17219548e+00     2.23736919e-01      -2.46137728e+00     
O    -5.71271541e-01     -1.87103946e+00     -3.06993165e+00     
H    -1.01110417e+00     -1.60623616e+00     -3.93206161e+00     
O    1.27097955e+00      1.81295607e+00      -1.64364618e+00     
H    1.85830721e+00      2.56904768e+00      -1.56005429e+00     
H    6.49875981e-01      2.03784972e+00      -2.34479401e+00     
O    1.32412496e+00      -1.00119201e+00     2.22867676e+00      
H    9.36335943e-01      -1.35399186e+00     3.03305779e+00      
H    2.25124425e+00      -8.60375037e-01     2.43519637e+00      
O    -2.72896536e+00     3.90167067e-01      1.15344926e-01      
H    -3.38706916e+00     7.46291861e-01      7.19118771e-01      
H    -2.93305280e+00     7.68612185e-01      -7.50610228e-01     
O    -1.62557969e+00     -1.28549292e+00     -5.41770231e+00     
H    -1.67721929e+00     -2.04241501e+00     -6.02467371e+00     
H    -2.36106382e+00     -7.06083760e-01     -5.66013220e+00     
