23
577.592118
N    4.02392361e-03      -3.08359481e-02     -3.33568262e-02     
H    5.16092187e-01      -2.59513071e-01     8.42017865e-01      
H    -9.85230618e-01     2.23860739e-01      1.76790474e-01      
H    4.50043674e-01      7.73624038e-01      -5.27652819e-01     
C    2.90918837e-02      -1.20968739e+00     -9.22856651e-01     
H    1.06999493e+00      -1.40918923e+00     -1.19680526e+00     
H    -3.74450701e-01     -2.08428256e+00     -4.06686259e-01     
C    -6.94110201e-01     -8.68731762e-01     -2.21408052e+00     
O    -1.15083633e+00     2.35751759e-01      -2.45778746e+00     
O    -5.62298546e-01     -1.85714481e+00     -3.08007444e+00     
H    -9.71546253e-01     -1.59235524e+00     -3.95726085e+00     
O    1.26900430e+00      1.81317699e+00      -1.64115141e+00     
H    1.86332607e+00      2.56423974e+00      -1.56500670e+00     
H    6.64857416e-01      2.02476319e+00      -2.35968243e+00     
O    1.32494106e+00      -1.00191579e+00     2.22972709e+00      
H    9.31701905e-01      -1.35459237e+00     3.03126787e+00      
H    2.25093157e+00      -8.63061960e-01     2.44251440e+00      
O    -2.72246798e+00     3.94954637e-01      1.08488195e-01      
H    -3.36002310e+00     7.37784174e-01      7.40731168e-01      
H    -3.01340821e+00     7.01841394e-01      -7.55544222e-01     
O    -1.62094440e+00     -1.30000324e+00     -5.42173832e+00     
H    -1.71375816e+00     -1.96544983e+00     -6.11094578e+00     
H    -2.36030751e+00     -7.00140835e-01     -5.53998604e+00     
23
577.592118
N    2.33641142e-03      -3.17275744e-02     -3.35483231e-02     
H    5.04735714e-01      -2.64045633e-01     8.45946456e-01      
H    -9.87912929e-01     2.26455957e-01      1.66833437e-01      
H    4.56337283e-01      7.71933354e-01      -5.20436110e-01     
C    3.14891579e-02      -1.20846098e+00     -9.24912540e-01     
H    1.07062734e+00      -1.42794216e+00     -1.17665501e+00     
H    -3.98787662e-01     -2.07365049e+00     -4.20286973e-01     
C    -6.81447875e-01     -8.63185707e-01     -2.21947622e+00     
O    -1.15535441e+00     2.34543073e-01      -2.45509528e+00     
O    -5.65490966e-01     -1.85938114e+00     -3.07747426e+00     
H    -9.79322585e-01     -1.59809850e+00     -3.95339573e+00     
O    1.26852298e+00      1.81313578e+00      -1.64139292e+00     
H    1.86272140e+00      2.56406287e+00      -1.56282190e+00     
H    6.68307118e-01      2.02440912e+00      -2.36311114e+00     
O    1.32545901e+00      -1.00175664e+00     2.22955752e+00      
H    9.29337765e-01      -1.35346721e+00     3.03009773e+00      
H    2.25112318e+00      -8.64974878e-01     2.44475566e+00      
O    -2.72251244e+00     3.94782923e-01      1.09057050e-01      
H    -3.36227349e+00     7.37135820e-01      7.39224838e-01      
H    -3.00880969e+00     7.04567312e-01      -7.55438929e-01     
O    -1.62077293e+00     -1.29974357e+00     -5.42202702e+00     
H    -1.71378122e+00     -1.96572986e+00     -6.11071827e+00     
H    -2.36016990e+00     -6.99970364e-01     -5.54077275e+00     
23
577.592118
N    1.49265532e-03      -3.21733876e-02     -3.36440715e-02     
H    4.99057477e-01      -2.66311914e-01     8.47910752e-01      
H    -9.89254084e-01     2.27753567e-01      1.61854919e-01      
H    4.59484088e-01      7.71088013e-01      -5.16827755e-01     
C    3.26877949e-02      -1.20784777e+00     -9.25940485e-01     
H    1.07094354e+00      -1.43731862e+00     -1.16657989e+00     
H    -4.10956143e-01     -2.06833446e+00     -4.27087330e-01     
C    -6.75116712e-01     -8.60412680e-01     -2.22217408e+00     
O    -1.15761345e+00     2.33938730e-01      -2.45374919e+00     
O    -5.67087176e-01     -1.86049930e+00     -3.07617417e+00     
H    -9.83210751e-01     -1.60097012e+00     -3.95146317e+00     
O    1.26828232e+00      1.81311518e+00      -1.64151367e+00     
H    1.86241906e+00      2.56397443e+00      -1.56172951e+00     
H    6.70031969e-01      2.02423209e+00      -2.36482549e+00     
O    1.32571798e+00      -1.00167707e+00     2.22947273e+00      
H    9.28155695e-01      -1.35290463e+00     3.02951267e+00      
H    2.25121898e+00      -8.65931337e-01     2.44587629e+00      
O    -2.72253468e+00     3.94697066e-01      1.09341477e-01      
H    -3.36339869e+00     7.36811642e-01      7.38471673e-01      
H    -3.00651044e+00     7.05930272e-01      -7.55386283e-01     
O    -1.62068720e+00     -1.29961374e+00     -5.42217137e+00     
H    -1.71379275e+00     -1.96586987e+00     -6.11060451e+00     
H    -2.36010109e+00     -6.99885128e-01     -5.54116610e+00     
23
577.592118
N    6.48899228e-04      -3.26192008e-02     -3.37398200e-02     
H    4.93379241e-01      -2.68578195e-01     8.49875047e-01      
H    -9.90595239e-01     2.29051176e-01      1.56876400e-01      
H    4.62630893e-01      7.70242671e-01      -5.13219401e-01     
C    3.38864320e-02      -1.20723456e+00     -9.26968429e-01     
H    1.07125975e+00      -1.44669508e+00     -1.15650477e+00     
H    -4.23124624e-01     -2.06301842e+00     -4.33887687e-01     
C    -6.68785549e-01     -8.57639652e-01     -2.22487193e+00     
O    -1.15987248e+00     2.33334387e-01      -2.45240310e+00     
O    -5.68683386e-01     -1.86161746e+00     -3.07487408e+00     
H    -9.87098916e-01     -1.60384175e+00     -3.94953061e+00     
O    1.26804166e+00      1.81309457e+00      -1.64163442e+00     
H    1.86211672e+00      2.56388600e+00      -1.56063711e+00     
H    6.71756819e-01      2.02405506e+00      -2.36653984e+00     
O    1.32597696e+00      -1.00159749e+00     2.22938795e+00      
H    9.26973625e-01      -1.35234205e+00     3.02892760e+00      
H    2.25131479e+00      -8.66887795e-01     2.44699692e+00      
O    -2.72255691e+00     3.94611209e-01      1.09625905e-01      
H    -3.36452388e+00     7.36487465e-01      7.37718508e-01      
H    -3.00421118e+00     7.07293231e-01      -7.55333637e-01     
O    -1.62060147e+00     -1.29948391e+00     -5.42231572e+00     
H    -1.71380429e+00     -1.96600989e+00     -6.11049075e+00     
H    -2.36003228e+00     -6.99799893e-01     -5.54155946e+00     
23
577.592118
N    -1.94856867e-04     -3.30650139e-02     -3.38355684e-02     
H    4.87701004e-01      -2.70844477e-01     8.51839343e-01      
H    -9.91936394e-01     2.30348785e-01      1.51897882e-01      
H    4.65777698e-01      7.69397329e-01      -5.09611046e-01     
C    3.50850691e-02      -1.20662136e+00     -9.27996374e-01     
H    1.07157595e+00      -1.45607154e+00     -1.14642965e+00     
H    -4.35293105e-01     -2.05770239e+00     -4.40688045e-01     
C    -6.62454386e-01     -8.54866625e-01     -2.22756978e+00     
O    -1.16213152e+00     2.32730044e-01      -2.45105701e+00     
O    -5.70279596e-01     -1.86273562e+00     -3.07357399e+00     
H    -9.90987082e-01     -1.60671337e+00     -3.94759804e+00     
O    1.26780100e+00      1.81307397e+00      -1.64175518e+00     
H    1.86181438e+00      2.56379756e+00      -1.55954471e+00     
H    6.73481670e-01      2.02387803e+00      -2.36825420e+00     
O    1.32623593e+00      -1.00151792e+00     2.22930316e+00      
H    9.25791556e-01      -1.35177947e+00     3.02834253e+00      
H    2.25141059e+00      -8.67844254e-01     2.44811755e+00      
O    -2.72257915e+00     3.94525351e-01      1.09910332e-01      
H    -3.36564908e+00     7.36163288e-01      7.36965343e-01      
H    -3.00191192e+00     7.08656190e-01      -7.55280990e-01     
O    -1.62051574e+00     -1.29935408e+00     -5.42246007e+00     
H    -1.71381582e+00     -1.96614990e+00     -6.11037700e+00     
H    -2.35996347e+00     -6.99714657e-01     -5.54195281e+00     
23
577.592118
N    -1.03861296e-03     -3.35108271e-02     -3.39313168e-02     
H    4.82022768e-01      -2.73110758e-01     8.53803639e-01      
H    -9.93277549e-01     2.31646394e-01      1.46919363e-01      
H    4.68924502e-01      7.68551987e-01      -5.06002691e-01     
C    3.62837062e-02      -1.20600815e+00     -9.29024319e-01     
H    1.07189216e+00      -1.46544800e+00     -1.13635453e+00     
H    -4.47461585e-01     -2.05238636e+00     -4.47488402e-01     
C    -6.56123223e-01     -8.52093598e-01     -2.23026763e+00     
O    -1.16439056e+00     2.32125701e-01      -2.44971092e+00     
O    -5.71875806e-01     -1.86385378e+00     -3.07227390e+00     
H    -9.94875248e-01     -1.60958500e+00     -3.94566548e+00     
O    1.26756034e+00      1.81305336e+00      -1.64187593e+00     
H    1.86151205e+00      2.56370912e+00      -1.55845231e+00     
H    6.75206521e-01      2.02370100e+00      -2.36996855e+00     
O    1.32649490e+00      -1.00143835e+00     2.22921837e+00      
H    9.24609486e-01      -1.35121689e+00     3.02775746e+00      
H    2.25150640e+00      -8.68800713e-01     2.44923818e+00      
O    -2.72260138e+00     3.94439494e-01      1.10194759e-01      
H    -3.36677428e+00     7.35839111e-01      7.36212178e-01      
H    -2.99961266e+00     7.10019149e-01      -7.55228344e-01     
O    -1.62043000e+00     -1.29922424e+00     -5.42260442e+00     
H    -1.71382735e+00     -1.96628991e+00     -6.11026324e+00     
H    -2.35989467e+00     -6.99629422e-01     -5.54234616e+00     
23
577.592118
N    -1.46049101e-03     -3.37337337e-02     -3.39791911e-02     
H    4.79183650e-01      -2.74243898e-01     8.54785787e-01      
H    -9.93948126e-01     2.32295199e-01      1.44430104e-01      
H    4.70497905e-01      7.68129317e-01      -5.04198514e-01     
C    3.68830247e-02      -1.20570155e+00     -9.29538291e-01     
H    1.07205026e+00      -1.47013623e+00     -1.13131697e+00     
H    -4.53545826e-01     -2.04972834e+00     -4.50888580e-01     
C    -6.52957642e-01     -8.50707084e-01     -2.23161656e+00     
O    -1.16552007e+00     2.31823530e-01      -2.44903787e+00     
O    -5.72673911e-01     -1.86441286e+00     -3.07162386e+00     
H    -9.96819331e-01     -1.61102081e+00     -3.94469920e+00     
O    1.26744001e+00      1.81304306e+00      -1.64193631e+00     
H    1.86136088e+00      2.56366490e+00      -1.55790612e+00     
H    6.76068947e-01      2.02361249e+00      -2.37082573e+00     
O    1.32662439e+00      -1.00139856e+00     2.22917598e+00      
H    9.24018451e-01      -1.35093560e+00     3.02746493e+00      
H    2.25155430e+00      -8.69278943e-01     2.44979849e+00      
O    -2.72261250e+00     3.94396566e-01      1.10336973e-01      
H    -3.36733688e+00     7.35677022e-01      7.35835595e-01      
H    -2.99846304e+00     7.10700629e-01      -7.55202021e-01     
O    -1.62038714e+00     -1.29915933e+00     -5.42267659e+00     
H    -1.71383311e+00     -1.96635992e+00     -6.11020636e+00     
H    -2.35986026e+00     -6.99586804e-01     -5.54254284e+00     
23
577.592118
N    -1.88236906e-03     -3.39566402e-02     -3.40270653e-02     
H    4.76344531e-01      -2.75377039e-01     8.55767934e-01      
H    -9.94618704e-01     2.32944004e-01      1.41940845e-01      
H    4.72071307e-01      7.67706646e-01      -5.02394337e-01     
C    3.74823432e-02      -1.20539495e+00     -9.30052263e-01     
H    1.07220836e+00      -1.47482446e+00     -1.12627941e+00     
H    -4.59630066e-01     -2.04707032e+00     -4.54288759e-01     
C    -6.49792060e-01     -8.49320570e-01     -2.23296549e+00     
O    -1.16664959e+00     2.31521358e-01      -2.44836483e+00     
O    -5.73472016e-01     -1.86497194e+00     -3.07097381e+00     
H    -9.98763414e-01     -1.61245662e+00     -3.94373292e+00     
O    1.26731968e+00      1.81303276e+00      -1.64199669e+00     
H    1.86120971e+00      2.56362069e+00      -1.55735992e+00     
H    6.76931372e-01      2.02352397e+00      -2.37168291e+00     
O    1.32675388e+00      -1.00135877e+00     2.22913359e+00      
H    9.23427416e-01      -1.35065431e+00     3.02717240e+00      
H    2.25160220e+00      -8.69757172e-01     2.45035881e+00      
O    -2.72262362e+00     3.94353637e-01      1.10479187e-01      
H    -3.36789947e+00     7.35514933e-01      7.35459013e-01      
H    -2.99731341e+00     7.11382109e-01      -7.55175697e-01     
O    -1.62034427e+00     -1.29909441e+00     -5.42274877e+00     
H    -1.71383888e+00     -1.96642993e+00     -6.11014949e+00     
H    -2.35982586e+00     -6.99544186e-01     -5.54273952e+00     
23
577.592118
N    -3.56988124e-03     -3.48482666e-02     -3.42185621e-02     
H    4.64988059e-01      -2.79909601e-01     8.59696526e-01      
H    -9.97301014e-01     2.35539222e-01      1.31983807e-01      
H    4.78364917e-01      7.66015962e-01      -4.95177627e-01     
C    3.98796174e-02      -1.20416853e+00     -9.32108153e-01     
H    1.07284078e+00      -1.49357738e+00     -1.10612917e+00     
H    -4.83967028e-01     -2.03643826e+00     -4.67889473e-01     
C    -6.37129734e-01     -8.43774516e-01     -2.23836119e+00     
O    -1.17116767e+00     2.30312672e-01      -2.44567265e+00     
O    -5.76664436e-01     -1.86720826e+00     -3.06837363e+00     
H    -1.00653975e+00     -1.61819988e+00     -3.93986780e+00     
O    1.26683836e+00      1.81299154e+00      -1.64223819e+00     
H    1.86060503e+00      2.56344381e+00      -1.55517512e+00     
H    6.80381074e-01      2.02316991e+00      -2.37511161e+00     
O    1.32727182e+00      -1.00119963e+00     2.22896401e+00      
H    9.21063276e-01      -1.34952915e+00     3.02600226e+00      
H    2.25179382e+00      -8.71670090e-01     2.45260007e+00      
O    -2.72266808e+00     3.94181923e-01      1.11048041e-01      
H    -3.37014987e+00     7.34866579e-01      7.33952683e-01      
H    -2.99271489e+00     7.14108027e-01      -7.55070405e-01     
O    -1.62017281e+00     -1.29883475e+00     -5.42303747e+00     
H    -1.71386194e+00     -1.96670995e+00     -6.10992197e+00     
H    -2.35968824e+00     -6.99373716e-01     -5.54352622e+00     
23
577.592118
N    -3.99175929e-03     -3.50711731e-02     -3.42664363e-02     
H    4.62148940e-01      -2.81042742e-01     8.60678673e-01      
H    -9.97971592e-01     2.36188027e-01      1.29494548e-01      
H    4.79938319e-01      7.65593291e-01      -4.93373450e-01     
C    4.04789359e-02      -1.20386193e+00     -9.32622125e-01     
H    1.07299888e+00      -1.49826561e+00     -1.10109161e+00     
H    -4.90051268e-01     -2.03378024e+00     -4.71289652e-01     
C    -6.33964152e-01     -8.42388002e-01     -2.23971012e+00     
O    -1.17229719e+00     2.30010500e-01      -2.44499961e+00     
O    -5.77462541e-01     -1.86776734e+00     -3.06772358e+00     
H    -1.00848383e+00     -1.61963569e+00     -3.93890152e+00     
O    1.26671803e+00      1.81298124e+00      -1.64229857e+00     
H    1.86045386e+00      2.56339960e+00      -1.55462892e+00     
H    6.81243499e-01      2.02308139e+00      -2.37596879e+00     
O    1.32740131e+00      -1.00115984e+00     2.22892162e+00      
H    9.20472241e-01      -1.34924786e+00     3.02570973e+00      
H    2.25184172e+00      -8.72148319e-01     2.45316039e+00      
O    -2.72267920e+00     3.94138994e-01      1.11190255e-01      
H    -3.37071246e+00     7.34704490e-01      7.33576101e-01      
H    -2.99156526e+00     7.14789507e-01      -7.55044081e-01     
O    -1.62012994e+00     -1.29876983e+00     -5.42310965e+00     
H    -1.71386771e+00     -1.96677996e+00     -6.10986510e+00     
H    -2.35965384e+00     -6.99331098e-01     -5.54372290e+00     
23
577.592118
N    -4.41363734e-03     -3.52940797e-02     -3.43143106e-02     
H    4.59309822e-01      -2.82175882e-01     8.61660821e-01      
H    -9.98642169e-01     2.36836832e-01      1.27005289e-01      
H    4.81511722e-01      7.65170621e-01      -4.91569273e-01     
C    4.10782544e-02      -1.20355533e+00     -9.33136097e-01     
H    1.07315698e+00      -1.50295384e+00     -1.09605405e+00     
H    -4.96135509e-01     -2.03112222e+00     -4.74689830e-01     
C    -6.30798571e-01     -8.41001488e-01     -2.24105905e+00     
O    -1.17342670e+00     2.29708329e-01      -2.44432656e+00     
O    -5.78260646e-01     -1.86832642e+00     -3.06707354e+00     
H    -1.01042791e+00     -1.62107150e+00     -3.93793524e+00     
O    1.26659770e+00      1.81297094e+00      -1.64235895e+00     
H    1.86030269e+00      2.56335538e+00      -1.55408273e+00     
H    6.82105925e-01      2.02299288e+00      -2.37682597e+00     
O    1.32753080e+00      -1.00112005e+00     2.22887923e+00      
H    9.19881206e-01      -1.34896657e+00     3.02541720e+00      
H    2.25188962e+00      -8.72626549e-01     2.45372070e+00      
O    -2.72269032e+00     3.94096066e-01      1.11332469e-01      
H    -3.37127506e+00     7.34542401e-01      7.33199518e-01      
H    -2.99041564e+00     7.15470987e-01      -7.55017758e-01     
O    -1.62008708e+00     -1.29870492e+00     -5.42318182e+00     
H    -1.71387347e+00     -1.96684997e+00     -6.10980822e+00     
H    -2.35961943e+00     -6.99288480e-01     -5.54391958e+00     
23
577.592118
N    -5.25739343e-03     -3.57398929e-02     -3.44100590e-02     
H    4.53631586e-01      -2.84442163e-01     8.63625117e-01      
H    -9.99983324e-01     2.38134441e-01      1.22026770e-01      
H    4.84658526e-01      7.64325279e-01      -4.87960918e-01     
C    4.22768915e-02      -1.20294212e+00     -9.34164042e-01     
H    1.07347319e+00      -1.51233030e+00     -1.08597893e+00     
H    -5.08303989e-01     -2.02580619e+00     -4.81490187e-01     
C    -6.24467408e-01     -8.38228461e-01     -2.24375690e+00     
O    -1.17568574e+00     2.29103986e-01      -2.44298047e+00     
O    -5.79856856e-01     -1.86944458e+00     -3.06577345e+00     
H    -1.01431608e+00     -1.62394313e+00     -3.93600268e+00     
O    1.26635704e+00      1.81295033e+00      -1.64247970e+00     
H    1.86000036e+00      2.56326694e+00      -1.55299033e+00     
H    6.83830776e-01      2.02281585e+00      -2.37854032e+00     
O    1.32778977e+00      -1.00104048e+00     2.22879444e+00      
H    9.18699136e-01      -1.34840399e+00     3.02483213e+00      
H    2.25198543e+00      -8.73583008e-01     2.45484133e+00      
O    -2.72271255e+00     3.94010209e-01      1.11616896e-01      
H    -3.37240026e+00     7.34218224e-01      7.32446353e-01      
H    -2.98811638e+00     7.16833946e-01      -7.54965112e-01     
O    -1.62000134e+00     -1.29857508e+00     -5.42332617e+00     
H    -1.71388500e+00     -1.96698998e+00     -6.10969446e+00     
H    -2.35955063e+00     -6.99203245e-01     -5.54431293e+00     
23
577.592118
N    -6.10114953e-03     -3.61857060e-02     -3.45058074e-02     
H    4.47953349e-01      -2.86708445e-01     8.65589413e-01      
H    -1.00132448e+00     2.39432050e-01      1.17048252e-01      
H    4.87805331e-01      7.63479937e-01      -4.84352563e-01     
C    4.34755286e-02      -1.20232892e+00     -9.35191987e-01     
H    1.07378939e+00      -1.52170676e+00     -1.07590381e+00     
H    -5.20472470e-01     -2.02049016e+00     -4.88290545e-01     
C    -6.18136245e-01     -8.35455434e-01     -2.24645475e+00     
O    -1.17794478e+00     2.28499643e-01      -2.44163438e+00     
O    -5.81453066e-01     -1.87056274e+00     -3.06447336e+00     
H    -1.01820424e+00     -1.62681475e+00     -3.93407011e+00     
O    1.26611638e+00      1.81292973e+00      -1.64260046e+00     
H    1.85969802e+00      2.56317850e+00      -1.55189793e+00     
H    6.85555627e-01      2.02263882e+00      -2.38025468e+00     
O    1.32804874e+00      -1.00096091e+00     2.22870965e+00      
H    9.17517067e-01      -1.34784141e+00     3.02424706e+00      
H    2.25208123e+00      -8.74539467e-01     2.45596196e+00      
O    -2.72273479e+00     3.93924351e-01      1.11901323e-01      
H    -3.37352546e+00     7.33894047e-01      7.31693188e-01      
H    -2.98581712e+00     7.18196905e-01      -7.54912465e-01     
O    -1.61991561e+00     -1.29844525e+00     -5.42347052e+00     
H    -1.71389653e+00     -1.96712999e+00     -6.10958071e+00     
H    -2.35948182e+00     -6.99118009e-01     -5.54470628e+00     
23
577.592118
N    -6.94490562e-03     -3.66315192e-02     -3.46015559e-02     
H    4.42275113e-01      -2.88974726e-01     8.67553708e-01      
H    -1.00266563e+00     2.40729659e-01      1.12069733e-01      
H    4.90952136e-01      7.62634595e-01      -4.80744209e-01     
C    4.46741657e-02      -1.20171571e+00     -9.36219931e-01     
H    1.07410560e+00      -1.53108322e+00     -1.06582869e+00     
H    -5.32640951e-01     -2.01517412e+00     -4.95090902e-01     
C    -6.11805082e-01     -8.32682406e-01     -2.24915260e+00     
O    -1.18020381e+00     2.27895300e-01      -2.44028829e+00     
O    -5.83049276e-01     -1.87168090e+00     -3.06317327e+00     
H    -1.02209241e+00     -1.62968638e+00     -3.93213755e+00     
O    1.26587572e+00      1.81290912e+00      -1.64272121e+00     
H    1.85939568e+00      2.56309007e+00      -1.55080553e+00     
H    6.87280477e-01      2.02246179e+00      -2.38196903e+00     
O    1.32830772e+00      -1.00088133e+00     2.22862487e+00      
H    9.16334997e-01      -1.34727883e+00     3.02366199e+00      
H    2.25217704e+00      -8.75495925e-01     2.45708259e+00      
O    -2.72275702e+00     3.93838494e-01      1.12185751e-01      
H    -3.37465065e+00     7.33569870e-01      7.30940023e-01      
H    -2.98351786e+00     7.19559864e-01      -7.54859819e-01     
O    -1.61982988e+00     -1.29831542e+00     -5.42361487e+00     
H    -1.71390807e+00     -1.96727001e+00     -6.10946695e+00     
H    -2.35941301e+00     -6.99032774e-01     -5.54509964e+00     
23
577.592118
N    -7.78866172e-03     -3.70773324e-02     -3.46973043e-02     
H    4.36596876e-01      -2.91241007e-01     8.69518004e-01      
H    -1.00400679e+00     2.42027269e-01      1.07091215e-01      
H    4.94098941e-01      7.61789254e-01      -4.77135854e-01     
C    4.58728027e-02      -1.20110250e+00     -9.37247876e-01     
H    1.07442180e+00      -1.54045968e+00     -1.05575357e+00     
H    -5.44809432e-01     -2.00985809e+00     -5.01891259e-01     
C    -6.05473919e-01     -8.29909379e-01     -2.25185046e+00     
O    -1.18246285e+00     2.27290957e-01      -2.43894220e+00     
O    -5.84645486e-01     -1.87279906e+00     -3.06187318e+00     
H    -1.02598058e+00     -1.63255800e+00     -3.93020499e+00     
O    1.26563506e+00      1.81288852e+00      -1.64284196e+00     
H    1.85909334e+00      2.56300163e+00      -1.54971314e+00     
H    6.89005328e-01      2.02228476e+00      -2.38368338e+00     
O    1.32856669e+00      -1.00080176e+00     2.22854008e+00      
H    9.15152927e-01      -1.34671625e+00     3.02307693e+00      
H    2.25227284e+00      -8.76452384e-01     2.45820322e+00      
O    -2.72277926e+00     3.93752637e-01      1.12470178e-01      
H    -3.37577585e+00     7.33245692e-01      7.30186858e-01      
H    -2.98121861e+00     7.20922824e-01      -7.54807173e-01     
O    -1.61974415e+00     -1.29818559e+00     -5.42375922e+00     
H    -1.71391960e+00     -1.96741002e+00     -6.10935319e+00     
H    -2.35934420e+00     -6.98947538e-01     -5.54549299e+00     
23
577.592118
N    -9.47617391e-03     -3.79689587e-02     -3.48888012e-02     
H    4.25240403e-01      -2.95773569e-01     8.73446595e-01      
H    -1.00668910e+00     2.44622487e-01      9.71341777e-02      
H    5.00392550e-01      7.60098570e-01      -4.69919145e-01     
C    4.82700769e-02      -1.19987609e+00     -9.39303765e-01     
H    1.07505421e+00      -1.55921261e+00     -1.03560332e+00     
H    -5.69146393e-01     -1.99922602e+00     -5.15491973e-01     
C    -5.92811593e-01     -8.24363324e-01     -2.25724616e+00     
O    -1.18698093e+00     2.26082271e-01      -2.43625002e+00     
O    -5.87837906e-01     -1.87503539e+00     -3.05927300e+00     
H    -1.03375691e+00     -1.63830126e+00     -3.92633987e+00     
O    1.26515374e+00      1.81284731e+00      -1.64308347e+00     
H    1.85848867e+00      2.56282476e+00      -1.54752834e+00     
H    6.92455030e-01      2.02193069e+00      -2.38711209e+00     
O    1.32908464e+00      -1.00064261e+00     2.22837051e+00      
H    9.12788787e-01      -1.34559109e+00     3.02190679e+00      
H    2.25246445e+00      -8.78365302e-01     2.46044448e+00      
O    -2.72282372e+00     3.93580923e-01      1.13039033e-01      
H    -3.37802624e+00     7.32597338e-01      7.28680528e-01      
H    -2.97662009e+00     7.23648742e-01      -7.54701880e-01     
O    -1.61957268e+00     -1.29792592e+00     -5.42404792e+00     
H    -1.71394266e+00     -1.96769005e+00     -6.10912568e+00     
H    -2.35920659e+00     -6.98777067e-01     -5.54627970e+00     
