23
963.802486
N    -2.65109160e-03     -3.46335816e-02     -3.42999225e-02     
H    4.37394332e-01      -2.89942934e-01     8.71938539e-01      
H    -1.02077602e+00     1.68760829e-01      1.07484949e-01      
H    4.45004599e-01      8.12908963e-01      -4.45074363e-01     
C    6.49002618e-02      -1.19485712e+00     -9.42365479e-01     
H    1.07100569e+00      -1.59097431e+00     -1.09770956e+00     
H    -5.43064520e-01     -1.96043550e+00     -4.47763714e-01     
C    -6.72608669e-01     -8.58337205e-01     -2.22369811e+00     
O    -1.16204481e+00     2.33749860e-01      -2.44993284e+00     
O    -5.68919307e-01     -1.86336620e+00     -3.07190391e+00     
H    -1.03034893e+00     -1.62546927e+00     -3.93104314e+00     
O    1.26706031e+00      1.81212162e+00      -1.64279681e+00     
H    1.86065934e+00      2.56306271e+00      -1.55468728e+00     
H    6.78489023e-01      2.02811614e+00      -2.37237905e+00     
O    1.32765427e+00      -1.00104599e+00     2.22877464e+00      
H    9.19363051e-01      -1.34915943e+00     3.02482173e+00      
H    2.25188196e+00      -8.72653536e-01     2.45442687e+00      
O    -2.72263730e+00     3.95154894e-01      1.11509842e-01      
H    -3.37070116e+00     7.35123630e-01      7.33611081e-01      
H    -2.99334870e+00     7.08479672e-01      -7.56745056e-01     
O    -1.61956398e+00     -1.29879865e+00     -5.42321080e+00     
H    -1.71506014e+00     -1.96654179e+00     -6.11009279e+00     
H    -2.36037573e+00     -7.00170292e-01     -5.54081711e+00     
23
963.802486
N    -2.66984999e-03     -3.45757996e-02     -3.42556453e-02     
H    4.45712323e-01      -2.86868030e-01     8.68386962e-01      
H    -1.01457198e+00     1.85131025e-01      1.14854293e-01      
H    4.52557977e-01      8.01397049e-01      -4.58502268e-01     
C    5.83454414e-02      -1.19733827e+00     -9.39544161e-01     
H    1.07138541e+00      -1.56428096e+00     -1.10233324e+00     
H    -5.25248027e-01     -1.98076520e+00     -4.51095064e-01     
C    -6.65321726e-01     -8.55389789e-01     -2.22668942e+00     
O    -1.16376076e+00     2.33041649e-01      -2.44920432e+00     
O    -5.70456537e-01     -1.86404717e+00     -3.07134636e+00     
H    -1.02342459e+00     -1.62293402e+00     -3.93373244e+00     
O    1.26706499e+00      1.81234425e+00      -1.64262697e+00     
H    1.86072135e+00      2.56318009e+00      -1.55508234e+00     
H    6.78530823e-01      2.02692384e+00      -2.37263360e+00     
O    1.32749391e+00      -1.00110429e+00     2.22884318e+00      
H    9.20083625e-01      -1.34939250e+00     3.02526313e+00      
H    2.25183597e+00      -8.72168560e-01     2.45369001e+00      
O    -2.72263944e+00     3.94933115e-01      1.11323285e-01      
H    -3.37028203e+00     7.35140412e-01      7.33884773e-01      
H    -2.99376506e+00     7.09546021e-01      -7.56339554e-01     
O    -1.61973762e+00     -1.29884013e+00     -5.42313138e+00     
H    -1.71475771e+00     -1.96654883e+00     -6.11007852e+00     
H    -2.36022106e+00     -6.99992457e-01     -5.54139605e+00     
23
963.802486
N    -2.67922918e-03     -3.45469085e-02     -3.42335067e-02     
H    4.49871318e-01      -2.85330579e-01     8.66611173e-01      
H    -1.01146996e+00     1.93316123e-01      1.18538965e-01      
H    4.56334666e-01      7.95641091e-01      -4.65216220e-01     
C    5.50680312e-02      -1.19857885e+00     -9.38133502e-01     
H    1.07157527e+00      -1.55093429e+00     -1.10464508e+00     
H    -5.16339780e-01     -1.99093004e+00     -4.52760740e-01     
C    -6.61678255e-01     -8.53916082e-01     -2.22818507e+00     
O    -1.16461874e+00     2.32687543e-01      -2.44884005e+00     
O    -5.71225152e-01     -1.86438766e+00     -3.07106759e+00     
H    -1.01996242e+00     -1.62166639e+00     -3.93507710e+00     
O    1.26706733e+00      1.81245557e+00      -1.64254204e+00     
H    1.86075235e+00      2.56323879e+00      -1.55527987e+00     
H    6.78551723e-01      2.02632769e+00      -2.37276088e+00     
O    1.32741373e+00      -1.00113344e+00     2.22887745e+00      
H    9.20443912e-01      -1.34950904e+00     3.02548383e+00      
H    2.25181298e+00      -8.71926072e-01     2.45332158e+00      
O    -2.72264051e+00     3.94822226e-01      1.11230006e-01      
H    -3.37007247e+00     7.35148803e-01      7.34021618e-01      
H    -2.99397324e+00     7.10079195e-01      -7.56136804e-01     
O    -1.61982444e+00     -1.29886087e+00     -5.42309167e+00     
H    -1.71460649e+00     -1.96655235e+00     -6.11007139e+00     
H    -2.36014373e+00     -6.99903539e-01     -5.54168552e+00     
23
963.802486
N    -2.68860838e-03     -3.45180175e-02     -3.42113681e-02     
H    4.54030314e-01      -2.83793127e-01     8.64835385e-01      
H    -1.00836794e+00     2.01501221e-01      1.22223637e-01      
H    4.60111356e-01      7.89885134e-01      -4.71930173e-01     
C    5.17906211e-02      -1.19981943e+00     -9.36722843e-01     
H    1.07176513e+00      -1.53758762e+00     -1.10695692e+00     
H    -5.07431533e-01     -2.00109489e+00     -4.54426415e-01     
C    -6.58034783e-01     -8.52442374e-01     -2.22968073e+00     
O    -1.16547672e+00     2.32333437e-01      -2.44847579e+00     
O    -5.71993766e-01     -1.86472815e+00     -3.07078882e+00     
H    -1.01650026e+00     -1.62039876e+00     -3.93642175e+00     
O    1.26706967e+00      1.81256689e+00      -1.64245712e+00     
H    1.86078335e+00      2.56329748e+00      -1.55547740e+00     
H    6.78572623e-01      2.02573154e+00      -2.37288815e+00     
O    1.32733356e+00      -1.00116260e+00     2.22891172e+00      
H    9.20804199e-01      -1.34962558e+00     3.02570453e+00      
H    2.25178998e+00      -8.71683584e-01     2.45295315e+00      
O    -2.72264157e+00     3.94711337e-01      1.11136728e-01      
H    -3.36986291e+00     7.35157193e-01      7.34158464e-01      
H    -2.99418142e+00     7.10612370e-01      -7.55934053e-01     
O    -1.61991126e+00     -1.29888161e+00     -5.42305196e+00     
H    -1.71445528e+00     -1.96655587e+00     -6.11006426e+00     
H    -2.36006639e+00     -6.99814622e-01     -5.54197499e+00     
23
963.802486
N    -2.69798757e-03     -3.44891265e-02     -3.41892295e-02     
H    4.58189309e-01      -2.82255675e-01     8.63059596e-01      
H    -1.00526592e+00     2.09686319e-01      1.25908310e-01      
H    4.63888045e-01      7.84129176e-01      -4.78644125e-01     
C    4.85132109e-02      -1.20106001e+00     -9.35312185e-01     
H    1.07195499e+00      -1.52424094e+00     -1.10926877e+00     
H    -4.98523287e-01     -2.01125974e+00     -4.56092090e-01     
C    -6.54391312e-01     -8.50968666e-01     -2.23117638e+00     
O    -1.16633470e+00     2.31979332e-01      -2.44811153e+00     
O    -5.72762381e-01     -1.86506864e+00     -3.07051004e+00     
H    -1.01303809e+00     -1.61913113e+00     -3.93776640e+00     
O    1.26707200e+00      1.81267820e+00      -1.64237220e+00     
H    1.86081436e+00      2.56335617e+00      -1.55567493e+00     
H    6.78593523e-01      2.02513539e+00      -2.37301543e+00     
O    1.32725338e+00      -1.00119175e+00     2.22894599e+00      
H    9.21164485e-01      -1.34974212e+00     3.02592523e+00      
H    2.25176699e+00      -8.71441096e-01     2.45258473e+00      
O    -2.72264264e+00     3.94600448e-01      1.11043449e-01      
H    -3.36965335e+00     7.35165584e-01      7.34295310e-01      
H    -2.99438961e+00     7.11145544e-01      -7.55731303e-01     
O    -1.61999808e+00     -1.29890236e+00     -5.42301225e+00     
H    -1.71430406e+00     -1.96655938e+00     -6.11005713e+00     
H    -2.35998906e+00     -6.99725704e-01     -5.54226446e+00     
23
963.802486
N    -2.70736676e-03     -3.44602355e-02     -3.41670909e-02     
H    4.62348304e-01      -2.80718223e-01     8.61283807e-01      
H    -1.00216390e+00     2.17871417e-01      1.29592982e-01      
H    4.67664734e-01      7.78373219e-01      -4.85358077e-01     
C    4.52358007e-02      -1.20230058e+00     -9.33901526e-01     
H    1.07214485e+00      -1.51089427e+00     -1.11158061e+00     
H    -4.89615040e-01     -2.02142459e+00     -4.57757765e-01     
C    -6.50747840e-01     -8.49494958e-01     -2.23267203e+00     
O    -1.16719267e+00     2.31625226e-01      -2.44774727e+00     
O    -5.73530996e-01     -1.86540912e+00     -3.07023127e+00     
H    -1.00957592e+00     -1.61786351e+00     -3.93911105e+00     
O    1.26707434e+00      1.81278952e+00      -1.64228728e+00     
H    1.86084536e+00      2.56341486e+00      -1.55587246e+00     
H    6.78614423e-01      2.02453924e+00      -2.37314271e+00     
O    1.32717320e+00      -1.00122090e+00     2.22898026e+00      
H    9.21524772e-01      -1.34985865e+00     3.02614593e+00      
H    2.25174400e+00      -8.71198607e-01     2.45221630e+00      
O    -2.72264371e+00     3.94489558e-01      1.10950171e-01      
H    -3.36944379e+00     7.35173975e-01      7.34432156e-01      
H    -2.99459779e+00     7.11678719e-01      -7.55528552e-01     
O    -1.62008490e+00     -1.29892310e+00     -5.42297254e+00     
H    -1.71415284e+00     -1.96656290e+00     -6.11004999e+00     
H    -2.35991172e+00     -6.99636786e-01     -5.54255393e+00     
23
963.802486
N    -2.71205636e-03     -3.44457899e-02     -3.41560216e-02     
H    4.64427802e-01      -2.79949498e-01     8.60395913e-01      
H    -1.00061289e+00     2.21963966e-01      1.31435318e-01      
H    4.69553078e-01      7.75495240e-01      -4.88715054e-01     
C    4.35970956e-02      -1.20292087e+00     -9.33196196e-01     
H    1.07223978e+00      -1.50422093e+00     -1.11273653e+00     
H    -4.85160917e-01     -2.02650702e+00     -4.58590603e-01     
C    -6.48926104e-01     -8.48758105e-01     -2.23341986e+00     
O    -1.16762166e+00     2.31448173e-01      -2.44756513e+00     
O    -5.73915304e-01     -1.86557937e+00     -3.07009188e+00     
H    -1.00784483e+00     -1.61722969e+00     -3.93978338e+00     
O    1.26707551e+00      1.81284518e+00      -1.64224482e+00     
H    1.86086086e+00      2.56344421e+00      -1.55597123e+00     
H    6.78624873e-01      2.02424117e+00      -2.37320635e+00     
O    1.32713312e+00      -1.00123547e+00     2.22899740e+00      
H    9.21704916e-01      -1.34991692e+00     3.02625628e+00      
H    2.25173250e+00      -8.71077363e-01     2.45203208e+00      
O    -2.72264425e+00     3.94434114e-01      1.10903532e-01      
H    -3.36933901e+00     7.35178170e-01      7.34500579e-01      
H    -2.99470188e+00     7.11945306e-01      -7.55427177e-01     
O    -1.62012831e+00     -1.29893347e+00     -5.42295268e+00     
H    -1.71407723e+00     -1.96656466e+00     -6.11004643e+00     
H    -2.35987305e+00     -6.99592328e-01     -5.54269867e+00     
23
963.802486
N    -2.71674596e-03     -3.44313444e-02     -3.41449523e-02     
H    4.66507300e-01      -2.79180772e-01     8.59508019e-01      
H    -9.99061879e-01     2.26056515e-01      1.33277654e-01      
H    4.71441423e-01      7.72617261e-01      -4.92072030e-01     
C    4.19583905e-02      -1.20354116e+00     -9.32490867e-01     
H    1.07233471e+00      -1.49754759e+00     -1.11389245e+00     
H    -4.80706794e-01     -2.03158944e+00     -4.59423441e-01     
C    -6.47104369e-01     -8.48021251e-01     -2.23416769e+00     
O    -1.16805065e+00     2.31271121e-01      -2.44738300e+00     
O    -5.74299611e-01     -1.86574961e+00     -3.06995249e+00     
H    -1.00611375e+00     -1.61659588e+00     -3.94045571e+00     
O    1.26707668e+00      1.81290083e+00      -1.64220236e+00     
H    1.86087637e+00      2.56347356e+00      -1.55606999e+00     
H    6.78635323e-01      2.02394309e+00      -2.37326998e+00     
O    1.32709303e+00      -1.00125005e+00     2.22901453e+00      
H    9.21885059e-01      -1.34997519e+00     3.02636663e+00      
H    2.25172100e+00      -8.70956119e-01     2.45184787e+00      
O    -2.72264478e+00     3.94378669e-01      1.10856892e-01      
H    -3.36923423e+00     7.35182365e-01      7.34569002e-01      
H    -2.99480597e+00     7.12211893e-01      -7.55325802e-01     
O    -1.62017172e+00     -1.29894384e+00     -5.42293283e+00     
H    -1.71400163e+00     -1.96656642e+00     -6.11004286e+00     
H    -2.35983439e+00     -6.99547869e-01     -5.54284340e+00     
23
963.802486
N    -2.73550434e-03     -3.43735624e-02     -3.41006751e-02     
H    4.74825290e-01      -2.76105868e-01     8.55956441e-01      
H    -9.92857839e-01     2.42426711e-01      1.40646998e-01      
H    4.78994801e-01      7.61105347e-01      -5.05499934e-01     
C    3.54035701e-02      -1.20602232e+00     -9.29669549e-01     
H    1.07271443e+00      -1.47085425e+00     -1.11851613e+00     
H    -4.62890300e-01     -2.05191914e+00     -4.62754791e-01     
C    -6.39817425e-01     -8.45073835e-01     -2.23715899e+00     
O    -1.16976661e+00     2.30562909e-01      -2.44665448e+00     
O    -5.75836841e-01     -1.86643059e+00     -3.06939495e+00     
H    -9.99189411e-01     -1.61406062e+00     -3.94314501e+00     
O    1.26708136e+00      1.81312347e+00      -1.64203252e+00     
H    1.86093837e+00      2.56359094e+00      -1.55646505e+00     
H    6.78677123e-01      2.02275079e+00      -2.37352454e+00     
O    1.32693267e+00      -1.00130835e+00     2.22908307e+00      
H    9.22605633e-01      -1.35020827e+00     3.02680803e+00      
H    2.25167502e+00      -8.70471143e-01     2.45111101e+00      
O    -2.72264692e+00     3.94156891e-01      1.10670336e-01      
H    -3.36881511e+00     7.35199147e-01      7.34842694e-01      
H    -2.99522233e+00     7.13278243e-01      -7.54920300e-01     
O    -1.62034536e+00     -1.29898532e+00     -5.42285341e+00     
H    -1.71369919e+00     -1.96657346e+00     -6.11002860e+00     
H    -2.35967971e+00     -6.99370033e-01     -5.54342234e+00     
23
963.802486
N    -2.74019394e-03     -3.43591169e-02     -3.40896058e-02     
H    4.76904788e-01      -2.75337142e-01     8.55068547e-01      
H    -9.91306829e-01     2.46519260e-01      1.42489334e-01      
H    4.80883146e-01      7.58227368e-01      -5.08856910e-01     
C    3.37648650e-02      -1.20664261e+00     -9.28964220e-01     
H    1.07280936e+00      -1.46418091e+00     -1.11967205e+00     
H    -4.58436177e-01     -2.05700156e+00     -4.63587629e-01     
C    -6.37995690e-01     -8.44336981e-01     -2.23790682e+00     
O    -1.17019560e+00     2.30385857e-01      -2.44647235e+00     
O    -5.76221148e-01     -1.86660083e+00     -3.06925556e+00     
H    -9.97458327e-01     -1.61342681e+00     -3.94381734e+00     
O    1.26708253e+00      1.81317912e+00      -1.64199006e+00     
H    1.86095388e+00      2.56362029e+00      -1.55656381e+00     
H    6.78687573e-01      2.02245271e+00      -2.37358817e+00     
O    1.32689258e+00      -1.00132293e+00     2.22910020e+00      
H    9.22785776e-01      -1.35026654e+00     3.02691838e+00      
H    2.25166352e+00      -8.70349899e-01     2.45092680e+00      
O    -2.72264745e+00     3.94101446e-01      1.10623696e-01      
H    -3.36871033e+00     7.35203342e-01      7.34911117e-01      
H    -2.99532642e+00     7.13544830e-01      -7.54818925e-01     
O    -1.62038877e+00     -1.29899569e+00     -5.42283356e+00     
H    -1.71362359e+00     -1.96657522e+00     -6.11002503e+00     
H    -2.35964105e+00     -6.99325574e-01     -5.54356707e+00     
23
963.802486
N    -2.74488354e-03     -3.43446713e-02     -3.40785365e-02     
H    4.78984286e-01      -2.74568417e-01     8.54180653e-01      
H    -9.89755819e-01     2.50611809e-01      1.44331670e-01      
H    4.82771490e-01      7.55349389e-01      -5.12213887e-01     
C    3.21261599e-02      -1.20726290e+00     -9.28258890e-01     
H    1.07290429e+00      -1.45750757e+00     -1.12082797e+00     
H    -4.53982054e-01     -2.06208399e+00     -4.64420467e-01     
C    -6.36173954e-01     -8.43600128e-01     -2.23865465e+00     
O    -1.17062459e+00     2.30208804e-01      -2.44629021e+00     
O    -5.76605456e-01     -1.86677108e+00     -3.06911617e+00     
H    -9.95727242e-01     -1.61279299e+00     -3.94448967e+00     
O    1.26708370e+00      1.81323478e+00      -1.64194760e+00     
H    1.86096938e+00      2.56364964e+00      -1.55666258e+00     
H    6.78698023e-01      2.02215464e+00      -2.37365181e+00     
O    1.32685250e+00      -1.00133750e+00     2.22911734e+00      
H    9.22965920e-01      -1.35032481e+00     3.02702873e+00      
H    2.25165202e+00      -8.70228655e-01     2.45074258e+00      
O    -2.72264799e+00     3.94046002e-01      1.10577057e-01      
H    -3.36860555e+00     7.35207537e-01      7.34979540e-01      
H    -2.99543051e+00     7.13811417e-01      -7.54717550e-01     
O    -1.62043218e+00     -1.29900606e+00     -5.42281370e+00     
H    -1.71354798e+00     -1.96657698e+00     -6.11002147e+00     
H    -2.35960238e+00     -6.99281116e-01     -5.54371181e+00     
23
963.802486
N    -2.75426273e-03     -3.43157803e-02     -3.40563979e-02     
H    4.83143281e-01      -2.73030965e-01     8.52404864e-01      
H    -9.86653799e-01     2.58796907e-01      1.48016342e-01      
H    4.86548179e-01      7.49593432e-01      -5.18927839e-01     
C    2.88487497e-02      -1.20850347e+00     -9.26848231e-01     
H    1.07309415e+00      -1.44416090e+00     -1.12313981e+00     
H    -4.45073807e-01     -2.07224884e+00     -4.66086142e-01     
C    -6.32530482e-01     -8.42126420e-01     -2.24015030e+00     
O    -1.17148256e+00     2.29854698e-01      -2.44592595e+00     
O    -5.77374071e-01     -1.86711156e+00     -3.06883740e+00     
H    -9.92265074e-01     -1.61152537e+00     -3.94583432e+00     
O    1.26708604e+00      1.81334610e+00      -1.64186268e+00     
H    1.86100038e+00      2.56370833e+00      -1.55686011e+00     
H    6.78718923e-01      2.02155849e+00      -2.37377909e+00     
O    1.32677232e+00      -1.00136665e+00     2.22915161e+00      
H    9.23326207e-01      -1.35044134e+00     3.02724943e+00      
H    2.25162903e+00      -8.69986166e-01     2.45037415e+00      
O    -2.72264906e+00     3.93935112e-01      1.10483779e-01      
H    -3.36839599e+00     7.35215928e-01      7.35116386e-01      
H    -2.99563869e+00     7.14344592e-01      -7.54514799e-01     
O    -1.62051900e+00     -1.29902680e+00     -5.42277399e+00     
H    -1.71339676e+00     -1.96658050e+00     -6.11001433e+00     
H    -2.35952504e+00     -6.99192198e-01     -5.54400128e+00     
23
963.802486
N    -2.76364192e-03     -3.42868893e-02     -3.40342593e-02     
H    4.87302276e-01      -2.71493513e-01     8.50629075e-01      
H    -9.83551779e-01     2.66982005e-01      1.51701015e-01      
H    4.90324868e-01      7.43837474e-01      -5.25641791e-01     
C    2.55713395e-02      -1.20974405e+00     -9.25437573e-01     
H    1.07328401e+00      -1.43081422e+00     -1.12545166e+00     
H    -4.36165561e-01     -2.08241369e+00     -4.67751817e-01     
C    -6.28887011e-01     -8.40652712e-01     -2.24164595e+00     
O    -1.17234054e+00     2.29500593e-01      -2.44556169e+00     
O    -5.78142686e-01     -1.86745205e+00     -3.06855862e+00     
H    -9.88802905e-01     -1.61025774e+00     -3.94717897e+00     
O    1.26708837e+00      1.81345741e+00      -1.64177776e+00     
H    1.86103139e+00      2.56376702e+00      -1.55705764e+00     
H    6.78739823e-01      2.02096234e+00      -2.37390637e+00     
O    1.32669214e+00      -1.00139580e+00     2.22918588e+00      
H    9.23686493e-01      -1.35055788e+00     3.02747013e+00      
H    2.25160604e+00      -8.69743678e-01     2.45000573e+00      
O    -2.72265013e+00     3.93824223e-01      1.10390500e-01      
H    -3.36818643e+00     7.35224319e-01      7.35253232e-01      
H    -2.99584688e+00     7.14877766e-01      -7.54312049e-01     
O    -1.62060582e+00     -1.29904755e+00     -5.42273428e+00     
H    -1.71324554e+00     -1.96658401e+00     -6.11000720e+00     
H    -2.35944771e+00     -6.99103280e-01     -5.54429075e+00     
23
963.802486
N    -2.77302112e-03     -3.42579983e-02     -3.40121207e-02     
H    4.91461272e-01      -2.69956061e-01     8.48853287e-01      
H    -9.80449760e-01     2.75167103e-01      1.55385687e-01      
H    4.94101558e-01      7.38081517e-01      -5.32355744e-01     
C    2.22939294e-02      -1.21098463e+00     -9.24026914e-01     
H    1.07347387e+00      -1.41746755e+00     -1.12776350e+00     
H    -4.27257314e-01     -2.09257854e+00     -4.69417492e-01     
C    -6.25243539e-01     -8.39179004e-01     -2.24314161e+00     
O    -1.17319852e+00     2.29146487e-01      -2.44519743e+00     
O    -5.78911300e-01     -1.86779254e+00     -3.06827985e+00     
H    -9.85340736e-01     -1.60899011e+00     -3.94852362e+00     
O    1.26709071e+00      1.81356873e+00      -1.64169284e+00     
H    1.86106239e+00      2.56382571e+00      -1.55725517e+00     
H    6.78760723e-01      2.02036619e+00      -2.37403364e+00     
O    1.32661197e+00      -1.00142496e+00     2.22922015e+00      
H    9.24046780e-01      -1.35067442e+00     3.02769083e+00      
H    2.25158304e+00      -8.69501190e-01     2.44963730e+00      
O    -2.72265119e+00     3.93713334e-01      1.10297222e-01      
H    -3.36797687e+00     7.35232709e-01      7.35390078e-01      
H    -2.99605506e+00     7.15410941e-01      -7.54109298e-01     
O    -1.62069264e+00     -1.29906829e+00     -5.42269457e+00     
H    -1.71309433e+00     -1.96658753e+00     -6.11000007e+00     
H    -2.35937037e+00     -6.99014363e-01     -5.54458022e+00     
23
963.802486
N    -2.78240031e-03     -3.42291072e-02     -3.39899821e-02     
H    4.95620267e-01      -2.68418610e-01     8.47077498e-01      
H    -9.77347740e-01     2.83352201e-01      1.59070359e-01      
H    4.97878247e-01      7.32325559e-01      -5.39069696e-01     
C    1.90165192e-02      -1.21222521e+00     -9.22616255e-01     
H    1.07366373e+00      -1.40412088e+00     -1.13007534e+00     
H    -4.18349067e-01     -2.10274338e+00     -4.71083168e-01     
C    -6.21600068e-01     -8.37705297e-01     -2.24463726e+00     
O    -1.17405650e+00     2.28792381e-01      -2.44483316e+00     
O    -5.79679915e-01     -1.86813303e+00     -3.06800108e+00     
H    -9.81878567e-01     -1.60772248e+00     -3.94986828e+00     
O    1.26709305e+00      1.81368005e+00      -1.64160791e+00     
H    1.86109339e+00      2.56388441e+00      -1.55745270e+00     
H    6.78781623e-01      2.01977004e+00      -2.37416092e+00     
O    1.32653179e+00      -1.00145411e+00     2.22925442e+00      
H    9.24407067e-01      -1.35079096e+00     3.02791153e+00      
H    2.25156005e+00      -8.69258702e-01     2.44926887e+00      
O    -2.72265226e+00     3.93602445e-01      1.10203943e-01      
H    -3.36776731e+00     7.35241100e-01      7.35526923e-01      
H    -2.99626324e+00     7.15944115e-01      -7.53906548e-01     
O    -1.62077946e+00     -1.29908903e+00     -5.42265486e+00     
H    -1.71294311e+00     -1.96659105e+00     -6.10999294e+00     
H    -2.35929304e+00     -6.98925445e-01     -5.54486969e+00     
23
963.802486
N    -2.80115870e-03     -3.41713252e-02     -3.39457049e-02     
H    5.03938258e-01      -2.65343706e-01     8.43525921e-01      
H    -9.71143700e-01     2.99722397e-01      1.66439703e-01      
H    5.05431625e-01      7.20813645e-01      -5.52497601e-01     
C    1.24616988e-02      -1.21470636e+00     -9.19794937e-01     
H    1.07404345e+00      -1.37742753e+00     -1.13469902e+00     
H    -4.00532574e-01     -2.12307308e+00     -4.74414518e-01     
C    -6.14313125e-01     -8.34757881e-01     -2.24762857e+00     
O    -1.17577245e+00     2.28084170e-01      -2.44410464e+00     
O    -5.81217145e-01     -1.86881400e+00     -3.06744353e+00     
H    -9.74954230e-01     -1.60518723e+00     -3.95255758e+00     
O    1.26709773e+00      1.81390268e+00      -1.64143807e+00     
H    1.86115540e+00      2.56400179e+00      -1.55784776e+00     
H    6.78823423e-01      2.01857774e+00      -2.37441547e+00     
O    1.32637143e+00      -1.00151241e+00     2.22932296e+00      
H    9.25127641e-01      -1.35102403e+00     3.02835293e+00      
H    2.25151406e+00      -8.68773726e-01     2.44853201e+00      
O    -2.72265440e+00     3.93380666e-01      1.10017386e-01      
H    -3.36734818e+00     7.35257882e-01      7.35800615e-01      
H    -2.99667960e+00     7.17010464e-01      -7.53501046e-01     
O    -1.62095310e+00     -1.29913051e+00     -5.42257544e+00     
H    -1.71264068e+00     -1.96659809e+00     -6.10997867e+00     
H    -2.35913837e+00     -6.98747610e-01     -5.54544863e+00     
