23
538.692959
N    1.15279009e-02      -1.45713513e-02     1.99309057e-02      
H    4.86062757e-01      -2.83494839e-01     9.06224235e-01      
H    -9.81046007e-01     2.56065900e-01      1.87854869e-01      
H    4.92961626e-01      7.86720685e-01      -4.38729476e-01     
C    4.42987862e-02      -1.18792946e+00     -9.06276256e-01     
H    1.08106463e+00      -1.47773510e+00     -1.05756174e+00     
H    -4.75519134e-01     -2.01332839e+00     -4.25570926e-01     
C    -6.31171019e-01     -8.68155477e-01     -2.25086784e+00     
O    -1.16502135e+00     2.05107663e-01      -2.45310305e+00     
O    -6.06734517e-01     -1.85771269e+00     -3.13078301e+00     
H    -1.04418041e+00     -1.56294059e+00     -3.98704179e+00     
O    1.26529643e+00      1.81273526e+00      -1.64622959e+00     
H    1.86116747e+00      2.55820317e+00      -1.52855389e+00     
H    6.93900169e-01      2.04384326e+00      -2.38475759e+00     
O    1.32513662e+00      -9.99416373e-01     2.22534595e+00      
H    9.17496862e-01      -1.34715374e+00     3.02203034e+00      
H    2.24975991e+00      -8.69437486e-01     2.44870907e+00      
O    -2.72427619e+00     3.93887666e-01      1.07026558e-01      
H    -3.34913988e+00     7.36120595e-01      7.52735308e-01      
H    -3.01814145e+00     7.21336381e-01      -7.48429359e-01     
O    -1.61518978e+00     -1.30856675e+00     -5.41459642e+00     
H    -1.71326224e+00     -1.93782111e+00     -6.13865215e+00     
H    -2.34416790e+00     -6.89223739e-01     -5.50389018e+00     
23
538.692959
N    7.96439436e-03      -1.95291268e-02     6.41747584e-03      
H    4.82213642e-01      -2.82031959e-01     8.94101234e-01      
H    -9.84774470e-01     2.50609828e-01      1.75131733e-01      
H    4.88525747e-01      7.81755840e-01      -4.53743603e-01     
C    4.28943347e-02      -1.19214253e+00     -9.12477244e-01     
H    1.07892962e+00      -1.47935155e+00     -1.07222238e+00     
H    -4.74588987e-01     -2.02043486e+00     -4.34450474e-01     
C    -6.34243488e-01     -8.62753493e-01     -2.24706671e+00     
O    -1.16599317e+00     2.11560001e-01      -2.45158197e+00     
O    -5.98817945e-01     -1.85980704e+00     -3.11550569e+00     
H    -1.03379820e+00     -1.57603750e+00     -3.97573143e+00     
O    1.26574208e+00      1.81280448e+00      -1.64520155e+00     
H    1.86110244e+00      2.55953544e+00      -1.53548230e+00     
H    6.90089183e-01      2.03871918e+00      -2.38191750e+00     
O    1.32560568e+00      -9.99882079e-01     2.22627166e+00      
H    9.18683983e-01      -1.34788824e+00     3.02316958e+00      
H    2.25024443e+00      -8.69756522e-01     2.44940166e+00      
O    -2.72386860e+00     3.93982695e-01      1.07960822e-01      
H    -3.35411108e+00     7.35888135e-01      7.48227943e-01      
H    -3.01235963e+00     7.19188553e-01      -7.50102782e-01     
O    -1.61645697e+00     -1.30616621e+00     -5.41667060e+00     
H    -1.71340928e+00     -1.94500832e+00     -6.13149805e+00     
H    -2.34806519e+00     -6.91782542e-01     -5.51370085e+00     
23
538.692959
N    6.18264111e-03      -2.20080146e-02     -3.39239085e-04     
H    4.80289084e-01      -2.81300519e-01     8.88039733e-01      
H    -9.86638701e-01     2.47881792e-01      1.68770165e-01      
H    4.86307808e-01      7.79273417e-01      -4.61250666e-01     
C    4.21921090e-02      -1.19424907e+00     -9.15577738e-01     
H    1.07786211e+00      -1.48015978e+00     -1.07955270e+00     
H    -4.74123914e-01     -2.02398810e+00     -4.38890248e-01     
C    -6.35779723e-01     -8.60052502e-01     -2.24516615e+00     
O    -1.16647908e+00     2.14786170e-01      -2.45082143e+00     
O    -5.94859658e-01     -1.86085422e+00     -3.10786703e+00     
H    -1.02860710e+00     -1.58258596e+00     -3.97007625e+00     
O    1.26596490e+00      1.81283910e+00      -1.64468753e+00     
H    1.86106993e+00      2.56020157e+00      -1.53894650e+00     
H    6.88183689e-01      2.03615714e+00      -2.38049746e+00     
O    1.32584021e+00      -1.00011493e+00     2.22673452e+00      
H    9.19277544e-01      -1.34825549e+00     3.02373921e+00      
H    2.25048670e+00      -8.69916040e-01     2.44974796e+00      
O    -2.72366481e+00     3.94030209e-01      1.08427954e-01      
H    -3.35659668e+00     7.35771905e-01      7.45974260e-01      
H    -3.00946871e+00     7.18114639e-01      -7.50939494e-01     
O    -1.61709057e+00     -1.30496594e+00     -5.41770769e+00     
H    -1.71348280e+00     -1.94860192e+00     -6.12792100e+00     
H    -2.35001383e+00     -6.93061944e-01     -5.51860619e+00     
23
538.692959
N    4.40088786e-03      -2.44869024e-02     -7.09595401e-03     
H    4.78364526e-01      -2.80569079e-01     8.81978232e-01      
H    -9.88502933e-01     2.45153757e-01      1.62408598e-01      
H    4.84089869e-01      7.76790995e-01      -4.68757729e-01     
C    4.14898833e-02      -1.19635560e+00     -9.18678232e-01     
H    1.07679460e+00      -1.48096801e+00     -1.08688302e+00     
H    -4.73658840e-01     -2.02754134e+00     -4.43330021e-01     
C    -6.37315958e-01     -8.57351510e-01     -2.24326559e+00     
O    -1.16696499e+00     2.18012339e-01      -2.45006089e+00     
O    -5.90901372e-01     -1.86190139e+00     -3.10022837e+00     
H    -1.02341600e+00     -1.58913442e+00     -3.96442107e+00     
O    1.26618773e+00      1.81287371e+00      -1.64417351e+00     
H    1.86103742e+00      2.56086771e+00      -1.54241070e+00     
H    6.86278196e-01      2.03359510e+00      -2.37907742e+00     
O    1.32607474e+00      -1.00034779e+00     2.22719737e+00      
H    9.19871104e-01      -1.34862274e+00     3.02430883e+00      
H    2.25072896e+00      -8.70075559e-01     2.45009426e+00      
O    -2.72346102e+00     3.94077723e-01      1.08895086e-01      
H    -3.35908227e+00     7.35655675e-01      7.43720578e-01      
H    -3.00657780e+00     7.17040724e-01      -7.51776205e-01     
O    -1.61772416e+00     -1.30376567e+00     -5.41874477e+00     
H    -1.71355632e+00     -1.95219553e+00     -6.12434394e+00     
H    -2.35196248e+00     -6.94341345e-01     -5.52351153e+00     
23
538.692959
N    2.61913461e-03      -2.69657901e-02     -1.38526689e-02     
H    4.76439968e-01      -2.79837639e-01     8.75916732e-01      
H    -9.90367164e-01     2.42425721e-01      1.56047030e-01      
H    4.81871930e-01      7.74308572e-01      -4.76264792e-01     
C    4.07876575e-02      -1.19846214e+00     -9.21778726e-01     
H    1.07572709e+00      -1.48177624e+00     -1.09421334e+00     
H    -4.73193767e-01     -2.03109458e+00     -4.47769795e-01     
C    -6.38852193e-01     -8.54650518e-01     -2.24136503e+00     
O    -1.16745090e+00     2.21238508e-01      -2.44930035e+00     
O    -5.86943085e-01     -1.86294857e+00     -3.09258970e+00     
H    -1.01822489e+00     -1.59568288e+00     -3.95876589e+00     
O    1.26641055e+00      1.81290832e+00      -1.64365949e+00     
H    1.86100491e+00      2.56153384e+00      -1.54587491e+00     
H    6.84372703e-01      2.03103306e+00      -2.37765738e+00     
O    1.32630927e+00      -1.00058064e+00     2.22766023e+00      
H    9.20464665e-01      -1.34898998e+00     3.02487846e+00      
H    2.25097122e+00      -8.70235077e-01     2.45044055e+00      
O    -2.72325723e+00     3.94125237e-01      1.09362218e-01      
H    -3.36156787e+00     7.35539446e-01      7.41466895e-01      
H    -3.00368689e+00     7.15966810e-01      -7.52612917e-01     
O    -1.61835776e+00     -1.30256539e+00     -5.41978186e+00     
H    -1.71362985e+00     -1.95578913e+00     -6.12076689e+00     
H    -2.35391112e+00     -6.95620747e-01     -5.52841686e+00     
23
538.692959
N    8.37381354e-04      -2.94446779e-02     -2.06093839e-02     
H    4.74515411e-01      -2.79106200e-01     8.69855231e-01      
H    -9.92231396e-01     2.39697685e-01      1.49685462e-01      
H    4.79653990e-01      7.71826149e-01      -4.83771856e-01     
C    4.00854318e-02      -1.20056867e+00     -9.24879220e-01     
H    1.07465959e+00      -1.48258446e+00     -1.10154365e+00     
H    -4.72728694e-01     -2.03464781e+00     -4.52209569e-01     
C    -6.40388427e-01     -8.51949526e-01     -2.23946446e+00     
O    -1.16793681e+00     2.24464677e-01      -2.44853982e+00     
O    -5.82984799e-01     -1.86399575e+00     -3.08495104e+00     
H    -1.01303379e+00     -1.60223133e+00     -3.95311072e+00     
O    1.26663337e+00      1.81294293e+00      -1.64314548e+00     
H    1.86097239e+00      2.56219998e+00      -1.54933911e+00     
H    6.82467210e-01      2.02847102e+00      -2.37623734e+00     
O    1.32654379e+00      -1.00081349e+00     2.22812309e+00      
H    9.21058225e-01      -1.34935723e+00     3.02544808e+00      
H    2.25121348e+00      -8.70394595e-01     2.45078685e+00      
O    -2.72305343e+00     3.94172752e-01      1.09829350e-01      
H    -3.36405347e+00     7.35423216e-01      7.39213213e-01      
H    -3.00079598e+00     7.14892896e-01      -7.53449628e-01     
O    -1.61899135e+00     -1.30136512e+00     -5.42081895e+00     
H    -1.71370337e+00     -1.95938273e+00     -6.11718984e+00     
H    -2.35585976e+00     -6.96900148e-01     -5.53332220e+00     
23
538.692959
N    -5.34952723e-05     -3.06841218e-02     -2.39877413e-02     
H    4.73553132e-01      -2.78740480e-01     8.66824481e-01      
H    -9.93163512e-01     2.38333667e-01      1.46504678e-01      
H    4.78545021e-01      7.70584938e-01      -4.87525387e-01     
C    3.97343189e-02      -1.20162194e+00     -9.26429467e-01     
H    1.07412583e+00      -1.48298858e+00     -1.10520881e+00     
H    -4.72496157e-01     -2.03642443e+00     -4.54429455e-01     
C    -6.41156545e-01     -8.50599031e-01     -2.23851418e+00     
O    -1.16817977e+00     2.26077761e-01      -2.44815955e+00     
O    -5.81005656e-01     -1.86451934e+00     -3.08113171e+00     
H    -1.01043824e+00     -1.60550556e+00     -3.95028313e+00     
O    1.26674478e+00      1.81296023e+00      -1.64288847e+00     
H    1.86095614e+00      2.56253305e+00      -1.55107121e+00     
H    6.81514463e-01      2.02719000e+00      -2.37552732e+00     
O    1.32666106e+00      -1.00092992e+00     2.22835451e+00      
H    9.21355005e-01      -1.34954086e+00     3.02573289e+00      
H    2.25133462e+00      -8.70474354e-01     2.45096000e+00      
O    -2.72295154e+00     3.94196509e-01      1.10062916e-01      
H    -3.36529627e+00     7.35365101e-01      7.38086372e-01      
H    -2.99935052e+00     7.14355939e-01      -7.53867984e-01     
O    -1.61930815e+00     -1.30076499e+00     -5.42133749e+00     
H    -1.71374013e+00     -1.96117954e+00     -6.11540131e+00     
H    -2.35683408e+00     -6.97539849e-01     -5.53577487e+00     
23
538.692959
N    -9.44371898e-04     -3.19235656e-02     -2.73660988e-02     
H    4.72590853e-01      -2.78374760e-01     8.63793731e-01      
H    -9.94095627e-01     2.36969649e-01      1.43323894e-01      
H    4.77436051e-01      7.69343727e-01      -4.91278919e-01     
C    3.93832060e-02      -1.20267521e+00     -9.27979714e-01     
H    1.07359208e+00      -1.48339269e+00     -1.10887397e+00     
H    -4.72263620e-01     -2.03820105e+00     -4.56649342e-01     
C    -6.41924662e-01     -8.49248535e-01     -2.23756390e+00     
O    -1.16842272e+00     2.27690846e-01      -2.44777928e+00     
O    -5.79026512e-01     -1.86504292e+00     -3.07731238e+00     
H    -1.00784268e+00     -1.60877979e+00     -3.94745554e+00     
O    1.26685620e+00      1.81297754e+00      -1.64263146e+00     
H    1.86093988e+00      2.56286611e+00      -1.55280332e+00     
H    6.80561716e-01      2.02590898e+00      -2.37481730e+00     
O    1.32677832e+00      -1.00104635e+00     2.22858594e+00      
H    9.21651786e-01      -1.34972448e+00     3.02601771e+00      
H    2.25145575e+00      -8.70554113e-01     2.45113314e+00      
O    -2.72284964e+00     3.94220266e-01      1.10296482e-01      
H    -3.36653907e+00     7.35306986e-01      7.36959530e-01      
H    -2.99790506e+00     7.13818982e-01      -7.54286340e-01     
O    -1.61962495e+00     -1.30016485e+00     -5.42185603e+00     
H    -1.71377689e+00     -1.96297634e+00     -6.11361278e+00     
H    -2.35780841e+00     -6.98179550e-01     -5.53822753e+00     
23
538.692959
N    -4.50787840e-03     -3.68813412e-02     -4.08795286e-02     
H    4.68741737e-01      -2.76911880e-01     8.51670729e-01      
H    -9.97824091e-01     2.31513577e-01      1.30600758e-01      
H    4.73000173e-01      7.64378881e-01      -5.06293045e-01     
C    3.79787546e-02      -1.20688827e+00     -9.34180702e-01     
H    1.07145706e+00      -1.48500915e+00     -1.12353461e+00     
H    -4.71333474e-01     -2.04530753e+00     -4.65528890e-01     
C    -6.44997132e-01     -8.43846551e-01     -2.23376278e+00     
O    -1.16939454e+00     2.34143184e-01      -2.44625820e+00     
O    -5.71109940e-01     -1.86713728e+00     -3.06203506e+00     
H    -9.97460476e-01     -1.62187671e+00     -3.93614518e+00     
O    1.26730184e+00      1.81304676e+00      -1.64160342e+00     
H    1.86087486e+00      2.56419839e+00      -1.55973172e+00     
H    6.76750730e-01      2.02078490e+00      -2.37197722e+00     
O    1.32724738e+00      -1.00151205e+00     2.22951166e+00      
H    9.22838906e-01      -1.35045898e+00     3.02715695e+00      
H    2.25194027e+00      -8.70873149e-01     2.45182574e+00      
O    -2.72244206e+00     3.94315294e-01      1.11230746e-01      
H    -3.37151027e+00     7.35074526e-01      7.32452166e-01      
H    -2.99212324e+00     7.11671154e-01      -7.55959762e-01     
O    -1.62089213e+00     -1.29776431e+00     -5.42393021e+00     
H    -1.71392393e+00     -1.97016354e+00     -6.10645868e+00     
H    -2.36170569e+00     -7.00738352e-01     -5.54803821e+00     
23
538.692959
N    -5.39875503e-03     -3.81207850e-02     -4.42578861e-02     
H    4.67779458e-01      -2.76546160e-01     8.48639979e-01      
H    -9.98756206e-01     2.30149559e-01      1.27419974e-01      
H    4.71891203e-01      7.63137670e-01      -5.10046577e-01     
C    3.76276417e-02      -1.20794154e+00     -9.35730949e-01     
H    1.07092331e+00      -1.48541326e+00     -1.12719977e+00     
H    -4.71100937e-01     -2.04708415e+00     -4.67748777e-01     
C    -6.45765249e-01     -8.42496055e-01     -2.23281250e+00     
O    -1.16963749e+00     2.35756269e-01      -2.44587793e+00     
O    -5.69130796e-01     -1.86766086e+00     -3.05821573e+00     
H    -9.94864924e-01     -1.62515094e+00     -3.93331759e+00     
O    1.26741326e+00      1.81306407e+00      -1.64134641e+00     
H    1.86085860e+00      2.56453145e+00      -1.56146383e+00     
H    6.75797983e-01      2.01950388e+00      -2.37126720e+00     
O    1.32736464e+00      -1.00162848e+00     2.22974309e+00      
H    9.23135687e-01      -1.35064260e+00     3.02744177e+00      
H    2.25206140e+00      -8.70952908e-01     2.45199888e+00      
O    -2.72234016e+00     3.94339051e-01      1.11464312e-01      
H    -3.37275307e+00     7.35016411e-01      7.31325324e-01      
H    -2.99067778e+00     7.11134197e-01      -7.56378118e-01     
O    -1.62120893e+00     -1.29716417e+00     -5.42444875e+00     
H    -1.71396069e+00     -1.97196034e+00     -6.10467015e+00     
H    -2.36268002e+00     -7.01378053e-01     -5.55049087e+00     
23
538.692959
N    -6.28963165e-03     -3.93602289e-02     -4.76362435e-02     
H    4.66817179e-01      -2.76180440e-01     8.45609229e-01      
H    -9.99688322e-01     2.28785541e-01      1.24239190e-01      
H    4.70782234e-01      7.61896459e-01      -5.13800108e-01     
C    3.72765288e-02      -1.20899481e+00     -9.37281196e-01     
H    1.07038955e+00      -1.48581738e+00     -1.13086493e+00     
H    -4.70868400e-01     -2.04886077e+00     -4.69968663e-01     
C    -6.46533367e-01     -8.41145560e-01     -2.23186222e+00     
O    -1.16988045e+00     2.37369353e-01      -2.44549766e+00     
O    -5.67151653e-01     -1.86818445e+00     -3.05439640e+00     
H    -9.92269372e-01     -1.62842517e+00     -3.93049000e+00     
O    1.26752467e+00      1.81308137e+00      -1.64108940e+00     
H    1.86084235e+00      2.56486452e+00      -1.56319593e+00     
H    6.74845236e-01      2.01822286e+00      -2.37055718e+00     
O    1.32748191e+00      -1.00174491e+00     2.22997451e+00      
H    9.23432467e-01      -1.35082623e+00     3.02772658e+00      
H    2.25218254e+00      -8.71032667e-01     2.45217203e+00      
O    -2.72223827e+00     3.94362808e-01      1.11697878e-01      
H    -3.37399587e+00     7.34958296e-01      7.30198483e-01      
H    -2.98923232e+00     7.10597240e-01      -7.56796474e-01     
O    -1.62152573e+00     -1.29656404e+00     -5.42496729e+00     
H    -1.71399745e+00     -1.97375715e+00     -6.10288162e+00     
H    -2.36365434e+00     -7.02017754e-01     -5.55294354e+00     
23
538.692959
N    -8.07138491e-03     -4.18391167e-02     -5.43929585e-02     
H    4.64892622e-01      -2.75449001e-01     8.39547728e-01      
H    -1.00155255e+00     2.26057505e-01      1.17877622e-01      
H    4.68564294e-01      7.59414036e-01      -5.21307172e-01     
C    3.65743031e-02      -1.21110134e+00     -9.40381690e-01     
H    1.06932205e+00      -1.48662560e+00     -1.13819524e+00     
H    -4.70403327e-01     -2.05241400e+00     -4.74408437e-01     
C    -6.48069601e-01     -8.38444568e-01     -2.22996165e+00     
O    -1.17036636e+00     2.40595522e-01      -2.44473713e+00     
O    -5.63193367e-01     -1.86923163e+00     -3.04675774e+00     
H    -9.87078268e-01     -1.63497362e+00     -3.92483483e+00     
O    1.26774749e+00      1.81311598e+00      -1.64057539e+00     
H    1.86080983e+00      2.56553066e+00      -1.56666013e+00     
H    6.72939743e-01      2.01566082e+00      -2.36913714e+00     
O    1.32771643e+00      -1.00197776e+00     2.23043737e+00      
H    9.24026027e-01      -1.35119348e+00     3.02829620e+00      
H    2.25242480e+00      -8.71192185e-01     2.45251833e+00      
O    -2.72203447e+00     3.94410323e-01      1.12165010e-01      
H    -3.37648147e+00     7.34842066e-01      7.27944801e-01      
H    -2.98634141e+00     7.09523326e-01      -7.57633185e-01     
O    -1.62215932e+00     -1.29536377e+00     -5.42600438e+00     
H    -1.71407097e+00     -1.97735075e+00     -6.09930457e+00     
H    -2.36560298e+00     -7.03297155e-01     -5.55784888e+00     
23
538.692959
N    -9.85313816e-03     -4.43180044e-02     -6.11496734e-02     
H    4.62968064e-01      -2.74717561e-01     8.33486228e-01      
H    -1.00341679e+00     2.23329469e-01      1.11516054e-01      
H    4.66346355e-01      7.56931613e-01      -5.28814235e-01     
C    3.58720773e-02      -1.21320788e+00     -9.43482184e-01     
H    1.06825454e+00      -1.48743383e+00     -1.14552556e+00     
H    -4.69938254e-01     -2.05596724e+00     -4.78848211e-01     
C    -6.49605836e-01     -8.35743576e-01     -2.22806109e+00     
O    -1.17085227e+00     2.43821691e-01      -2.44397659e+00     
O    -5.59235080e-01     -1.87027881e+00     -3.03911907e+00     
H    -9.81887164e-01     -1.64152208e+00     -3.91917965e+00     
O    1.26797031e+00      1.81315059e+00      -1.64006137e+00     
H    1.86077732e+00      2.56619679e+00      -1.57012434e+00     
H    6.71034250e-01      2.01309878e+00      -2.36771710e+00     
O    1.32795096e+00      -1.00221061e+00     2.23090023e+00      
H    9.24619588e-01      -1.35156072e+00     3.02886583e+00      
H    2.25266706e+00      -8.71351703e-01     2.45286462e+00      
O    -2.72183068e+00     3.94457837e-01      1.12632142e-01      
H    -3.37896707e+00     7.34725837e-01      7.25691118e-01      
H    -2.98345050e+00     7.08449412e-01      -7.58469897e-01     
O    -1.62279292e+00     -1.29416349e+00     -5.42704147e+00     
H    -1.71414450e+00     -1.98094435e+00     -6.09572752e+00     
H    -2.36755162e+00     -7.04576557e-01     -5.56275421e+00     
23
538.692959
N    -1.16348914e-02     -4.67968922e-02     -6.79063883e-02     
H    4.61043506e-01      -2.73986121e-01     8.27424727e-01      
H    -1.00528102e+00     2.20601434e-01      1.05154487e-01      
H    4.64128416e-01      7.54449191e-01      -5.36321298e-01     
C    3.51698516e-02      -1.21531441e+00     -9.46582678e-01     
H    1.06718703e+00      -1.48824206e+00     -1.15285588e+00     
H    -4.69473180e-01     -2.05952048e+00     -4.83287984e-01     
C    -6.51142071e-01     -8.33042584e-01     -2.22616053e+00     
O    -1.17133818e+00     2.47047860e-01      -2.44321605e+00     
O    -5.55276794e-01     -1.87132598e+00     -3.03148041e+00     
H    -9.76696060e-01     -1.64807054e+00     -3.91352447e+00     
O    1.26819314e+00      1.81318520e+00      -1.63954735e+00     
H    1.86074481e+00      2.56686293e+00      -1.57358854e+00     
H    6.69128757e-01      2.01053674e+00      -2.36629706e+00     
O    1.32818549e+00      -1.00244347e+00     2.23136308e+00      
H    9.25213148e-01      -1.35192797e+00     3.02943545e+00      
H    2.25290932e+00      -8.71511222e-01     2.45321092e+00      
O    -2.72162689e+00     3.94505351e-01      1.13099274e-01      
H    -3.38145266e+00     7.34609607e-01      7.23437436e-01      
H    -2.98055959e+00     7.07375497e-01      -7.59306608e-01     
O    -1.62342651e+00     -1.29296322e+00     -5.42807855e+00     
H    -1.71421802e+00     -1.98453796e+00     -6.09215046e+00     
H    -2.36950027e+00     -7.05855958e-01     -5.56765955e+00     
23
538.692959
N    -1.34166447e-02     -4.92757800e-02     -7.46631032e-02     
H    4.59118948e-01      -2.73254681e-01     8.21363226e-01      
H    -1.00714525e+00     2.17873398e-01      9.87929186e-02      
H    4.61910477e-01      7.51966768e-01      -5.43828361e-01     
C    3.44676259e-02      -1.21742095e+00     -9.49683172e-01     
H    1.06611952e+00      -1.48905029e+00     -1.16018620e+00     
H    -4.69008107e-01     -2.06307372e+00     -4.87727758e-01     
C    -6.52678306e-01     -8.30341593e-01     -2.22425997e+00     
O    -1.17182409e+00     2.50274029e-01      -2.44245551e+00     
O    -5.51318507e-01     -1.87237316e+00     -3.02384175e+00     
H    -9.71504956e-01     -1.65461900e+00     -3.90786929e+00     
O    1.26841596e+00      1.81321982e+00      -1.63903333e+00     
H    1.86071230e+00      2.56752906e+00      -1.57705274e+00     
H    6.67223263e-01      2.00797470e+00      -2.36487702e+00     
O    1.32842002e+00      -1.00267632e+00     2.23182594e+00      
H    9.25806709e-01      -1.35229522e+00     3.03000508e+00      
H    2.25315159e+00      -8.71670740e-01     2.45355722e+00      
O    -2.72142310e+00     3.94552865e-01      1.13566406e-01      
H    -3.38393826e+00     7.34493377e-01      7.21183753e-01      
H    -2.97766867e+00     7.06301583e-01      -7.60143320e-01     
O    -1.62406011e+00     -1.29176295e+00     -5.42911564e+00     
H    -1.71429154e+00     -1.98813156e+00     -6.08857341e+00     
H    -2.37144891e+00     -7.07135360e-01     -5.57256489e+00     
23
538.692959
N    -1.69801512e-02     -5.42335555e-02     -8.81765331e-02     
H    4.55269833e-01      -2.71791801e-01     8.09240225e-01      
H    -1.01087371e+00     2.12417326e-01      8.60697828e-02      
H    4.57474598e-01      7.47001923e-01      -5.58842488e-01     
C    3.30631744e-02      -1.22163402e+00     -9.55884160e-01     
H    1.06398451e+00      -1.49066674e+00     -1.17484684e+00     
H    -4.68077960e-01     -2.07018019e+00     -4.96607306e-01     
C    -6.55750775e-01     -8.24939609e-01     -2.22045884e+00     
O    -1.17279591e+00     2.56726367e-01      -2.44093443e+00     
O    -5.43401935e-01     -1.87446751e+00     -3.00856443e+00     
H    -9.61122749e-01     -1.66771591e+00     -3.89655893e+00     
O    1.26886161e+00      1.81328904e+00      -1.63800529e+00     
H    1.86064727e+00      2.56886133e+00      -1.58398115e+00     
H    6.63412277e-01      2.00285062e+00      -2.36203693e+00     
O    1.32888908e+00      -1.00314203e+00     2.23275165e+00      
H    9.26993830e-01      -1.35302972e+00     3.03114432e+00      
H    2.25363611e+00      -8.71989776e-01     2.45424981e+00      
O    -2.72101551e+00     3.94647894e-01      1.14500670e-01      
H    -3.38890946e+00     7.34260917e-01      7.16676388e-01      
H    -2.97188685e+00     7.04153755e-01      -7.61816743e-01     
O    -1.62532730e+00     -1.28936241e+00     -5.43118982e+00     
H    -1.71443858e+00     -1.99531877e+00     -6.08141931e+00     
H    -2.37534620e+00     -7.09694163e-01     -5.58237556e+00     
