23
1569.252362
N    -1.60530981e-03     -2.07126445e-02     -2.03719429e-02     
H    4.94343351e-01      -3.79473944e-01     8.30597591e-01      
H    -1.03746439e+00     1.66515055e-01      6.03057249e-02      
H    4.82334800e-01      7.18730071e-01      -5.96917685e-01     
C    3.93923523e-02      -1.20935757e+00     -9.33206720e-01     
H    1.08425788e+00      -1.44677391e+00     -1.11960190e+00     
H    -5.01000105e-01     -2.01944013e+00     -4.48052849e-01     
C    -6.41636227e-01     -8.49123440e-01     -2.23378505e+00     
O    -1.17039340e+00     2.33568326e-01      -2.44800075e+00     
O    -5.74946806e-01     -1.86640072e+00     -3.06971936e+00     
H    -1.00297558e+00     -1.61621156e+00     -3.94215513e+00     
O    1.26749877e+00      1.81365214e+00      -1.64171599e+00     
H    1.86163159e+00      2.56407779e+00      -1.55841141e+00     
H    6.75985943e-01      2.02006311e+00      -2.37146327e+00     
O    1.32748676e+00      -1.00124373e+00     2.23014660e+00      
H    9.14463739e-01      -1.35002848e+00     3.02269476e+00      
H    2.25314154e+00      -8.67360538e-01     2.44367247e+00      
O    -2.72274110e+00     3.94579061e-01      1.11543024e-01      
H    -3.37215017e+00     7.35561520e-01      7.32291119e-01      
H    -2.99187830e+00     7.12658770e-01      -7.55451794e-01     
O    -1.61915272e+00     -1.29887439e+00     -5.42188336e+00     
H    -1.72638571e+00     -1.96012844e+00     -6.11534180e+00     
H    -2.36479837e+00     -7.07329309e-01     -5.55451878e+00     
23
1569.252362
N    -1.88551364e-03     -2.41350967e-02     -2.38096606e-02     
H    4.88424087e-01      -3.54016288e-01     8.37381251e-01      
H    -1.02708826e+00     1.83446694e-01      7.94698752e-02      
H    4.80555628e-01      7.30762879e-01      -5.72384760e-01     
C    3.92145093e-02      -1.20821361e+00     -9.32675092e-01     
H    1.08132456e+00      -1.45613067e+00     -1.11875249e+00     
H    -4.93699716e-01     -2.02501867e+00     -4.51311916e-01     
C    -6.42092395e-01     -8.48479466e-01     -2.23425462e+00     
O    -1.17002221e+00     2.32905499e-01      -2.44775525e+00     
O    -5.74977161e-01     -1.86632306e+00     -3.06970795e+00     
H    -1.00289458e+00     -1.61599073e+00     -3.94206643e+00     
O    1.26739383e+00      1.81349215e+00      -1.64181635e+00     
H    1.86145053e+00      2.56394140e+00      -1.55787544e+00     
H    6.76653513e-01      2.02088407e+00      -2.37194677e+00     
O    1.32736829e+00      -1.00125260e+00     2.22987215e+00      
H    9.16409141e-01      -1.35004429e+00     3.02366790e+00      
H    2.25278066e+00      -8.68198811e-01     2.44562421e+00      
O    -2.72271729e+00     3.94501240e-01      1.11348172e-01      
H    -3.37136880e+00     7.35468829e-01      7.32894801e-01      
H    -2.99266226e+00     7.12680345e-01      -7.55369608e-01     
O    -1.61942917e+00     -1.29889694e+00     -5.42213580e+00     
H    -1.72325188e+00     -1.96173881e+00     -6.11401528e+00     
H    -2.36353804e+00     -7.05361720e-01     -5.55167231e+00     
23
1569.252362
N    -2.02561556e-03     -2.58463228e-02     -2.55285194e-02     
H    4.85464455e-01      -3.41287460e-01     8.40773080e-01      
H    -1.02190019e+00     1.91912514e-01      8.90519503e-02      
H    4.79666042e-01      7.36779283e-01      -5.60118297e-01     
C    3.91255878e-02      -1.20764163e+00     -9.32409278e-01     
H    1.07985789e+00      -1.46080904e+00     -1.11832779e+00     
H    -4.90049521e-01     -2.02780794e+00     -4.52941449e-01     
C    -6.42320478e-01     -8.48157478e-01     -2.23448941e+00     
O    -1.16983661e+00     2.32574085e-01      -2.44763250e+00     
O    -5.74992339e-01     -1.86628423e+00     -3.06970225e+00     
H    -1.00285408e+00     -1.61588032e+00     -3.94202209e+00     
O    1.26734136e+00      1.81341215e+00      -1.64186653e+00     
H    1.86136001e+00      2.56387321e+00      -1.55760745e+00     
H    6.76987298e-01      2.02129455e+00      -2.37218851e+00     
O    1.32730905e+00      -1.00125703e+00     2.22973492e+00      
H    9.17381842e-01      -1.35005220e+00     3.02415447e+00      
H    2.25260022e+00      -8.68617948e-01     2.44660008e+00      
O    -2.72270538e+00     3.94462330e-01      1.11250745e-01      
H    -3.37097811e+00     7.35422483e-01      7.33196642e-01      
H    -2.99305424e+00     7.12691132e-01      -7.55328516e-01     
O    -1.61956740e+00     -1.29890821e+00     -5.42226202e+00     
H    -1.72168497e+00     -1.96254400e+00     -6.11335202e+00     
H    -2.36290788e+00     -7.04377925e-01     -5.55024907e+00     
23
1569.252362
N    -2.16571748e-03     -2.75575489e-02     -2.72473783e-02     
H    4.82504823e-01      -3.28558632e-01     8.44164910e-01      
H    -1.01671212e+00     2.00378334e-01      9.86340255e-02      
H    4.78776456e-01      7.42795687e-01      -5.47851834e-01     
C    3.90366663e-02      -1.20706965e+00     -9.32143464e-01     
H    1.07839123e+00      -1.46548742e+00     -1.11790309e+00     
H    -4.86399326e-01     -2.03059721e+00     -4.54570982e-01     
C    -6.42548562e-01     -8.47835491e-01     -2.23472419e+00     
O    -1.16965102e+00     2.32242671e-01      -2.44750975e+00     
O    -5.75007516e-01     -1.86624541e+00     -3.06969654e+00     
H    -1.00281358e+00     -1.61576991e+00     -3.94197774e+00     
O    1.26728889e+00      1.81333215e+00      -1.64191671e+00     
H    1.86126948e+00      2.56380502e+00      -1.55733947e+00     
H    6.77321083e-01      2.02170503e+00      -2.37243026e+00     
O    1.32724981e+00      -1.00126147e+00     2.22959770e+00      
H    9.18354542e-01      -1.35006011e+00     3.02464104e+00      
H    2.25241977e+00      -8.69037084e-01     2.44757595e+00      
O    -2.72269348e+00     3.94423420e-01      1.11153319e-01      
H    -3.37058742e+00     7.35376138e-01      7.33498484e-01      
H    -2.99344622e+00     7.12701919e-01      -7.55287423e-01     
O    -1.61970563e+00     -1.29891948e+00     -5.42238824e+00     
H    -1.72011806e+00     -1.96334919e+00     -6.11268877e+00     
H    -2.36227771e+00     -7.03394130e-01     -5.54882583e+00     
23
1569.252362
N    -2.30581940e-03     -2.92687751e-02     -2.89662371e-02     
H    4.79545191e-01      -3.15829804e-01     8.47556740e-01      
H    -1.01152406e+00     2.08844154e-01      1.08216101e-01      
H    4.77886870e-01      7.48812092e-01      -5.35585371e-01     
C    3.89477448e-02      -1.20649768e+00     -9.31877650e-01     
H    1.07692456e+00      -1.47016579e+00     -1.11747839e+00     
H    -4.82749131e-01     -2.03338648e+00     -4.56200516e-01     
C    -6.42776646e-01     -8.47513504e-01     -2.23495898e+00     
O    -1.16946542e+00     2.31911257e-01      -2.44738699e+00     
O    -5.75022694e-01     -1.86620658e+00     -3.06969084e+00     
H    -1.00277308e+00     -1.61565949e+00     -3.94193340e+00     
O    1.26723643e+00      1.81325215e+00      -1.64196690e+00     
H    1.86117895e+00      2.56373683e+00      -1.55707148e+00     
H    6.77654868e-01      2.02211550e+00      -2.37267201e+00     
O    1.32719057e+00      -1.00126590e+00     2.22946047e+00      
H    9.19327243e-01      -1.35006801e+00     3.02512761e+00      
H    2.25223933e+00      -8.69456221e-01     2.44855183e+00      
O    -2.72268157e+00     3.94384510e-01      1.11055893e-01      
H    -3.37019673e+00     7.35329792e-01      7.33800325e-01      
H    -2.99383821e+00     7.12712706e-01      -7.55246330e-01     
O    -1.61984386e+00     -1.29893076e+00     -5.42251446e+00     
H    -1.71855115e+00     -1.96415438e+00     -6.11202551e+00     
H    -2.36164755e+00     -7.02410335e-01     -5.54740259e+00     
23
1569.252362
N    -2.44592131e-03     -3.09800012e-02     -3.06850960e-02     
H    4.76585559e-01      -3.03100976e-01     8.50948570e-01      
H    -1.00633599e+00     2.17309973e-01      1.17798176e-01      
H    4.76997284e-01      7.54828496e-01      -5.23318908e-01     
C    3.88588233e-02      -1.20592570e+00     -9.31611836e-01     
H    1.07545790e+00      -1.47484417e+00     -1.11705369e+00     
H    -4.79098937e-01     -2.03617575e+00     -4.57830049e-01     
C    -6.43004730e-01     -8.47191517e-01     -2.23519377e+00     
O    -1.16927982e+00     2.31579843e-01      -2.44726424e+00     
O    -5.75037871e-01     -1.86616775e+00     -3.06968513e+00     
H    -1.00273258e+00     -1.61554908e+00     -3.94188905e+00     
O    1.26718396e+00      1.81317215e+00      -1.64201708e+00     
H    1.86108842e+00      2.56366863e+00      -1.55680349e+00     
H    6.77988653e-01      2.02252598e+00      -2.37291376e+00     
O    1.32713133e+00      -1.00127033e+00     2.22932325e+00      
H    9.20299944e-01      -1.35007592e+00     3.02561419e+00      
H    2.25205889e+00      -8.69875358e-01     2.44952770e+00      
O    -2.72266966e+00     3.94345600e-01      1.10958467e-01      
H    -3.36980605e+00     7.35283447e-01      7.34102166e-01      
H    -2.99423019e+00     7.12723494e-01      -7.55205237e-01     
O    -1.61998208e+00     -1.29894203e+00     -5.42264068e+00     
H    -1.71698423e+00     -1.96495956e+00     -6.11136225e+00     
H    -2.36101738e+00     -7.01426541e-01     -5.54597935e+00     
23
1569.252362
N    -2.51597227e-03     -3.18356142e-02     -3.15445254e-02     
H    4.75105743e-01      -2.96736562e-01     8.52644485e-01      
H    -1.00374196e+00     2.21542883e-01      1.22589213e-01      
H    4.76552491e-01      7.57836698e-01      -5.17185676e-01     
C    3.88143626e-02      -1.20563971e+00     -9.31478929e-01     
H    1.07472457e+00      -1.47718336e+00     -1.11684134e+00     
H    -4.77273839e-01     -2.03757038e+00     -4.58644816e-01     
C    -6.43118771e-01     -8.47030524e-01     -2.23531116e+00     
O    -1.16918702e+00     2.31414136e-01      -2.44720287e+00     
O    -5.75045460e-01     -1.86614834e+00     -3.06968228e+00     
H    -1.00271233e+00     -1.61549387e+00     -3.94186688e+00     
O    1.26715772e+00      1.81313215e+00      -1.64204217e+00     
H    1.86104316e+00      2.56363454e+00      -1.55666950e+00     
H    6.78155545e-01      2.02273122e+00      -2.37303464e+00     
O    1.32710171e+00      -1.00127255e+00     2.22925464e+00      
H    9.20786295e-01      -1.35007987e+00     3.02585747e+00      
H    2.25196867e+00      -8.70084926e-01     2.45001563e+00      
O    -2.72266371e+00     3.94326145e-01      1.10909753e-01      
H    -3.36961070e+00     7.35260274e-01      7.34253086e-01      
H    -2.99442618e+00     7.12728887e-01      -7.55184690e-01     
O    -1.62005120e+00     -1.29894767e+00     -5.42270379e+00     
H    -1.71620078e+00     -1.96536216e+00     -6.11103062e+00     
H    -2.36070230e+00     -7.00934643e-01     -5.54526773e+00     
23
1569.252362
N    -2.58602323e-03     -3.26912273e-02     -3.24039548e-02     
H    4.73625927e-01      -2.90372148e-01     8.54340400e-01      
H    -1.00114793e+00     2.25775793e-01      1.27380251e-01      
H    4.76107698e-01      7.60844900e-01      -5.11052445e-01     
C    3.87699018e-02      -1.20535372e+00     -9.31346022e-01     
H    1.07399123e+00      -1.47952254e+00     -1.11662899e+00     
H    -4.75448742e-01     -2.03896502e+00     -4.59459583e-01     
C    -6.43232813e-01     -8.46869530e-01     -2.23542855e+00     
O    -1.16909423e+00     2.31248429e-01      -2.44714149e+00     
O    -5.75053049e-01     -1.86612893e+00     -3.06967943e+00     
H    -1.00269208e+00     -1.61543866e+00     -3.94184471e+00     
O    1.26713149e+00      1.81309215e+00      -1.64206726e+00     
H    1.86099790e+00      2.56360044e+00      -1.55653551e+00     
H    6.78322438e-01      2.02293646e+00      -2.37315551e+00     
O    1.32707209e+00      -1.00127477e+00     2.22918602e+00      
H    9.21272645e-01      -1.35008382e+00     3.02610076e+00      
H    2.25187845e+00      -8.70294494e-01     2.45050357e+00      
O    -2.72265776e+00     3.94306690e-01      1.10861040e-01      
H    -3.36941536e+00     7.35237101e-01      7.34404007e-01      
H    -2.99462217e+00     7.12734281e-01      -7.55164144e-01     
O    -1.62012031e+00     -1.29895331e+00     -5.42276690e+00     
H    -1.71541732e+00     -1.96576475e+00     -6.11069899e+00     
H    -2.36038722e+00     -7.00442746e-01     -5.54455611e+00     
23
1569.252362
N    -2.86622707e-03     -3.61136795e-02     -3.58416726e-02     
H    4.67706663e-01      -2.64914492e-01     8.61124060e-01      
H    -9.90771793e-01     2.42707433e-01      1.46544401e-01      
H    4.74328526e-01      7.72877708e-01      -4.86519519e-01     
C    3.85920588e-02      -1.20420976e+00     -9.30814394e-01     
H    1.07105791e+00      -1.48887930e+00     -1.11577959e+00     
H    -4.68148352e-01     -2.04454356e+00     -4.62718649e-01     
C    -6.43688981e-01     -8.46225556e-01     -2.23589813e+00     
O    -1.16872303e+00     2.30585601e-01      -2.44689599e+00     
O    -5.75083403e-01     -1.86605127e+00     -3.06966801e+00     
H    -1.00261108e+00     -1.61521784e+00     -3.94175601e+00     
O    1.26702655e+00      1.81293215e+00      -1.64216762e+00     
H    1.86081684e+00      2.56346406e+00      -1.55599953e+00     
H    6.78990008e-01      2.02375742e+00      -2.37363901e+00     
O    1.32695361e+00      -1.00128363e+00     2.22891158e+00      
H    9.23218047e-01      -1.35009964e+00     3.02707390e+00      
H    2.25151757e+00      -8.71132768e-01     2.45245531e+00      
O    -2.72263394e+00     3.94228870e-01      1.10666188e-01      
H    -3.36863398e+00     7.35144411e-01      7.35007689e-01      
H    -2.99540613e+00     7.12755855e-01      -7.55081958e-01     
O    -1.62039677e+00     -1.29897585e+00     -5.42301934e+00     
H    -1.71228350e+00     -1.96737513e+00     -6.10937247e+00     
H    -2.35912688e+00     -6.98475156e-01     -5.54170963e+00     
23
1569.252362
N    -2.93627803e-03     -3.69692926e-02     -3.67011020e-02     
H    4.66226847e-01      -2.58550078e-01     8.62819975e-01      
H    -9.88177760e-01     2.46940343e-01      1.51335439e-01      
H    4.73883733e-01      7.75885910e-01      -4.80386288e-01     
C    3.85475980e-02      -1.20392377e+00     -9.30681487e-01     
H    1.07032457e+00      -1.49121848e+00     -1.11556724e+00     
H    -4.66323255e-01     -2.04593820e+00     -4.63533416e-01     
C    -6.43803023e-01     -8.46064562e-01     -2.23601552e+00     
O    -1.16863024e+00     2.30419894e-01      -2.44683461e+00     
O    -5.75090992e-01     -1.86603186e+00     -3.06966516e+00     
H    -1.00259083e+00     -1.61516263e+00     -3.94173384e+00     
O    1.26700032e+00      1.81289215e+00      -1.64219271e+00     
H    1.86077158e+00      2.56342996e+00      -1.55586554e+00     
H    6.79156901e-01      2.02396266e+00      -2.37375988e+00     
O    1.32692399e+00      -1.00128585e+00     2.22884296e+00      
H    9.23704397e-01      -1.35010359e+00     3.02731719e+00      
H    2.25142735e+00      -8.71342336e-01     2.45294325e+00      
O    -2.72262799e+00     3.94209415e-01      1.10617475e-01      
H    -3.36843864e+00     7.35121238e-01      7.35158610e-01      
H    -2.99560212e+00     7.12761249e-01      -7.55061412e-01     
O    -1.62046588e+00     -1.29898149e+00     -5.42308245e+00     
H    -1.71150004e+00     -1.96777772e+00     -6.10904084e+00     
H    -2.35881180e+00     -6.97983259e-01     -5.54099801e+00     
23
1569.252362
N    -3.00632899e-03     -3.78249056e-02     -3.75605314e-02     
H    4.64747031e-01      -2.52185664e-01     8.64515890e-01      
H    -9.85583727e-01     2.51173253e-01      1.56126476e-01      
H    4.73438940e-01      7.78894112e-01      -4.74253056e-01     
C    3.85031373e-02      -1.20363778e+00     -9.30548580e-01     
H    1.06959124e+00      -1.49355767e+00     -1.11535489e+00     
H    -4.64498157e-01     -2.04733283e+00     -4.64348183e-01     
C    -6.43917064e-01     -8.45903569e-01     -2.23613291e+00     
O    -1.16853744e+00     2.30254187e-01      -2.44677324e+00     
O    -5.75098581e-01     -1.86601245e+00     -3.06966231e+00     
H    -1.00257058e+00     -1.61510742e+00     -3.94171167e+00     
O    1.26697408e+00      1.81285215e+00      -1.64221780e+00     
H    1.86072632e+00      2.56339587e+00      -1.55573155e+00     
H    6.79323793e-01      2.02416790e+00      -2.37388076e+00     
O    1.32689437e+00      -1.00128807e+00     2.22877435e+00      
H    9.24190748e-01      -1.35010754e+00     3.02756047e+00      
H    2.25133713e+00      -8.71551904e-01     2.45343118e+00      
O    -2.72262204e+00     3.94189960e-01      1.10568761e-01      
H    -3.36824329e+00     7.35098065e-01      7.35309530e-01      
H    -2.99579811e+00     7.12766642e-01      -7.55040865e-01     
O    -1.62053500e+00     -1.29898713e+00     -5.42314556e+00     
H    -1.71071659e+00     -1.96818032e+00     -6.10870921e+00     
H    -2.35849672e+00     -6.97491361e-01     -5.54028639e+00     
23
1569.252362
N    -3.14643090e-03     -3.95361317e-02     -3.92793903e-02     
H    4.61787399e-01      -2.39456836e-01     8.67907720e-01      
H    -9.80395661e-01     2.59639072e-01      1.65708551e-01      
H    4.72549354e-01      7.84910516e-01      -4.61986593e-01     
C    3.84142158e-02      -1.20306580e+00     -9.30282766e-01     
H    1.06812458e+00      -1.49823605e+00     -1.11493019e+00     
H    -4.60847963e-01     -2.05012210e+00     -4.65977716e-01     
C    -6.44145148e-01     -8.45581582e-01     -2.23636770e+00     
O    -1.16835184e+00     2.29922773e-01      -2.44665049e+00     
O    -5.75113758e-01     -1.86597362e+00     -3.06965660e+00     
H    -1.00253008e+00     -1.61499701e+00     -3.94166732e+00     
O    1.26692161e+00      1.81277215e+00      -1.64226798e+00     
H    1.86063579e+00      2.56332767e+00      -1.55546356e+00     
H    6.79657578e-01      2.02457838e+00      -2.37412251e+00     
O    1.32683513e+00      -1.00129250e+00     2.22863713e+00      
H    9.25163449e-01      -1.35011545e+00     3.02804705e+00      
H    2.25115669e+00      -8.71971041e-01     2.45440705e+00      
O    -2.72261013e+00     3.94151050e-01      1.10471335e-01      
H    -3.36785261e+00     7.35051720e-01      7.35611371e-01      
H    -2.99619009e+00     7.12777430e-01      -7.54999772e-01     
O    -1.62067322e+00     -1.29899840e+00     -5.42327178e+00     
H    -1.70914967e+00     -1.96898550e+00     -6.10804595e+00     
H    -2.35786655e+00     -6.96507567e-01     -5.53886315e+00     
23
1569.252362
N    -3.28653282e-03     -4.12473579e-02     -4.09982491e-02     
H    4.58827767e-01      -2.26728008e-01     8.71299550e-01      
H    -9.75207594e-01     2.68104892e-01      1.75290627e-01      
H    4.71659768e-01      7.90926921e-01      -4.49720130e-01     
C    3.83252943e-02      -1.20249383e+00     -9.30016952e-01     
H    1.06665791e+00      -1.50291442e+00     -1.11450549e+00     
H    -4.57197768e-01     -2.05291137e+00     -4.67607250e-01     
C    -6.44373232e-01     -8.45259595e-01     -2.23660249e+00     
O    -1.16816624e+00     2.29591359e-01      -2.44652773e+00     
O    -5.75128936e-01     -1.86593479e+00     -3.06965090e+00     
H    -1.00248958e+00     -1.61488659e+00     -3.94162298e+00     
O    1.26686915e+00      1.81269215e+00      -1.64231817e+00     
H    1.86054526e+00      2.56325948e+00      -1.55519557e+00     
H    6.79991363e-01      2.02498885e+00      -2.37436426e+00     
O    1.32677589e+00      -1.00129693e+00     2.22849990e+00      
H    9.26136150e-01      -1.35012335e+00     3.02853362e+00      
H    2.25097625e+00      -8.72390178e-01     2.45538293e+00      
O    -2.72259822e+00     3.94112140e-01      1.10373909e-01      
H    -3.36746192e+00     7.35005374e-01      7.35913212e-01      
H    -2.99658208e+00     7.12788217e-01      -7.54958679e-01     
O    -1.62081145e+00     -1.29900968e+00     -5.42339800e+00     
H    -1.70758276e+00     -1.96979069e+00     -6.10738269e+00     
H    -2.35723639e+00     -6.95523772e-01     -5.53743991e+00     
23
1569.252362
N    -3.42663474e-03     -4.29585840e-02     -4.27171080e-02     
H    4.55868135e-01      -2.13999180e-01     8.74691380e-01      
H    -9.70019528e-01     2.76570712e-01      1.84872702e-01      
H    4.70770182e-01      7.96943325e-01      -4.37453667e-01     
C    3.82363728e-02      -1.20192185e+00     -9.29751138e-01     
H    1.06519125e+00      -1.50759280e+00     -1.11408079e+00     
H    -4.53547573e-01     -2.05570064e+00     -4.69236783e-01     
C    -6.44601316e-01     -8.44937608e-01     -2.23683727e+00     
O    -1.16798065e+00     2.29259945e-01      -2.44640498e+00     
O    -5.75144113e-01     -1.86589597e+00     -3.06964519e+00     
H    -1.00244908e+00     -1.61477618e+00     -3.94157863e+00     
O    1.26681668e+00      1.81261215e+00      -1.64236835e+00     
H    1.86045473e+00      2.56319129e+00      -1.55492759e+00     
H    6.80325148e-01      2.02539933e+00      -2.37460601e+00     
O    1.32671665e+00      -1.00130137e+00     2.22836268e+00      
H    9.27108850e-01      -1.35013126e+00     3.02902019e+00      
H    2.25079580e+00      -8.72809314e-01     2.45635880e+00      
O    -2.72258632e+00     3.94073230e-01      1.10276483e-01      
H    -3.36707123e+00     7.34959029e-01      7.36215054e-01      
H    -2.99697406e+00     7.12799004e-01      -7.54917586e-01     
O    -1.62094968e+00     -1.29902095e+00     -5.42352422e+00     
H    -1.70601585e+00     -1.97059588e+00     -6.10671944e+00     
H    -2.35660622e+00     -6.94539977e-01     -5.53601667e+00     
23
1569.252362
N    -3.56673666e-03     -4.46698101e-02     -4.44359668e-02     
H    4.52908503e-01      -2.01270352e-01     8.78083209e-01      
H    -9.64831462e-01     2.85036532e-01      1.94454777e-01      
H    4.69880596e-01      8.02959729e-01      -4.25187204e-01     
C    3.81474513e-02      -1.20134987e+00     -9.29485324e-01     
H    1.06372458e+00      -1.51227117e+00     -1.11365609e+00     
H    -4.49897378e-01     -2.05848991e+00     -4.70866316e-01     
C    -6.44829399e-01     -8.44615620e-01     -2.23707206e+00     
O    -1.16779505e+00     2.28928531e-01      -2.44628223e+00     
O    -5.75159291e-01     -1.86585714e+00     -3.06963949e+00     
H    -1.00240858e+00     -1.61466577e+00     -3.94153429e+00     
O    1.26676421e+00      1.81253215e+00      -1.64241853e+00     
H    1.86036421e+00      2.56312310e+00      -1.55465960e+00     
H    6.80658933e-01      2.02580981e+00      -2.37484775e+00     
O    1.32665741e+00      -1.00130580e+00     2.22822545e+00      
H    9.28081551e-01      -1.35013917e+00     3.02950676e+00      
H    2.25061536e+00      -8.73228451e-01     2.45733467e+00      
O    -2.72257441e+00     3.94034320e-01      1.10179056e-01      
H    -3.36668054e+00     7.34912683e-01      7.36516895e-01      
H    -2.99736604e+00     7.12809791e-01      -7.54876494e-01     
O    -1.62108791e+00     -1.29903222e+00     -5.42365044e+00     
H    -1.70444894e+00     -1.97140107e+00     -6.10605618e+00     
H    -2.35597606e+00     -6.93556182e-01     -5.53459343e+00     
23
1569.252362
N    -3.84694049e-03     -4.80922623e-02     -4.78736845e-02     
H    4.46989239e-01      -1.75812696e-01     8.84866869e-01      
H    -9.54455330e-01     3.01968171e-01      2.13618927e-01      
H    4.68101424e-01      8.14992537e-01      -4.00654279e-01     
C    3.79696083e-02      -1.20020591e+00     -9.28953696e-01     
H    1.06079126e+00      -1.52162793e+00     -1.11280668e+00     
H    -4.42596989e-01     -2.06406845e+00     -4.74125383e-01     
C    -6.45285567e-01     -8.43971646e-01     -2.23754163e+00     
O    -1.16742386e+00     2.28265704e-01      -2.44603673e+00     
O    -5.75189646e-01     -1.86577948e+00     -3.06962808e+00     
H    -1.00232758e+00     -1.61444494e+00     -3.94144559e+00     
O    1.26665927e+00      1.81237216e+00      -1.64251889e+00     
H    1.86018315e+00      2.56298671e+00      -1.55412363e+00     
H    6.81326503e-01      2.02663077e+00      -2.37533125e+00     
O    1.32653894e+00      -1.00131467e+00     2.22795100e+00      
H    9.30026953e-01      -1.35015498e+00     3.03047990e+00      
H    2.25025448e+00      -8.74066724e-01     2.45928641e+00      
O    -2.72255060e+00     3.93956499e-01      1.09984204e-01      
H    -3.36589917e+00     7.34819992e-01      7.37120577e-01      
H    -2.99815000e+00     7.12831366e-01      -7.54794308e-01     
O    -1.62136436e+00     -1.29905477e+00     -5.42390288e+00     
H    -1.70131511e+00     -1.97301144e+00     -6.10472966e+00     
H    -2.35471573e+00     -6.91588593e-01     -5.53174696e+00     
