23
1651.322574
N    -2.58741540e-03     -3.28302899e-02     -3.28020207e-02     
H    4.70118205e-01      -2.81129469e-01     8.58829005e-01      
H    -1.00228991e+00     2.19168838e-01      1.34416157e-01      
H    4.84348882e-01      7.56149368e-01      -5.11130158e-01     
C    3.83274729e-02      -1.20488848e+00     -9.32242517e-01     
H    1.07356629e+00      -1.48083061e+00     -1.11431664e+00     
H    -4.72954013e-01     -2.03880409e+00     -4.58004525e-01     
C    -6.43407697e-01     -8.46568759e-01     -2.23554338e+00     
O    -1.16878888e+00     2.30834172e-01      -2.44694159e+00     
O    -5.74909684e-01     -1.86600611e+00     -3.06916484e+00     
H    -1.00393728e+00     -1.61734784e+00     -3.94387425e+00     
O    1.26709239e+00      1.81325368e+00      -1.64218519e+00     
H    1.86166361e+00      2.56288697e+00      -1.55515972e+00     
H    6.77653095e-01      2.02136380e+00      -2.37302655e+00     
O    1.32701673e+00      -1.00126308e+00     2.22902924e+00      
H    9.22364825e-01      -1.35003517e+00     3.02666413e+00      
H    2.25167929e+00      -8.70823382e-01     2.45173957e+00      
O    -2.72484060e+00     3.95763402e-01      1.10312760e-01      
H    -3.35651648e+00     7.24242255e-01      7.53702378e-01      
H    -2.97429176e+00     7.00669876e-01      -7.65967193e-01     
O    -1.63033551e+00     -1.29941035e+00     -5.43298350e+00     
H    -1.60004644e+00     -2.02974536e+00     -6.06180509e+00     
H    -2.31577955e+00     -6.26698149e-01     -5.43699458e+00     
23
1651.322574
N    -2.62209284e-03     -3.32233308e-02     -3.31322189e-02     
H    4.70255228e-01      -2.80257932e-01     8.58554811e-01      
H    -1.00070739e+00     2.22937032e-01      1.35052699e-01      
H    4.82066190e-01      7.58827352e-01      -5.08044114e-01     
C    3.84158497e-02      -1.20486179e+00     -9.31951940e-01     
H    1.07330586e+00      -1.48167319e+00     -1.11478855e+00     
H    -4.72665146e-01     -2.03954164e+00     -4.58775673e-01     
C    -6.43420997e-01     -8.46563455e-01     -2.23557337e+00     
O    -1.16881882e+00     2.30854883e-01      -2.44696088e+00     
O    -5.74949320e-01     -1.86602710e+00     -3.06929206e+00     
H    -1.00361585e+00     -1.61684294e+00     -3.94335578e+00     
O    1.26708904e+00      1.81319329e+00      -1.64216825e+00     
H    1.86147455e+00      2.56304829e+00      -1.55543667e+00     
H    6.77903877e-01      2.02185958e+00      -2.37311923e+00     
O    1.32701576e+00      -1.00126711e+00     2.22903413e+00      
H    9.22334955e-01      -1.35004931e+00     3.02664493e+00      
H    2.25168397e+00      -8.70795944e-01     2.45167454e+00      
O    -2.72429191e+00     3.95389496e-01      1.10425473e-01      
H    -3.35964353e+00     7.26979380e-01      7.48953245e-01      
H    -2.97947236e+00     7.03688674e-01      -7.63256158e-01     
O    -1.62781627e+00     -1.29929891e+00     -5.43046091e+00     
H    -1.62849743e+00     -2.01395151e+00     -6.07386275e+00     
H    -2.32677393e+00     -6.44888349e-01     -5.46352915e+00     
23
1651.322574
N    -2.63943156e-03     -3.34198512e-02     -3.32973181e-02     
H    4.70323739e-01      -2.79822163e-01     8.58417714e-01      
H    -9.99916139e-01     2.24821129e-01      1.35370970e-01      
H    4.80924843e-01      7.60166344e-01      -5.06501092e-01     
C    3.84600382e-02      -1.20484845e+00     -9.31806651e-01     
H    1.07317565e+00      -1.48209447e+00     -1.11502451e+00     
H    -4.72520713e-01     -2.03991042e+00     -4.59161247e-01     
C    -6.43427647e-01     -8.46560803e-01     -2.23558836e+00     
O    -1.16883379e+00     2.30865238e-01      -2.44697052e+00     
O    -5.74969137e-01     -1.86603760e+00     -3.06935567e+00     
H    -1.00345514e+00     -1.61659049e+00     -3.94309654e+00     
O    1.26708737e+00      1.81316310e+00      -1.64215978e+00     
H    1.86138002e+00      2.56312895e+00      -1.55557514e+00     
H    6.78029268e-01      2.02210748e+00      -2.37316557e+00     
O    1.32701527e+00      -1.00126912e+00     2.22903658e+00      
H    9.22320020e-01      -1.35005638e+00     3.02663533e+00      
H    2.25168631e+00      -8.70782225e-01     2.45164202e+00      
O    -2.72401757e+00     3.95202543e-01      1.10481830e-01      
H    -3.36120705e+00     7.28347943e-01      7.46578679e-01      
H    -2.98206266e+00     7.05198073e-01      -7.61900640e-01     
O    -1.62655664e+00     -1.29924319e+00     -5.42919961e+00     
H    -1.64272293e+00     -2.00605458e+00     -6.07989158e+00     
H    -2.33227111e+00     -6.53983450e-01     -5.47679644e+00     
23
1651.322574
N    -2.65677028e-03     -3.36163717e-02     -3.34624172e-02     
H    4.70392250e-01      -2.79386395e-01     8.58280617e-01      
H    -9.99124883e-01     2.26705225e-01      1.35689241e-01      
H    4.79783497e-01      7.61505336e-01      -5.04958070e-01     
C    3.85042266e-02      -1.20483511e+00     -9.31661363e-01     
H    1.07304543e+00      -1.48251576e+00     -1.11526047e+00     
H    -4.72376280e-01     -2.04027919e+00     -4.59546821e-01     
C    -6.43434297e-01     -8.46558151e-01     -2.23560336e+00     
O    -1.16884876e+00     2.30875594e-01      -2.44698016e+00     
O    -5.74988955e-01     -1.86604810e+00     -3.06941928e+00     
H    -1.00329443e+00     -1.61633804e+00     -3.94283730e+00     
O    1.26708570e+00      1.81313291e+00      -1.64215131e+00     
H    1.86128549e+00      2.56320961e+00      -1.55571362e+00     
H    6.78154659e-01      2.02235537e+00      -2.37321191e+00     
O    1.32701479e+00      -1.00127114e+00     2.22903902e+00      
H    9.22305086e-01      -1.35006345e+00     3.02662573e+00      
H    2.25168865e+00      -8.70768506e-01     2.45160951e+00      
O    -2.72374322e+00     3.95015591e-01      1.10538187e-01      
H    -3.36277058e+00     7.29716505e-01      7.44204113e-01      
H    -2.98465295e+00     7.06707472e-01      -7.60545122e-01     
O    -1.62529702e+00     -1.29918747e+00     -5.42793831e+00     
H    -1.65694843e+00     -1.99815765e+00     -6.08592041e+00     
H    -2.33776830e+00     -6.63078550e-01     -5.49006373e+00     
23
1651.322574
N    -2.67410899e-03     -3.38128921e-02     -3.36275163e-02     
H    4.70460761e-01      -2.78950626e-01     8.58143521e-01      
H    -9.98333627e-01     2.28589322e-01      1.36007513e-01      
H    4.78642151e-01      7.62844328e-01      -5.03415048e-01     
C    3.85484150e-02      -1.20482177e+00     -9.31516074e-01     
H    1.07291522e+00      -1.48293705e+00     -1.11549642e+00     
H    -4.72231847e-01     -2.04064797e+00     -4.59932394e-01     
C    -6.43440947e-01     -8.46555499e-01     -2.23561835e+00     
O    -1.16886372e+00     2.30885949e-01      -2.44698981e+00     
O    -5.75008773e-01     -1.86605860e+00     -3.06948289e+00     
H    -1.00313372e+00     -1.61608560e+00     -3.94257807e+00     
O    1.26708403e+00      1.81310272e+00      -1.64214285e+00     
H    1.86119096e+00      2.56329027e+00      -1.55585209e+00     
H    6.78280050e-01      2.02260326e+00      -2.37325825e+00     
O    1.32701430e+00      -1.00127315e+00     2.22904147e+00      
H    9.22290151e-01      -1.35007052e+00     3.02661613e+00      
H    2.25169099e+00      -8.70754787e-01     2.45157699e+00      
O    -2.72346888e+00     3.94828638e-01      1.10594544e-01      
H    -3.36433410e+00     7.31085068e-01      7.41829547e-01      
H    -2.98724325e+00     7.08216871e-01      -7.59189604e-01     
O    -1.62403740e+00     -1.29913175e+00     -5.42667701e+00     
H    -1.67117392e+00     -1.99026072e+00     -6.09194924e+00     
H    -2.34326549e+00     -6.72173650e-01     -5.50333101e+00     
23
1651.322574
N    -2.69144771e-03     -3.40094125e-02     -3.37926154e-02     
H    4.70529273e-01      -2.78514857e-01     8.58006424e-01      
H    -9.97542371e-01     2.30473419e-01      1.36325784e-01      
H    4.77500805e-01      7.64183320e-01      -5.01872026e-01     
C    3.85926034e-02      -1.20480842e+00     -9.31370785e-01     
H    1.07278500e+00      -1.48335834e+00     -1.11573238e+00     
H    -4.72087413e-01     -2.04101674e+00     -4.60317968e-01     
C    -6.43447597e-01     -8.46552847e-01     -2.23563335e+00     
O    -1.16887869e+00     2.30896304e-01      -2.44699945e+00     
O    -5.75028591e-01     -1.86606910e+00     -3.06954650e+00     
H    -1.00297300e+00     -1.61583315e+00     -3.94231883e+00     
O    1.26708236e+00      1.81307253e+00      -1.64213438e+00     
H    1.86109643e+00      2.56337093e+00      -1.55599057e+00     
H    6.78405441e-01      2.02285115e+00      -2.37330458e+00     
O    1.32701382e+00      -1.00127517e+00     2.22904391e+00      
H    9.22275216e-01      -1.35007759e+00     3.02660653e+00      
H    2.25169333e+00      -8.70741069e-01     2.45154447e+00      
O    -2.72319454e+00     3.94641685e-01      1.10650900e-01      
H    -3.36589762e+00     7.32453631e-01      7.39454980e-01      
H    -2.98983355e+00     7.09726270e-01      -7.57834087e-01     
O    -1.62277778e+00     -1.29907602e+00     -5.42541572e+00     
H    -1.68539942e+00     -1.98236380e+00     -6.09797807e+00     
H    -2.34876268e+00     -6.81268750e-01     -5.51659830e+00     
23
1651.322574
N    -2.70011707e-03     -3.41076727e-02     -3.38751650e-02     
H    4.70563528e-01      -2.78296973e-01     8.57937875e-01      
H    -9.97146743e-01     2.31415468e-01      1.36484919e-01      
H    4.76930131e-01      7.64852816e-01      -5.01100515e-01     
C    3.86146977e-02      -1.20480175e+00     -9.31298141e-01     
H    1.07271989e+00      -1.48356899e+00     -1.11585036e+00     
H    -4.72015197e-01     -2.04120113e+00     -4.60510755e-01     
C    -6.43450922e-01     -8.46551521e-01     -2.23564085e+00     
O    -1.16888618e+00     2.30901482e-01      -2.44700427e+00     
O    -5.75038499e-01     -1.86607435e+00     -3.06957831e+00     
H    -1.00289265e+00     -1.61570692e+00     -3.94218921e+00     
O    1.26708153e+00      1.81305744e+00      -1.64213014e+00     
H    1.86104917e+00      2.56341126e+00      -1.55605981e+00     
H    6.78468136e-01      2.02297510e+00      -2.37332775e+00     
O    1.32701358e+00      -1.00127618e+00     2.22904513e+00      
H    9.22267748e-01      -1.35008112e+00     3.02660173e+00      
H    2.25169450e+00      -8.70734209e-01     2.45152821e+00      
O    -2.72305737e+00     3.94548209e-01      1.10679079e-01      
H    -3.36667938e+00     7.33137912e-01      7.38267697e-01      
H    -2.99112870e+00     7.10480969e-01      -7.57156328e-01     
O    -1.62214797e+00     -1.29904816e+00     -5.42478507e+00     
H    -1.69251217e+00     -1.97841533e+00     -6.10099249e+00     
H    -2.35151127e+00     -6.85816301e-01     -5.52323194e+00     
23
1651.322574
N    -2.70878643e-03     -3.42059330e-02     -3.39577146e-02     
H    4.70597784e-01      -2.78079089e-01     8.57869327e-01      
H    -9.96751115e-01     2.32357516e-01      1.36644055e-01      
H    4.76359458e-01      7.65522312e-01      -5.00329004e-01     
C    3.86367919e-02      -1.20479508e+00     -9.31225497e-01     
H    1.07265479e+00      -1.48377963e+00     -1.11596833e+00     
H    -4.71942980e-01     -2.04138552e+00     -4.60703542e-01     
C    -6.43454247e-01     -8.46550195e-01     -2.23564834e+00     
O    -1.16889366e+00     2.30906660e-01      -2.44700910e+00     
O    -5.75048408e-01     -1.86607960e+00     -3.06961011e+00     
H    -1.00281229e+00     -1.61558070e+00     -3.94205960e+00     
O    1.26708069e+00      1.81304234e+00      -1.64212591e+00     
H    1.86100190e+00      2.56345159e+00      -1.55612904e+00     
H    6.78530832e-01      2.02309905e+00      -2.37335092e+00     
O    1.32701333e+00      -1.00127718e+00     2.22904636e+00      
H    9.22260281e-01      -1.35008466e+00     3.02659693e+00      
H    2.25169567e+00      -8.70727350e-01     2.45151196e+00      
O    -2.72292019e+00     3.94454733e-01      1.10707257e-01      
H    -3.36746115e+00     7.33822193e-01      7.37080414e-01      
H    -2.99242385e+00     7.11235669e-01      -7.56478569e-01     
O    -1.62151816e+00     -1.29902030e+00     -5.42415442e+00     
H    -1.69962491e+00     -1.97446687e+00     -6.10400690e+00     
H    -2.35425986e+00     -6.90363851e-01     -5.52986558e+00     
23
1651.322574
N    -2.74346387e-03     -3.45989738e-02     -3.42879128e-02     
H    4.70734806e-01      -2.77207551e-01     8.57595133e-01      
H    -9.95168603e-01     2.36125710e-01      1.37280597e-01      
H    4.74076766e-01      7.68200296e-01      -4.97242960e-01     
C    3.87251687e-02      -1.20476840e+00     -9.30934919e-01     
H    1.07239435e+00      -1.48462221e+00     -1.11644025e+00     
H    -4.71654114e-01     -2.04212306e+00     -4.61474690e-01     
C    -6.43467547e-01     -8.46544891e-01     -2.23567834e+00     
O    -1.16892360e+00     2.30927370e-01      -2.44702838e+00     
O    -5.75088044e-01     -1.86610060e+00     -3.06973733e+00     
H    -1.00249087e+00     -1.61507580e+00     -3.94154112e+00     
O    1.26707735e+00      1.81298196e+00      -1.64210897e+00     
H    1.86081284e+00      2.56361291e+00      -1.55640600e+00     
H    6.78781614e-01      2.02359483e+00      -2.37344360e+00     
O    1.32701237e+00      -1.00128122e+00     2.22905124e+00      
H    9.22230411e-01      -1.35009880e+00     3.02657773e+00      
H    2.25170035e+00      -8.70699912e-01     2.45144692e+00      
O    -2.72237151e+00     3.94080827e-01      1.10819971e-01      
H    -3.37058819e+00     7.36559319e-01      7.32331282e-01      
H    -2.99760445e+00     7.14254467e-01      -7.53767533e-01     
O    -1.61899892e+00     -1.29890886e+00     -5.42163182e+00     
H    -1.72807591e+00     -1.95867301e+00     -6.11606456e+00     
H    -2.36525424e+00     -7.08554051e-01     -5.55640016e+00     
23
1651.322574
N    -2.75213323e-03     -3.46972341e-02     -3.43704624e-02     
H    4.70769062e-01      -2.76989667e-01     8.57526585e-01      
H    -9.94772975e-01     2.37067758e-01      1.37439733e-01      
H    4.73506093e-01      7.68869792e-01      -4.96471449e-01     
C    3.87472629e-02      -1.20476173e+00     -9.30862275e-01     
H    1.07232925e+00      -1.48483285e+00     -1.11655822e+00     
H    -4.71581897e-01     -2.04230745e+00     -4.61667477e-01     
C    -6.43470872e-01     -8.46543565e-01     -2.23568583e+00     
O    -1.16893108e+00     2.30932548e-01      -2.44703321e+00     
O    -5.75097953e-01     -1.86610585e+00     -3.06976913e+00     
H    -1.00241051e+00     -1.61494958e+00     -3.94141151e+00     
O    1.26707651e+00      1.81296686e+00      -1.64210474e+00     
H    1.86076557e+00      2.56365324e+00      -1.55647523e+00     
H    6.78844310e-01      2.02371878e+00      -2.37346677e+00     
O    1.32701212e+00      -1.00128222e+00     2.22905247e+00      
H    9.22222944e-01      -1.35010234e+00     3.02657293e+00      
H    2.25170152e+00      -8.70693053e-01     2.45143067e+00      
O    -2.72223433e+00     3.93987351e-01      1.10848149e-01      
H    -3.37136996e+00     7.37243600e-01      7.31143999e-01      
H    -2.99889960e+00     7.15009167e-01      -7.53089774e-01     
O    -1.61836911e+00     -1.29888100e+00     -5.42100117e+00     
H    -1.73518865e+00     -1.95472455e+00     -6.11907897e+00     
H    -2.36800283e+00     -7.13101601e-01     -5.56303380e+00     
23
1651.322574
N    -2.76080259e-03     -3.47954943e-02     -3.44530120e-02     
H    4.70803317e-01      -2.76771783e-01     8.57458036e-01      
H    -9.94377347e-01     2.38009807e-01      1.37598868e-01      
H    4.72935419e-01      7.69539288e-01      -4.95699938e-01     
C    3.87693572e-02      -1.20475506e+00     -9.30789631e-01     
H    1.07226414e+00      -1.48504350e+00     -1.11667620e+00     
H    -4.71509681e-01     -2.04249184e+00     -4.61860264e-01     
C    -6.43474197e-01     -8.46542239e-01     -2.23569333e+00     
O    -1.16893857e+00     2.30937726e-01      -2.44703803e+00     
O    -5.75107861e-01     -1.86611110e+00     -3.06980094e+00     
H    -1.00233016e+00     -1.61482335e+00     -3.94128189e+00     
O    1.26707568e+00      1.81295177e+00      -1.64210050e+00     
H    1.86071831e+00      2.56369357e+00      -1.55654447e+00     
H    6.78907005e-01      2.02384273e+00      -2.37348994e+00     
O    1.32701188e+00      -1.00128323e+00     2.22905369e+00      
H    9.22215476e-01      -1.35010587e+00     3.02656813e+00      
H    2.25170269e+00      -8.70686193e-01     2.45141441e+00      
O    -2.72209716e+00     3.93893875e-01      1.10876328e-01      
H    -3.37215172e+00     7.37927881e-01      7.29956716e-01      
H    -3.00019475e+00     7.15763866e-01      -7.52412015e-01     
O    -1.61773930e+00     -1.29885314e+00     -5.42037052e+00     
H    -1.74230140e+00     -1.95077608e+00     -6.12209339e+00     
H    -2.37075142e+00     -7.17649152e-01     -5.56966744e+00     
23
1651.322574
N    -2.77814131e-03     -3.49920147e-02     -3.46181111e-02     
H    4.70871829e-01      -2.76336014e-01     8.57320939e-01      
H    -9.93586091e-01     2.39893904e-01      1.37917139e-01      
H    4.71794073e-01      7.70878280e-01      -4.94156916e-01     
C    3.88135456e-02      -1.20474171e+00     -9.30644342e-01     
H    1.07213392e+00      -1.48546479e+00     -1.11691216e+00     
H    -4.71365247e-01     -2.04286061e+00     -4.62245838e-01     
C    -6.43480847e-01     -8.46539587e-01     -2.23570833e+00     
O    -1.16895354e+00     2.30948081e-01      -2.44704767e+00     
O    -5.75127679e-01     -1.86612160e+00     -3.06986455e+00     
H    -1.00216944e+00     -1.61457090e+00     -3.94102265e+00     
O    1.26707401e+00      1.81292158e+00      -1.64209203e+00     
H    1.86062378e+00      2.56377423e+00      -1.55668295e+00     
H    6.79032396e-01      2.02409062e+00      -2.37353627e+00     
O    1.32701140e+00      -1.00128525e+00     2.22905613e+00      
H    9.22200541e-01      -1.35011294e+00     3.02655853e+00      
H    2.25170503e+00      -8.70672475e-01     2.45138189e+00      
O    -2.72182282e+00     3.93706922e-01      1.10932684e-01      
H    -3.37371524e+00     7.39296444e-01      7.27582149e-01      
H    -3.00278505e+00     7.17273265e-01      -7.51056498e-01     
O    -1.61647968e+00     -1.29879741e+00     -5.41910923e+00     
H    -1.75652690e+00     -1.94287916e+00     -6.12812222e+00     
H    -2.37624861e+00     -7.26744252e-01     -5.58293473e+00     
23
1651.322574
N    -2.79548002e-03     -3.51885351e-02     -3.47832102e-02     
H    4.70940340e-01      -2.75900245e-01     8.57183843e-01      
H    -9.92794835e-01     2.41778001e-01      1.38235411e-01      
H    4.70652727e-01      7.72217272e-01      -4.92613894e-01     
C    3.88577340e-02      -1.20472837e+00     -9.30499053e-01     
H    1.07200371e+00      -1.48588608e+00     -1.11714811e+00     
H    -4.71220814e-01     -2.04322939e+00     -4.62631411e-01     
C    -6.43487497e-01     -8.46536935e-01     -2.23572332e+00     
O    -1.16896850e+00     2.30958436e-01      -2.44705732e+00     
O    -5.75147497e-01     -1.86613210e+00     -3.06992816e+00     
H    -1.00200873e+00     -1.61431846e+00     -3.94076342e+00     
O    1.26707234e+00      1.81289139e+00      -1.64208357e+00     
H    1.86052925e+00      2.56385489e+00      -1.55682142e+00     
H    6.79157787e-01      2.02433851e+00      -2.37358261e+00     
O    1.32701091e+00      -1.00128726e+00     2.22905858e+00      
H    9.22185606e-01      -1.35012001e+00     3.02654893e+00      
H    2.25170737e+00      -8.70658756e-01     2.45134937e+00      
O    -2.72154848e+00     3.93519969e-01      1.10989041e-01      
H    -3.37527876e+00     7.40665007e-01      7.25207583e-01      
H    -3.00537535e+00     7.18782664e-01      -7.49700980e-01     
O    -1.61522006e+00     -1.29874169e+00     -5.41784793e+00     
H    -1.77075239e+00     -1.93498223e+00     -6.13415105e+00     
H    -2.38174580e+00     -7.35839352e-01     -5.59620201e+00     
23
1651.322574
N    -2.81281874e-03     -3.53850556e-02     -3.49483093e-02     
H    4.71008851e-01      -2.75464477e-01     8.57046746e-01      
H    -9.92003579e-01     2.43662097e-01      1.38553682e-01      
H    4.69511381e-01      7.73556264e-01      -4.91070872e-01     
C    3.89019224e-02      -1.20471503e+00     -9.30353765e-01     
H    1.07187349e+00      -1.48630737e+00     -1.11738407e+00     
H    -4.71076381e-01     -2.04359816e+00     -4.63016985e-01     
C    -6.43494147e-01     -8.46534283e-01     -2.23573832e+00     
O    -1.16898347e+00     2.30968792e-01      -2.44706696e+00     
O    -5.75167315e-01     -1.86614260e+00     -3.06999177e+00     
H    -1.00184802e+00     -1.61406601e+00     -3.94050418e+00     
O    1.26707067e+00      1.81286120e+00      -1.64207510e+00     
H    1.86043472e+00      2.56393555e+00      -1.55695990e+00     
H    6.79283178e-01      2.02458640e+00      -2.37362895e+00     
O    1.32701043e+00      -1.00128928e+00     2.22906102e+00      
H    9.22170672e-01      -1.35012708e+00     3.02653933e+00      
H    2.25170971e+00      -8.70645037e-01     2.45131686e+00      
O    -2.72127413e+00     3.93333017e-01      1.11045398e-01      
H    -3.37684229e+00     7.42033569e-01      7.22833017e-01      
H    -3.00796564e+00     7.20292063e-01      -7.48345462e-01     
O    -1.61396044e+00     -1.29868597e+00     -5.41658663e+00     
H    -1.78497789e+00     -1.92708530e+00     -6.14017988e+00     
H    -2.38724299e+00     -7.44934452e-01     -5.60946930e+00     
23
1651.322574
N    -2.83015746e-03     -3.55815760e-02     -3.51134085e-02     
H    4.71077362e-01      -2.75028708e-01     8.56909649e-01      
H    -9.91212323e-01     2.45546194e-01      1.38871953e-01      
H    4.68370034e-01      7.74895256e-01      -4.89527850e-01     
C    3.89461109e-02      -1.20470169e+00     -9.30208476e-01     
H    1.07174328e+00      -1.48672865e+00     -1.11762003e+00     
H    -4.70931948e-01     -2.04396694e+00     -4.63402559e-01     
C    -6.43500797e-01     -8.46531631e-01     -2.23575331e+00     
O    -1.16899844e+00     2.30979147e-01      -2.44707660e+00     
O    -5.75187132e-01     -1.86615310e+00     -3.07005538e+00     
H    -1.00168731e+00     -1.61381356e+00     -3.94024494e+00     
O    1.26706900e+00      1.81283101e+00      -1.64206663e+00     
H    1.86034019e+00      2.56401621e+00      -1.55709837e+00     
H    6.79408569e-01      2.02483430e+00      -2.37367529e+00     
O    1.32700994e+00      -1.00129129e+00     2.22906347e+00      
H    9.22155737e-01      -1.35013415e+00     3.02652973e+00      
H    2.25171205e+00      -8.70631318e-01     2.45128434e+00      
O    -2.72099979e+00     3.93146064e-01      1.11101755e-01      
H    -3.37840581e+00     7.43402132e-01      7.20458451e-01      
H    -3.01055594e+00     7.21801462e-01      -7.46989944e-01     
O    -1.61270081e+00     -1.29863025e+00     -5.41532533e+00     
H    -1.79920339e+00     -1.91918837e+00     -6.14620871e+00     
H    -2.39274017e+00     -7.54029553e-01     -5.62273659e+00     
23
1651.322574
N    -2.86483490e-03     -3.59746169e-02     -3.54436067e-02     
H    4.71214385e-01      -2.74157171e-01     8.56635455e-01      
H    -9.89629811e-01     2.49314388e-01      1.39508495e-01      
H    4.66087342e-01      7.77573240e-01      -4.86441806e-01     
C    3.90344877e-02      -1.20467500e+00     -9.29917899e-01     
H    1.07148285e+00      -1.48757123e+00     -1.11809194e+00     
H    -4.70643081e-01     -2.04470449e+00     -4.64173707e-01     
C    -6.43514097e-01     -8.46526327e-01     -2.23578330e+00     
O    -1.16902838e+00     2.30999858e-01      -2.44709589e+00     
O    -5.75226768e-01     -1.86617409e+00     -3.07018260e+00     
H    -1.00136588e+00     -1.61330866e+00     -3.93972647e+00     
O    1.26706565e+00      1.81277062e+00      -1.64204969e+00     
H    1.86015113e+00      2.56417753e+00      -1.55737532e+00     
H    6.79659351e-01      2.02533008e+00      -2.37376797e+00     
O    1.32700897e+00      -1.00129532e+00     2.22906836e+00      
H    9.22125867e-01      -1.35014829e+00     3.02651053e+00      
H    2.25171673e+00      -8.70603880e-01     2.45121931e+00      
O    -2.72045110e+00     3.92772158e-01      1.11214468e-01      
H    -3.38153286e+00     7.46139257e-01      7.15709318e-01      
H    -3.01573654e+00     7.24820260e-01      -7.44278909e-01     
O    -1.61018157e+00     -1.29851881e+00     -5.41280274e+00     
H    -1.82765438e+00     -1.90339452e+00     -6.15826637e+00     
H    -2.40373455e+00     -7.72219753e-01     -5.64927116e+00     
