23
1649.744701
N    -2.92978144e-03     -3.48182231e-02     -3.33044162e-02     
H    4.82564862e-01      -2.91084917e-01     8.49582476e-01      
H    -9.91856167e-01     2.51293689e-01      1.17578006e-01      
H    4.54065797e-01      7.81839453e-01      -4.92307920e-01     
C    3.92811553e-02      -1.20561274e+00     -9.29168601e-01     
H    1.07238225e+00      -1.48411739e+00     -1.12056112e+00     
H    -4.74521760e-01     -2.04357846e+00     -4.64557359e-01     
C    -6.44254230e-01     -8.45566527e-01     -2.23690908e+00     
O    -1.16864824e+00     2.30047214e-01      -2.44663972e+00     
O    -5.74980802e-01     -1.86597525e+00     -3.06940745e+00     
H    -1.00284393e+00     -1.61515999e+00     -3.94177070e+00     
O    1.26710268e+00      1.81214289e+00      -1.64159654e+00     
H    1.85705421e+00      2.56740383e+00      -1.56316493e+00     
H    6.82685193e-01      2.03159330e+00      -2.37428384e+00     
O    1.32777834e+00      -1.00164872e+00     2.23070809e+00      
H    9.07061201e-01      -1.35083894e+00     3.01857844e+00      
H    2.25459817e+00      -8.64376159e-01     2.43500964e+00      
O    -2.71133709e+00     3.86798074e-01      1.13382753e-01      
H    -3.43526083e+00     7.92495182e-01      6.35027143e-01      
H    -3.10048288e+00     7.74456039e-01      -6.99166634e-01     
O    -1.62227809e+00     -1.29905312e+00     -5.42489130e+00     
H    -1.69099557e+00     -1.97922283e+00     -6.10035830e+00     
H    -2.35093222e+00     -6.84958543e-01     -5.52197096e+00     
23
1649.744701
N    -2.87886737e-03     -3.47142807e-02     -3.35090156e-02     
H    4.79590220e-01      -2.87724518e-01     8.51619914e-01      
H    -9.92882090e-01     2.47030670e-01      1.22424086e-01      
H    4.59353876e-01      7.78094916e-01      -4.93927436e-01     
C    3.91311116e-02      -1.20540499e+00     -9.29646503e-01     
H    1.07241783e+00      -1.48413827e+00     -1.11947191e+00     
H    -4.73840956e-01     -2.04312242e+00     -4.63690298e-01     
C    -6.44055897e-01     -8.45811781e-01     -2.23659765e+00     
O    -1.16871334e+00     2.30264665e-01      -2.44673448e+00     
O    -5.75002658e-01     -1.86600396e+00     -3.06947401e+00     
H    -1.00279585e+00     -1.61520205e+00     -3.94177811e+00     
O    1.26709677e+00      1.81236021e+00      -1.64172676e+00     
H    1.85801750e+00      2.56643594e+00      -1.56144058e+00     
H    6.81677950e-01      2.02953171e+00      -2.37406219e+00     
O    1.32758697e+00      -1.00155634e+00     2.23029327e+00      
H    9.10857237e-01      -1.35065214e+00     3.02058066e+00      
H    2.25387313e+00      -8.65960527e-01     2.43912709e+00      
O    -2.71416428e+00     3.88665500e-01      1.12727968e-01      
H    -3.41870179e+00     7.78169076e-01      6.59946819e-01      
H    -3.07411570e+00     7.59028296e-01      -7.13155738e-01     
O    -1.62177320e+00     -1.29903099e+00     -5.42439176e+00     
H    -1.69670928e+00     -1.97605961e+00     -6.10277765e+00     
H    -2.35313842e+00     -6.88583645e-01     -5.52726144e+00     
23
1649.744701
N    -2.85341033e-03     -3.46623095e-02     -3.36113153e-02     
H    4.78102899e-01      -2.86044318e-01     8.52638634e-01      
H    -9.93395052e-01     2.44899160e-01      1.24847126e-01      
H    4.61997915e-01      7.76222647e-01      -4.94737194e-01     
C    3.90560897e-02      -1.20530111e+00     -9.29885454e-01     
H    1.07243562e+00      -1.48414872e+00     -1.11892731e+00     
H    -4.73500555e-01     -2.04289440e+00     -4.63256768e-01     
C    -6.43956730e-01     -8.45934408e-01     -2.23644193e+00     
O    -1.16874589e+00     2.30373390e-01      -2.44678185e+00     
O    -5.75013586e-01     -1.86601832e+00     -3.06950730e+00     
H    -1.00277180e+00     -1.61522308e+00     -3.94178182e+00     
O    1.26709381e+00      1.81246886e+00      -1.64179188e+00     
H    1.85849915e+00      2.56595199e+00      -1.56057840e+00     
H    6.81174329e-01      2.02850092e+00      -2.37395137e+00     
O    1.32749128e+00      -1.00151015e+00     2.23008586e+00      
H    9.12755255e-01      -1.35055874e+00     3.02158177e+00      
H    2.25351061e+00      -8.66752711e-01     2.44118581e+00      
O    -2.71557788e+00     3.89599214e-01      1.12400576e-01      
H    -3.41042227e+00     7.71006022e-01      6.72406657e-01      
H    -3.06093211e+00     7.51314425e-01      -7.20150290e-01     
O    -1.62152076e+00     -1.29901992e+00     -5.42414198e+00     
H    -1.69956614e+00     -1.97447800e+00     -6.10398733e+00     
H    -2.35424153e+00     -6.90396196e-01     -5.52990667e+00     
23
1649.744701
N    -2.82795329e-03     -3.46103382e-02     -3.37136150e-02     
H    4.76615578e-01      -2.84364119e-01     8.53657353e-01      
H    -9.93908013e-01     2.42767651e-01      1.27270166e-01      
H    4.64641955e-01      7.74350379e-01      -4.95546951e-01     
C    3.89810678e-02      -1.20519724e+00     -9.30124405e-01     
H    1.07245341e+00      -1.48415916e+00     -1.11838270e+00     
H    -4.73160153e-01     -2.04266638e+00     -4.62823237e-01     
C    -6.43857563e-01     -8.46057035e-01     -2.23628621e+00     
O    -1.16877844e+00     2.30482115e-01      -2.44682923e+00     
O    -5.75024514e-01     -1.86603267e+00     -3.06954058e+00     
H    -1.00274776e+00     -1.61524412e+00     -3.94178553e+00     
O    1.26709085e+00      1.81257752e+00      -1.64185699e+00     
H    1.85898079e+00      2.56546804e+00      -1.55971622e+00     
H    6.80670708e-01      2.02747012e+00      -2.37384055e+00     
O    1.32739560e+00      -1.00146396e+00     2.22987845e+00      
H    9.14653273e-01      -1.35046534e+00     3.02258289e+00      
H    2.25314809e+00      -8.67544895e-01     2.44324454e+00      
O    -2.71699147e+00     3.90532927e-01      1.12073183e-01      
H    -3.40214275e+00     7.63842969e-01      6.84866495e-01      
H    -3.04774852e+00     7.43600554e-01      -7.27144842e-01     
O    -1.62126832e+00     -1.29900885e+00     -5.42389221e+00     
H    -1.70242299e+00     -1.97289639e+00     -6.10519701e+00     
H    -2.35534463e+00     -6.92208747e-01     -5.53255191e+00     
23
1649.744701
N    -2.80249626e-03     -3.45583670e-02     -3.38159146e-02     
H    4.75128257e-01      -2.82683919e-01     8.54676072e-01      
H    -9.94420975e-01     2.40636141e-01      1.29693206e-01      
H    4.67285994e-01      7.72478110e-01      -4.96356709e-01     
C    3.89060459e-02      -1.20509336e+00     -9.30363355e-01     
H    1.07247120e+00      -1.48416960e+00     -1.11783810e+00     
H    -4.72819752e-01     -2.04243836e+00     -4.62389707e-01     
C    -6.43758397e-01     -8.46179662e-01     -2.23613049e+00     
O    -1.16881099e+00     2.30590840e-01      -2.44687661e+00     
O    -5.75035442e-01     -1.86604703e+00     -3.06957387e+00     
H    -1.00272371e+00     -1.61526515e+00     -3.94178924e+00     
O    1.26708789e+00      1.81268618e+00      -1.64192210e+00     
H    1.85946244e+00      2.56498409e+00      -1.55885405e+00     
H    6.80167087e-01      2.02643933e+00      -2.37372973e+00     
O    1.32729991e+00      -1.00141777e+00     2.22967104e+00      
H    9.16551291e-01      -1.35037194e+00     3.02358400e+00      
H    2.25278557e+00      -8.68337079e-01     2.44530326e+00      
O    -2.71840507e+00     3.91466640e-01      1.11745791e-01      
H    -3.39386323e+00     7.56679916e-01      6.97326334e-01      
H    -3.03456492e+00     7.35886682e-01      -7.34139395e-01     
O    -1.62101587e+00     -1.29899778e+00     -5.42364244e+00     
H    -1.70527985e+00     -1.97131477e+00     -6.10640669e+00     
H    -2.35644774e+00     -6.94021298e-01     -5.53519715e+00     
23
1649.744701
N    -2.77703922e-03     -3.45063958e-02     -3.39182143e-02     
H    4.73640937e-01      -2.81003719e-01     8.55694791e-01      
H    -9.94933936e-01     2.38504632e-01      1.32116246e-01      
H    4.69930033e-01      7.70605841e-01      -4.97166467e-01     
C    3.88310241e-02      -1.20498949e+00     -9.30602306e-01     
H    1.07248899e+00      -1.48418004e+00     -1.11729350e+00     
H    -4.72479350e-01     -2.04221033e+00     -4.61956177e-01     
C    -6.43659230e-01     -8.46302289e-01     -2.23597478e+00     
O    -1.16884353e+00     2.30699565e-01      -2.44692399e+00     
O    -5.75046370e-01     -1.86606139e+00     -3.06960715e+00     
H    -1.00269967e+00     -1.61528618e+00     -3.94179294e+00     
O    1.26708494e+00      1.81279484e+00      -1.64198721e+00     
H    1.85994408e+00      2.56450015e+00      -1.55799187e+00     
H    6.79663465e-01      2.02540853e+00      -2.37361890e+00     
O    1.32720422e+00      -1.00137158e+00     2.22946362e+00      
H    9.18449310e-01      -1.35027853e+00     3.02458511e+00      
H    2.25242305e+00      -8.69129263e-01     2.44736199e+00      
O    -2.71981866e+00     3.92400353e-01      1.11418399e-01      
H    -3.38558371e+00     7.49516863e-01      7.09786172e-01      
H    -3.02138133e+00     7.28172811e-01      -7.41133947e-01     
O    -1.62076343e+00     -1.29898672e+00     -5.42339267e+00     
H    -1.70813670e+00     -1.96973316e+00     -6.10761637e+00     
H    -2.35755084e+00     -6.95833849e-01     -5.53784239e+00     
23
1649.744701
N    -2.76431070e-03     -3.44804102e-02     -3.39693642e-02     
H    4.72897276e-01      -2.80163620e-01     8.56204151e-01      
H    -9.95190417e-01     2.37438877e-01      1.33327766e-01      
H    4.71252053e-01      7.69669707e-01      -4.97571345e-01     
C    3.87935131e-02      -1.20493755e+00     -9.30721782e-01     
H    1.07249789e+00      -1.48418526e+00     -1.11702120e+00     
H    -4.72309149e-01     -2.04209632e+00     -4.61739412e-01     
C    -6.43609647e-01     -8.46363603e-01     -2.23589692e+00     
O    -1.16885981e+00     2.30753927e-01      -2.44694767e+00     
O    -5.75051834e-01     -1.86606856e+00     -3.06962379e+00     
H    -1.00268765e+00     -1.61529670e+00     -3.94179480e+00     
O    1.26708346e+00      1.81284916e+00      -1.64201977e+00     
H    1.86018490e+00      2.56425817e+00      -1.55756078e+00     
H    6.79411655e-01      2.02489313e+00      -2.37356349e+00     
O    1.32715638e+00      -1.00134848e+00     2.22935992e+00      
H    9.19398319e-01      -1.35023183e+00     3.02508566e+00      
H    2.25224179e+00      -8.69525355e-01     2.44839135e+00      
O    -2.72052546e+00     3.92867210e-01      1.11254703e-01      
H    -3.38144395e+00     7.45935336e-01      7.16016091e-01      
H    -3.01478954e+00     7.24315875e-01      -7.44631223e-01     
O    -1.62063721e+00     -1.29898118e+00     -5.42326778e+00     
H    -1.70956513e+00     -1.96894236e+00     -6.10822121e+00     
H    -2.35810239e+00     -6.96740124e-01     -5.53916501e+00     
23
1649.744701
N    -2.75158219e-03     -3.44544246e-02     -3.40205140e-02     
H    4.72153616e-01      -2.79323520e-01     8.56713511e-01      
H    -9.95446898e-01     2.36373122e-01      1.34539286e-01      
H    4.72574073e-01      7.68733573e-01      -4.97976224e-01     
C    3.87560022e-02      -1.20488561e+00     -9.30841257e-01     
H    1.07250678e+00      -1.48419048e+00     -1.11674889e+00     
H    -4.72138949e-01     -2.04198231e+00     -4.61522646e-01     
C    -6.43560064e-01     -8.46424916e-01     -2.23581906e+00     
O    -1.16887608e+00     2.30808290e-01      -2.44697136e+00     
O    -5.75057298e-01     -1.86607574e+00     -3.06964044e+00     
H    -1.00267562e+00     -1.61530722e+00     -3.94179665e+00     
O    1.26708198e+00      1.81290349e+00      -1.64205233e+00     
H    1.86042573e+00      2.56401620e+00      -1.55712970e+00     
H    6.79159844e-01      2.02437774e+00      -2.37350808e+00     
O    1.32710854e+00      -1.00132539e+00     2.22925621e+00      
H    9.20347328e-01      -1.35018513e+00     3.02558622e+00      
H    2.25206053e+00      -8.69921447e-01     2.44942071e+00      
O    -2.72123226e+00     3.93334067e-01      1.11091006e-01      
H    -3.37730419e+00     7.42353809e-01      7.22246010e-01      
H    -3.00819774e+00     7.20458939e-01      -7.48128499e-01     
O    -1.62051098e+00     -1.29897565e+00     -5.42314289e+00     
H    -1.71099356e+00     -1.96815155e+00     -6.10882605e+00     
H    -2.35865395e+00     -6.97646400e-01     -5.54048763e+00     
23
1649.744701
N    -2.70066811e-03     -3.43504822e-02     -3.42251134e-02     
H    4.69178974e-01      -2.75963120e-01     8.58750949e-01      
H    -9.96472820e-01     2.32110104e-01      1.39385366e-01      
H    4.77862151e-01      7.64989035e-01      -4.99595740e-01     
C    3.86059584e-02      -1.20467787e+00     -9.31319159e-01     
H    1.07254236e+00      -1.48421136e+00     -1.11565969e+00     
H    -4.71458145e-01     -2.04152627e+00     -4.60655586e-01     
C    -6.43361730e-01     -8.46670170e-01     -2.23550762e+00     
O    -1.16894118e+00     2.31025740e-01      -2.44706612e+00     
O    -5.75079154e-01     -1.86610446e+00     -3.06970700e+00     
H    -1.00262754e+00     -1.61534928e+00     -3.94180407e+00     
O    1.26707606e+00      1.81312081e+00      -1.64218255e+00     
H    1.86138901e+00      2.56304830e+00      -1.55540534e+00     
H    6.78152602e-01      2.02231614e+00      -2.37328644e+00     
O    1.32691716e+00      -1.00123301e+00     2.22884139e+00      
H    9.24143364e-01      -1.34999833e+00     3.02758844e+00      
H    2.25133549e+00      -8.71505815e-01     2.45353817e+00      
O    -2.72405944e+00     3.95201493e-01      1.10436222e-01      
H    -3.36074515e+00     7.28027703e-01      7.47165686e-01      
H    -2.98183056e+00     7.05031197e-01      -7.62117603e-01     
O    -1.62000610e+00     -1.29895351e+00     -5.42264335e+00     
H    -1.71670726e+00     -1.96498833e+00     -6.11124541e+00     
H    -2.36086015e+00     -7.01271502e-01     -5.54577811e+00     
23
1649.744701
N    -2.68793960e-03     -3.43244966e-02     -3.42762632e-02     
H    4.68435314e-01      -2.75123020e-01     8.59260309e-01      
H    -9.96729301e-01     2.31044349e-01      1.40596886e-01      
H    4.79184171e-01      7.64052901e-01      -5.00000619e-01     
C    3.85684475e-02      -1.20462593e+00     -9.31438634e-01     
H    1.07255125e+00      -1.48421658e+00     -1.11538738e+00     
H    -4.71287945e-01     -2.04141226e+00     -4.60438820e-01     
C    -6.43312147e-01     -8.46731483e-01     -2.23542976e+00     
O    -1.16895745e+00     2.31080103e-01      -2.44708981e+00     
O    -5.75084618e-01     -1.86611164e+00     -3.06972365e+00     
H    -1.00261551e+00     -1.61535980e+00     -3.94180592e+00     
O    1.26707458e+00      1.81317514e+00      -1.64221511e+00     
H    1.86162984e+00      2.56280633e+00      -1.55497426e+00     
H    6.77900791e-01      2.02180075e+00      -2.37323103e+00     
O    1.32686932e+00      -1.00120992e+00     2.22873768e+00      
H    9.25092373e-01      -1.34995163e+00     3.02808900e+00      
H    2.25115423e+00      -8.71901907e-01     2.45456753e+00      
O    -2.72476624e+00     3.95668350e-01      1.10272525e-01      
H    -3.35660539e+00     7.24446176e-01      7.53395605e-01      
H    -2.97523876e+00     7.01174261e-01      -7.65614879e-01     
O    -1.61987987e+00     -1.29894798e+00     -5.42251846e+00     
H    -1.71813569e+00     -1.96419752e+00     -6.11185025e+00     
H    -2.36141171e+00     -7.02177778e-01     -5.54710073e+00     
23
1649.744701
N    -2.67521108e-03     -3.42985110e-02     -3.43274131e-02     
H    4.67691653e-01      -2.74282921e-01     8.59769669e-01      
H    -9.96985782e-01     2.29978594e-01      1.41808406e-01      
H    4.80506191e-01      7.63116767e-01      -5.00405497e-01     
C    3.85309365e-02      -1.20457399e+00     -9.31558110e-01     
H    1.07256015e+00      -1.48422180e+00     -1.11511508e+00     
H    -4.71117744e-01     -2.04129825e+00     -4.60222055e-01     
C    -6.43262564e-01     -8.46792797e-01     -2.23535190e+00     
O    -1.16897373e+00     2.31134465e-01      -2.44711349e+00     
O    -5.75090082e-01     -1.86611881e+00     -3.06974029e+00     
H    -1.00260349e+00     -1.61537032e+00     -3.94180778e+00     
O    1.26707310e+00      1.81322946e+00      -1.64224767e+00     
H    1.86187066e+00      2.56256435e+00      -1.55454317e+00     
H    6.77648981e-01      2.02128535e+00      -2.37317562e+00     
O    1.32682148e+00      -1.00118682e+00     2.22863398e+00      
H    9.26041382e-01      -1.34990493e+00     3.02858955e+00      
H    2.25097297e+00      -8.72297999e-01     2.45559689e+00      
O    -2.72547304e+00     3.96135207e-01      1.10108829e-01      
H    -3.35246563e+00     7.20864649e-01      7.59625524e-01      
H    -2.96864697e+00     6.97317325e-01      -7.69112155e-01     
O    -1.61975365e+00     -1.29894244e+00     -5.42239357e+00     
H    -1.71956412e+00     -1.96340672e+00     -6.11245509e+00     
H    -2.36196326e+00     -7.03084053e-01     -5.54842335e+00     
23
1649.744701
N    -2.64975404e-03     -3.42465398e-02     -3.44297128e-02     
H    4.66204333e-01      -2.72602721e-01     8.60788388e-01      
H    -9.97498743e-01     2.27847085e-01      1.44231446e-01      
H    4.83150230e-01      7.61244498e-01      -5.01215255e-01     
C    3.84559147e-02      -1.20447012e+00     -9.31797061e-01     
H    1.07257794e+00      -1.48423224e+00     -1.11457048e+00     
H    -4.70777342e-01     -2.04107022e+00     -4.59788525e-01     
C    -6.43163397e-01     -8.46915424e-01     -2.23519619e+00     
O    -1.16900627e+00     2.31243190e-01      -2.44716087e+00     
O    -5.75101010e-01     -1.86613317e+00     -3.06977357e+00     
H    -1.00257945e+00     -1.61539135e+00     -3.94181148e+00     
O    1.26707015e+00      1.81333812e+00      -1.64231278e+00     
H    1.86235230e+00      2.56208041e+00      -1.55368099e+00     
H    6.77145359e-01      2.02025455e+00      -2.37306479e+00     
O    1.32672579e+00      -1.00114063e+00     2.22842656e+00      
H    9.27939401e-01      -1.34981152e+00     3.02959066e+00      
H    2.25061045e+00      -8.73090183e-01     2.45765562e+00      
O    -2.72688663e+00     3.97068920e-01      1.09781437e-01      
H    -3.34418611e+00     7.13701596e-01      7.72085362e-01      
H    -2.95546338e+00     6.89603454e-01      -7.76106707e-01     
O    -1.61950121e+00     -1.29893138e+00     -5.42214380e+00     
H    -1.72242097e+00     -1.96182511e+00     -6.11366477e+00     
H    -2.36306636e+00     -7.04896604e-01     -5.55106859e+00     
23
1649.744701
N    -2.62429701e-03     -3.41945686e-02     -3.45320124e-02     
H    4.64717012e-01      -2.70922521e-01     8.61807107e-01      
H    -9.98011705e-01     2.25715575e-01      1.46654486e-01      
H    4.85794269e-01      7.59372229e-01      -5.02025013e-01     
C    3.83808928e-02      -1.20436624e+00     -9.32036011e-01     
H    1.07259573e+00      -1.48424268e+00     -1.11402588e+00     
H    -4.70436941e-01     -2.04084220e+00     -4.59354995e-01     
C    -6.43064231e-01     -8.47038051e-01     -2.23504047e+00     
O    -1.16903882e+00     2.31351915e-01      -2.44720825e+00     
O    -5.75111938e-01     -1.86614753e+00     -3.06980686e+00     
H    -1.00255540e+00     -1.61541238e+00     -3.94181519e+00     
O    1.26706719e+00      1.81344678e+00      -1.64237789e+00     
H    1.86283395e+00      2.56159646e+00      -1.55281882e+00     
H    6.76641738e-01      2.01922376e+00      -2.37295397e+00     
O    1.32663010e+00      -1.00109444e+00     2.22821915e+00      
H    9.29837419e-01      -1.34971812e+00     3.03059177e+00      
H    2.25024793e+00      -8.73882367e-01     2.45971434e+00      
O    -2.72830023e+00     3.98002633e-01      1.09454045e-01      
H    -3.33590659e+00     7.06538543e-01      7.84545201e-01      
H    -2.94227978e+00     6.81889582e-01      -7.83101260e-01     
O    -1.61924876e+00     -1.29892031e+00     -5.42189403e+00     
H    -1.72527783e+00     -1.96024349e+00     -6.11487445e+00     
H    -2.36416947e+00     -7.06709155e-01     -5.55371383e+00     
23
1649.744701
N    -2.59883997e-03     -3.41425973e-02     -3.46343121e-02     
H    4.63229691e-01      -2.69242322e-01     8.62825826e-01      
H    -9.98524666e-01     2.23584066e-01      1.49077526e-01      
H    4.88438309e-01      7.57499961e-01      -5.02834770e-01     
C    3.83058709e-02      -1.20426237e+00     -9.32274962e-01     
H    1.07261352e+00      -1.48425312e+00     -1.11348127e+00     
H    -4.70096539e-01     -2.04061418e+00     -4.58921464e-01     
C    -6.42965064e-01     -8.47160678e-01     -2.23488475e+00     
O    -1.16907137e+00     2.31460640e-01      -2.44725563e+00     
O    -5.75122866e-01     -1.86616188e+00     -3.06984014e+00     
H    -1.00253136e+00     -1.61543342e+00     -3.94181890e+00     
O    1.26706423e+00      1.81355544e+00      -1.64244300e+00     
H    1.86331559e+00      2.56111251e+00      -1.55195664e+00     
H    6.76138117e-01      2.01819296e+00      -2.37284315e+00     
O    1.32653442e+00      -1.00104825e+00     2.22801174e+00      
H    9.31735437e-01      -1.34962472e+00     3.03159289e+00      
H    2.24988541e+00      -8.74674551e-01     2.46177307e+00      
O    -2.72971382e+00     3.98936346e-01      1.09126652e-01      
H    -3.32762707e+00     6.99375490e-01      7.97005039e-01      
H    -2.92909619e+00     6.74175711e-01      -7.90095812e-01     
O    -1.61899632e+00     -1.29890924e+00     -5.42164426e+00     
H    -1.72813468e+00     -1.95866188e+00     -6.11608413e+00     
H    -2.36527257e+00     -7.08521706e-01     -5.55635907e+00     
23
1649.744701
N    -2.57338293e-03     -3.40906261e-02     -3.47366118e-02     
H    4.61742370e-01      -2.67562122e-01     8.63844546e-01      
H    -9.99037628e-01     2.21452556e-01      1.51500566e-01      
H    4.91082348e-01      7.55627692e-01      -5.03644528e-01     
C    3.82308490e-02      -1.20415849e+00     -9.32513913e-01     
H    1.07263131e+00      -1.48426357e+00     -1.11293667e+00     
H    -4.69756138e-01     -2.04038616e+00     -4.58487934e-01     
C    -6.42865897e-01     -8.47283305e-01     -2.23472903e+00     
O    -1.16910392e+00     2.31569365e-01      -2.44730300e+00     
O    -5.75133794e-01     -1.86617624e+00     -3.06987343e+00     
H    -1.00250731e+00     -1.61545445e+00     -3.94182261e+00     
O    1.26706127e+00      1.81366409e+00      -1.64250812e+00     
H    1.86379724e+00      2.56062856e+00      -1.55109446e+00     
H    6.75634496e-01      2.01716217e+00      -2.37273233e+00     
O    1.32643873e+00      -1.00100206e+00     2.22780433e+00      
H    9.33633455e-01      -1.34953132e+00     3.03259400e+00      
H    2.24952289e+00      -8.75466735e-01     2.46383179e+00      
O    -2.73112742e+00     3.99870060e-01      1.08799260e-01      
H    -3.31934755e+00     6.92212436e-01      8.09464877e-01      
H    -2.91591260e+00     6.66461840e-01      -7.97090364e-01     
O    -1.61874388e+00     -1.29889817e+00     -5.42139448e+00     
H    -1.73099154e+00     -1.95708027e+00     -6.11729381e+00     
H    -2.36637568e+00     -7.10334257e-01     -5.55900430e+00     
23
1649.744701
N    -2.52246886e-03     -3.39866837e-02     -3.49412112e-02     
H    4.58767728e-01      -2.64201723e-01     8.65881984e-01      
H    -1.00006355e+00     2.17189537e-01      1.56346646e-01      
H    4.96370427e-01      7.51883155e-01      -5.05264044e-01     
C    3.80808053e-02      -1.20395074e+00     -9.32991815e-01     
H    1.07266689e+00      -1.48428445e+00     -1.11184746e+00     
H    -4.69075334e-01     -2.03993012e+00     -4.57620873e-01     
C    -6.42667564e-01     -8.47528559e-01     -2.23441760e+00     
O    -1.16916902e+00     2.31786816e-01      -2.44739776e+00     
O    -5.75155650e-01     -1.86620495e+00     -3.06993999e+00     
H    -1.00245923e+00     -1.61549651e+00     -3.94183002e+00     
O    1.26705536e+00      1.81388141e+00      -1.64263834e+00     
H    1.86476053e+00      2.55966067e+00      -1.54937011e+00     
H    6.74627253e-01      2.01510058e+00      -2.37251068e+00     
O    1.32624736e+00      -1.00090968e+00     2.22738951e+00      
H    9.37429491e-01      -1.34934452e+00     3.03459622e+00      
H    2.24879785e+00      -8.77051103e-01     2.46794924e+00      
O    -2.73395461e+00     4.01737486e-01      1.08144475e-01      
H    -3.30278851e+00     6.77886330e-01      8.34384553e-01      
H    -2.88954542e+00     6.51034097e-01      -8.11079468e-01     
O    -1.61823899e+00     -1.29887604e+00     -5.42089494e+00     
H    -1.73670525e+00     -1.95391705e+00     -6.11971316e+00     
H    -2.36858188e+00     -7.13959359e-01     -5.56429478e+00     
