23
3129.205558
N    2.30207926e-03      -3.20655053e-02     -3.59256889e-02     
H    4.66167850e-01      -2.75030918e-01     8.50317878e-01      
H    -1.03028600e+00     2.44399817e-01      1.43510624e-01      
H    4.47068348e-01      7.18922845e-01      -4.74247267e-01     
C    3.28912753e-02      -1.19347692e+00     -9.33984309e-01     
H    1.20032436e+00      -1.51710480e+00     -1.13832089e+00     
H    -5.32365477e-01     -2.13870424e+00     -4.05680422e-01     
C    -6.43518108e-01     -8.46561621e-01     -2.23565520e+00     
O    -1.16880728e+00     2.30847136e-01      -2.44696842e+00     
O    -5.75758765e-01     -1.86568042e+00     -3.07110627e+00     
H    -9.91889011e-01     -1.62147785e+00     -3.91961629e+00     
O    1.26703057e+00      1.81305550e+00      -1.64217623e+00     
H    1.86055407e+00      2.56291830e+00      -1.55555475e+00     
H    6.78888660e-01      2.02245434e+00      -2.37206403e+00     
O    1.32699983e+00      -1.00130937e+00     2.22906243e+00      
H    9.22456855e-01      -1.34976335e+00     3.02614566e+00      
H    2.25154695e+00      -8.70649000e-01     2.45152496e+00      
O    -2.72267054e+00     3.94222938e-01      1.10822338e-01      
H    -3.36961943e+00     7.35369096e-01      7.34397607e-01      
H    -2.99549331e+00     7.13233111e-01      -7.55663908e-01     
O    -1.62025667e+00     -1.29898793e+00     -5.42288550e+00     
H    -1.71368950e+00     -1.96620515e+00     -6.10932385e+00     
H    -2.35936149e+00     -6.99632351e-01     -5.54266197e+00     
23
3129.205558
N    1.04502816e-03      -3.26497423e-02     -3.54749701e-02     
H    4.67292461e-01      -2.75684018e-01     8.52171466e-01      
H    -1.02170446e+00     2.41860266e-01      1.41873550e-01      
H    4.54105789e-01      7.30907460e-01      -4.80381946e-01     
C    3.43387015e-02      -1.19630312e+00     -9.33258284e-01     
H    1.16837441e+00      -1.50887883e+00     -1.13279174e+00     
H    -5.17223745e-01     -2.11446675e+00     -4.19532595e-01     
C    -6.43503805e-01     -8.46558101e-01     -2.23565724e+00     
O    -1.16883262e+00     2.30864606e-01      -2.44698100e+00     
O    -5.75586130e-01     -1.86578284e+00     -3.07074814e+00     
H    -9.94579653e-01     -1.61994045e+00     -3.92516231e+00     
O    1.26704268e+00      1.81304466e+00      -1.64216153e+00     
H    1.86064239e+00      2.56307178e+00      -1.55573294e+00     
H    6.78830550e-01      2.02267749e+00      -2.37239734e+00     
O    1.32700309e+00      -1.00130183e+00     2.22905902e+00      
H    9.22403977e-01      -1.34984544e+00     3.02625608e+00      
H    2.25158471e+00      -8.70665158e-01     2.45151358e+00      
O    -2.72266437e+00     3.94234149e-01      1.10807657e-01      
H    -3.36947074e+00     7.35324511e-01      7.34474667e-01      
H    -2.99537352e+00     7.13111100e-01      -7.55528694e-01     
O    -1.62025714e+00     -1.29898210e+00     -5.42288740e+00     
H    -1.71372973e+00     -1.96629635e+00     -6.10950182e+00     
H    -2.35946038e+00     -6.99589001e-01     -5.54277969e+00     
23
3129.205558
N    4.16502606e-04      -3.29418608e-02     -3.52496107e-02     
H    4.67854767e-01      -2.76010568e-01     8.53098260e-01      
H    -1.01741370e+00     2.40590490e-01      1.41055012e-01      
H    4.57624510e-01      7.36899767e-01      -4.83449285e-01     
C    3.50624147e-02      -1.19771623e+00     -9.32895271e-01     
H    1.15239944e+00      -1.50476585e+00     -1.13002716e+00     
H    -5.09652878e-01     -2.10234801e+00     -4.26458682e-01     
C    -6.43496654e-01     -8.46556342e-01     -2.23565825e+00     
O    -1.16884529e+00     2.30873341e-01      -2.44698729e+00     
O    -5.75499813e-01     -1.86583405e+00     -3.07056907e+00     
H    -9.95924974e-01     -1.61917175e+00     -3.92793532e+00     
O    1.26704874e+00      1.81303924e+00      -1.64215418e+00     
H    1.86068656e+00      2.56314853e+00      -1.55582204e+00     
H    6.78801496e-01      2.02278906e+00      -2.37256399e+00     
O    1.32700471e+00      -1.00129806e+00     2.22905732e+00      
H    9.22377539e-01      -1.34988649e+00     3.02631129e+00      
H    2.25160360e+00      -8.70673237e-01     2.45150789e+00      
O    -2.72266128e+00     3.94239754e-01      1.10800317e-01      
H    -3.36939640e+00     7.35302218e-01      7.34513197e-01      
H    -2.99531362e+00     7.13050095e-01      -7.55461087e-01     
O    -1.62025737e+00     -1.29897918e+00     -5.42288836e+00     
H    -1.71374984e+00     -1.96634195e+00     -6.10959081e+00     
H    -2.35950982e+00     -6.99567326e-01     -5.54283856e+00     
23
3129.205558
N    -2.12022945e-04     -3.32339793e-02     -3.50242513e-02     
H    4.68417073e-01      -2.76337119e-01     8.54025054e-01      
H    -1.01312293e+00     2.39320715e-01      1.40236475e-01      
H    4.61143230e-01      7.42892075e-01      -4.86516625e-01     
C    3.57861278e-02      -1.19912933e+00     -9.32532259e-01     
H    1.13642446e+00      -1.50065286e+00     -1.12726259e+00     
H    -5.02082012e-01     -2.09022927e+00     -4.33384769e-01     
C    -6.43489502e-01     -8.46554582e-01     -2.23565927e+00     
O    -1.16885796e+00     2.30882076e-01      -2.44699358e+00     
O    -5.75413496e-01     -1.86588526e+00     -3.07039000e+00     
H    -9.97270295e-01     -1.61840305e+00     -3.93070833e+00     
O    1.26705479e+00      1.81303383e+00      -1.64214683e+00     
H    1.86073072e+00      2.56322527e+00      -1.55591113e+00     
H    6.78772441e-01      2.02290064e+00      -2.37273065e+00     
O    1.32700634e+00      -1.00129429e+00     2.22905562e+00      
H    9.22351100e-01      -1.34992754e+00     3.02636649e+00      
H    2.25162248e+00      -8.70681316e-01     2.45150220e+00      
O    -2.72265820e+00     3.94245359e-01      1.10792976e-01      
H    -3.36932205e+00     7.35279926e-01      7.34551727e-01      
H    -2.99525373e+00     7.12989089e-01      -7.55393480e-01     
O    -1.62025761e+00     -1.29897626e+00     -5.42288931e+00     
H    -1.71376996e+00     -1.96638754e+00     -6.10967979e+00     
H    -2.35955927e+00     -6.99545651e-01     -5.54289742e+00     
23
3129.205558
N    -8.40548496e-04     -3.35260978e-02     -3.47988919e-02     
H    4.68979378e-01      -2.76663669e-01     8.54951848e-01      
H    -1.00883216e+00     2.38050939e-01      1.39417938e-01      
H    4.64661951e-01      7.48884382e-01      -4.89583964e-01     
C    3.65098409e-02      -1.20054243e+00     -9.32169246e-01     
H    1.12044949e+00      -1.49653988e+00     -1.12449801e+00     
H    -4.94511146e-01     -2.07811052e+00     -4.40310856e-01     
C    -6.43482351e-01     -8.46552822e-01     -2.23566029e+00     
O    -1.16887062e+00     2.30890810e-01      -2.44699987e+00     
O    -5.75327178e-01     -1.86593647e+00     -3.07021093e+00     
H    -9.98615616e-01     -1.61763435e+00     -3.93348134e+00     
O    1.26706085e+00      1.81302841e+00      -1.64213949e+00     
H    1.86077488e+00      2.56330202e+00      -1.55600023e+00     
H    6.78743387e-01      2.02301221e+00      -2.37289730e+00     
O    1.32700797e+00      -1.00129051e+00     2.22905391e+00      
H    9.22324662e-01      -1.34996859e+00     3.02642170e+00      
H    2.25164136e+00      -8.70689394e-01     2.45149651e+00      
O    -2.72265511e+00     3.94250964e-01      1.10785636e-01      
H    -3.36924771e+00     7.35257633e-01      7.34590258e-01      
H    -2.99519383e+00     7.12928084e-01      -7.55325872e-01     
O    -1.62025784e+00     -1.29897334e+00     -5.42289026e+00     
H    -1.71379007e+00     -1.96643314e+00     -6.10976878e+00     
H    -2.35960871e+00     -6.99523976e-01     -5.54295628e+00     
23
3129.205558
N    -1.46907405e-03     -3.38182164e-02     -3.45735325e-02     
H    4.69541684e-01      -2.76990219e-01     8.55878642e-01      
H    -1.00454139e+00     2.36781164e-01      1.38599401e-01      
H    4.68180671e-01      7.54876689e-01      -4.92651303e-01     
C    3.72335540e-02      -1.20195553e+00     -9.31806233e-01     
H    1.10447452e+00      -1.49242689e+00     -1.12173344e+00     
H    -4.86940280e-01     -2.06599178e+00     -4.47236942e-01     
C    -6.43475200e-01     -8.46551062e-01     -2.23566131e+00     
O    -1.16888329e+00     2.30899545e-01      -2.44700616e+00     
O    -5.75240861e-01     -1.86598768e+00     -3.07003186e+00     
H    -9.99960938e-01     -1.61686565e+00     -3.93625434e+00     
O    1.26706691e+00      1.81302299e+00      -1.64213214e+00     
H    1.86081904e+00      2.56337876e+00      -1.55608933e+00     
H    6.78714332e-01      2.02312379e+00      -2.37306395e+00     
O    1.32700960e+00      -1.00128674e+00     2.22905221e+00      
H    9.22298223e-01      -1.35000963e+00     3.02647691e+00      
H    2.25166024e+00      -8.70697473e-01     2.45149082e+00      
O    -2.72265202e+00     3.94256570e-01      1.10778295e-01      
H    -3.36917336e+00     7.35235341e-01      7.34628788e-01      
H    -2.99513394e+00     7.12867079e-01      -7.55258265e-01     
O    -1.62025807e+00     -1.29897042e+00     -5.42289121e+00     
H    -1.71381018e+00     -1.96647874e+00     -6.10985776e+00     
H    -2.35965816e+00     -6.99502301e-01     -5.54301514e+00     
23
3129.205558
N    -1.78333682e-03     -3.39642756e-02     -3.44608528e-02     
H    4.69822837e-01      -2.77153495e-01     8.56342039e-01      
H    -1.00239601e+00     2.36146276e-01      1.38190132e-01      
H    4.69940031e-01      7.57872843e-01      -4.94184973e-01     
C    3.75954106e-02      -1.20266209e+00     -9.31624727e-01     
H    1.09648703e+00      -1.49037040e+00     -1.12035115e+00     
H    -4.83154846e-01     -2.05993241e+00     -4.50699986e-01     
C    -6.43471624e-01     -8.46550183e-01     -2.23566181e+00     
O    -1.16888963e+00     2.30903913e-01      -2.44700931e+00     
O    -5.75197702e-01     -1.86601329e+00     -3.06994232e+00     
H    -1.00063360e+00     -1.61648130e+00     -3.93764085e+00     
O    1.26706994e+00      1.81302028e+00      -1.64212846e+00     
H    1.86084113e+00      2.56341713e+00      -1.55613388e+00     
H    6.78699805e-01      2.02317958e+00      -2.37314728e+00     
O    1.32701041e+00      -1.00128486e+00     2.22905136e+00      
H    9.22285004e-01      -1.35003016e+00     3.02650452e+00      
H    2.25166969e+00      -8.70701513e-01     2.45148797e+00      
O    -2.72265048e+00     3.94259372e-01      1.10774625e-01      
H    -3.36913619e+00     7.35224195e-01      7.34648053e-01      
H    -2.99510399e+00     7.12836576e-01      -7.55224462e-01     
O    -1.62025819e+00     -1.29896896e+00     -5.42289169e+00     
H    -1.71382024e+00     -1.96650154e+00     -6.10990225e+00     
H    -2.35968288e+00     -6.99491464e-01     -5.54304458e+00     
23
3129.205558
N    -2.09759960e-03     -3.41103349e-02     -3.43481731e-02     
H    4.70103989e-01      -2.77316770e-01     8.56805436e-01      
H    -1.00025063e+00     2.35511388e-01      1.37780863e-01      
H    4.71699392e-01      7.60868997e-01      -4.95718643e-01     
C    3.79572672e-02      -1.20336864e+00     -9.31443221e-01     
H    1.08849954e+00      -1.48831391e+00     -1.11896886e+00     
H    -4.79369413e-01     -2.05387303e+00     -4.54163029e-01     
C    -6.43468048e-01     -8.46549303e-01     -2.23566232e+00     
O    -1.16889596e+00     2.30908280e-01      -2.44701245e+00     
O    -5.75154543e-01     -1.86603889e+00     -3.06985279e+00     
H    -1.00130626e+00     -1.61609695e+00     -3.93902735e+00     
O    1.26707296e+00      1.81301757e+00      -1.64212479e+00     
H    1.86086321e+00      2.56345551e+00      -1.55617842e+00     
H    6.78685278e-01      2.02323536e+00      -2.37323061e+00     
O    1.32701122e+00      -1.00128297e+00     2.22905050e+00      
H    9.22271785e-01      -1.35005068e+00     3.02653212e+00      
H    2.25167913e+00      -8.70705552e-01     2.45148513e+00      
O    -2.72264894e+00     3.94262175e-01      1.10770955e-01      
H    -3.36909902e+00     7.35213048e-01      7.34667318e-01      
H    -2.99507404e+00     7.12806073e-01      -7.55190658e-01     
O    -1.62025831e+00     -1.29896750e+00     -5.42289217e+00     
H    -1.71383030e+00     -1.96652434e+00     -6.10994675e+00     
H    -2.35970760e+00     -6.99480626e-01     -5.54307401e+00     
23
3129.205558
N    -3.35465070e-03     -3.46945719e-02     -3.38974543e-02     
H    4.71228601e-01      -2.77969870e-01     8.58659024e-01      
H    -9.91669092e-01     2.32971838e-01      1.36143789e-01      
H    4.78736832e-01      7.72853611e-01      -5.01853321e-01     
C    3.94046934e-02      -1.20619484e+00     -9.30717195e-01     
H    1.05654960e+00      -1.48008793e+00     -1.11343972e+00     
H    -4.64227681e-01     -2.02963555e+00     -4.68015203e-01     
C    -6.43453746e-01     -8.46545783e-01     -2.23566436e+00     
O    -1.16892130e+00     2.30925750e-01      -2.44702503e+00     
O    -5.74981909e-01     -1.86614131e+00     -3.06949465e+00     
H    -1.00399690e+00     -1.61455955e+00     -3.94457337e+00     
O    1.26708508e+00      1.81300673e+00      -1.64211009e+00     
H    1.86095153e+00      2.56360899e+00      -1.55635662e+00     
H    6.78627168e-01      2.02345852e+00      -2.37356391e+00     
O    1.32701448e+00      -1.00127543e+00     2.22904710e+00      
H    9.22218907e-01      -1.35013278e+00     3.02664254e+00      
H    2.25171689e+00      -8.70721710e-01     2.45147375e+00      
O    -2.72264276e+00     3.94273385e-01      1.10756273e-01      
H    -3.36895032e+00     7.35168464e-01      7.34744378e-01      
H    -2.99495426e+00     7.12684063e-01      -7.55055444e-01     
O    -1.62025877e+00     -1.29896166e+00     -5.42289407e+00     
H    -1.71387052e+00     -1.96661554e+00     -6.11012471e+00     
H    -2.35980650e+00     -6.99437276e-01     -5.54319173e+00     
23
3129.205558
N    -3.66891348e-03     -3.48406312e-02     -3.37847746e-02     
H    4.71509753e-01      -2.78133145e-01     8.59122421e-01      
H    -9.89523708e-01     2.32336950e-01      1.35734520e-01      
H    4.80496193e-01      7.75849765e-01      -5.03386991e-01     
C    3.97665500e-02      -1.20690139e+00     -9.30535689e-01     
H    1.04856211e+00      -1.47803144e+00     -1.11205743e+00     
H    -4.60442248e-01     -2.02357617e+00     -4.71478246e-01     
C    -6.43450170e-01     -8.46544903e-01     -2.23566487e+00     
O    -1.16892763e+00     2.30930117e-01      -2.44702817e+00     
O    -5.74938750e-01     -1.86616691e+00     -3.06940512e+00     
H    -1.00466956e+00     -1.61417520e+00     -3.94595987e+00     
O    1.26708810e+00      1.81300402e+00      -1.64210642e+00     
H    1.86097361e+00      2.56364737e+00      -1.55640116e+00     
H    6.78612641e-01      2.02351430e+00      -2.37364724e+00     
O    1.32701529e+00      -1.00127354e+00     2.22904624e+00      
H    9.22205688e-01      -1.35015330e+00     3.02667014e+00      
H    2.25172633e+00      -8.70725749e-01     2.45147091e+00      
O    -2.72264122e+00     3.94276188e-01      1.10752603e-01      
H    -3.36891315e+00     7.35157317e-01      7.34763643e-01      
H    -2.99492431e+00     7.12653560e-01      -7.55021640e-01     
O    -1.62025889e+00     -1.29896020e+00     -5.42289455e+00     
H    -1.71388058e+00     -1.96663834e+00     -6.11016921e+00     
H    -2.35983122e+00     -6.99426438e-01     -5.54322116e+00     
23
3129.205558
N    -3.98317625e-03     -3.49866904e-02     -3.36720949e-02     
H    4.71790906e-01      -2.78296421e-01     8.59585818e-01      
H    -9.87378324e-01     2.31702062e-01      1.35325251e-01      
H    4.82255553e-01      7.78845919e-01      -5.04920661e-01     
C    4.01284066e-02      -1.20760795e+00     -9.30354183e-01     
H    1.04057462e+00      -1.47597495e+00     -1.11067514e+00     
H    -4.56656814e-01     -2.01751680e+00     -4.74941290e-01     
C    -6.43446594e-01     -8.46544024e-01     -2.23566537e+00     
O    -1.16893397e+00     2.30934485e-01      -2.44703132e+00     
O    -5.74895591e-01     -1.86619252e+00     -3.06931558e+00     
H    -1.00534222e+00     -1.61379085e+00     -3.94734638e+00     
O    1.26709113e+00      1.81300131e+00      -1.64210274e+00     
H    1.86099570e+00      2.56368574e+00      -1.55644571e+00     
H    6.78598114e-01      2.02357009e+00      -2.37373057e+00     
O    1.32701610e+00      -1.00127166e+00     2.22904539e+00      
H    9.22192469e-01      -1.35017383e+00     3.02669775e+00      
H    2.25173578e+00      -8.70729789e-01     2.45146806e+00      
O    -2.72263968e+00     3.94278990e-01      1.10748933e-01      
H    -3.36887598e+00     7.35146171e-01      7.34782908e-01      
H    -2.99489436e+00     7.12623057e-01      -7.54987837e-01     
O    -1.62025901e+00     -1.29895874e+00     -5.42289503e+00     
H    -1.71389064e+00     -1.96666114e+00     -6.11021370e+00     
H    -2.35985594e+00     -6.99415601e-01     -5.54325060e+00     
23
3129.205558
N    -4.61170180e-03     -3.52788090e-02     -3.34467355e-02     
H    4.72353212e-01      -2.78622971e-01     8.60512612e-01      
H    -9.83087557e-01     2.30432287e-01      1.34506714e-01      
H    4.85774273e-01      7.84838226e-01      -5.07988000e-01     
C    4.08521197e-02      -1.20902105e+00     -9.29991170e-01     
H    1.02459965e+00      -1.47186196e+00     -1.10791057e+00     
H    -4.49085948e-01     -2.00539806e+00     -4.81867376e-01     
C    -6.43439443e-01     -8.46542264e-01     -2.23566639e+00     
O    -1.16894664e+00     2.30943220e-01      -2.44703761e+00     
O    -5.74809274e-01     -1.86624373e+00     -3.06913651e+00     
H    -1.00668754e+00     -1.61302215e+00     -3.95011938e+00     
O    1.26709719e+00      1.81299589e+00      -1.64209539e+00     
H    1.86103986e+00      2.56376248e+00      -1.55653481e+00     
H    6.78569059e-01      2.02368167e+00      -2.37389722e+00     
O    1.32701773e+00      -1.00126789e+00     2.22904369e+00      
H    9.22166030e-01      -1.35021487e+00     3.02675296e+00      
H    2.25175466e+00      -8.70737868e-01     2.45146237e+00      
O    -2.72263659e+00     3.94284596e-01      1.10741592e-01      
H    -3.36880163e+00     7.35123879e-01      7.34821438e-01      
H    -2.99483447e+00     7.12562052e-01      -7.54920230e-01     
O    -1.62025924e+00     -1.29895582e+00     -5.42289598e+00     
H    -1.71391075e+00     -1.96670674e+00     -6.11030268e+00     
H    -2.35990539e+00     -6.99393926e-01     -5.54330946e+00     
23
3129.205558
N    -5.24022735e-03     -3.55709275e-02     -3.32213761e-02     
H    4.72915517e-01      -2.78949521e-01     8.61439406e-01      
H    -9.78796790e-01     2.29162511e-01      1.33688177e-01      
H    4.89292994e-01      7.90830533e-01      -5.11055339e-01     
C    4.15758328e-02      -1.21043415e+00     -9.29628157e-01     
H    1.00862468e+00      -1.46774898e+00     -1.10514599e+00     
H    -4.41515082e-01     -1.99327931e+00     -4.88793463e-01     
C    -6.43432292e-01     -8.46540504e-01     -2.23566741e+00     
O    -1.16895930e+00     2.30951954e-01      -2.44704390e+00     
O    -5.74722956e-01     -1.86629494e+00     -3.06895744e+00     
H    -1.00803286e+00     -1.61225345e+00     -3.95289239e+00     
O    1.26710325e+00      1.81299047e+00      -1.64208805e+00     
H    1.86108402e+00      2.56383923e+00      -1.55662391e+00     
H    6.78540005e-01      2.02379324e+00      -2.37406387e+00     
O    1.32701936e+00      -1.00126411e+00     2.22904198e+00      
H    9.22139592e-01      -1.35025592e+00     3.02680817e+00      
H    2.25177354e+00      -8.70745946e-01     2.45145668e+00      
O    -2.72263350e+00     3.94290201e-01      1.10734252e-01      
H    -3.36872729e+00     7.35101586e-01      7.34859969e-01      
H    -2.99477457e+00     7.12501047e-01      -7.54852622e-01     
O    -1.62025947e+00     -1.29895290e+00     -5.42289693e+00     
H    -1.71393086e+00     -1.96675234e+00     -6.11039167e+00     
H    -2.35995483e+00     -6.99372251e-01     -5.54336832e+00     
23
3129.205558
N    -5.86875291e-03     -3.58630460e-02     -3.29960167e-02     
H    4.73477823e-01      -2.79276072e-01     8.62366200e-01      
H    -9.74506022e-01     2.27892736e-01      1.32869640e-01      
H    4.92811714e-01      7.96822841e-01      -5.14122679e-01     
C    4.22995459e-02      -1.21184725e+00     -9.29265145e-01     
H    9.92649701e-01      -1.46363599e+00     -1.10238142e+00     
H    -4.33944216e-01     -1.98116057e+00     -4.95719550e-01     
C    -6.43425140e-01     -8.46538744e-01     -2.23566843e+00     
O    -1.16897197e+00     2.30960689e-01      -2.44705019e+00     
O    -5.74636639e-01     -1.86634615e+00     -3.06877837e+00     
H    -1.00937819e+00     -1.61148475e+00     -3.95566540e+00     
O    1.26710930e+00      1.81298506e+00      -1.64208070e+00     
H    1.86112818e+00      2.56391597e+00      -1.55671300e+00     
H    6.78510950e-01      2.02390482e+00      -2.37423053e+00     
O    1.32702099e+00      -1.00126034e+00     2.22904028e+00      
H    9.22113153e-01      -1.35029697e+00     3.02686337e+00      
H    2.25179242e+00      -8.70754025e-01     2.45145099e+00      
O    -2.72263042e+00     3.94295806e-01      1.10726911e-01      
H    -3.36865294e+00     7.35079294e-01      7.34898499e-01      
H    -2.99471468e+00     7.12440041e-01      -7.54785015e-01     
O    -1.62025971e+00     -1.29894998e+00     -5.42289788e+00     
H    -1.71395098e+00     -1.96679793e+00     -6.11048065e+00     
H    -2.36000428e+00     -6.99350576e-01     -5.54342718e+00     
23
3129.205558
N    -6.49727846e-03     -3.61551645e-02     -3.27706573e-02     
H    4.74040129e-01      -2.79602622e-01     8.63292994e-01      
H    -9.70215255e-01     2.26622960e-01      1.32051102e-01      
H    4.96330435e-01      8.02815148e-01      -5.17190018e-01     
C    4.30232591e-02      -1.21326036e+00     -9.28902132e-01     
H    9.76674728e-01      -1.45952301e+00     -1.09961684e+00     
H    -4.26373349e-01     -1.96904183e+00     -5.02645637e-01     
C    -6.43417989e-01     -8.46536985e-01     -2.23566944e+00     
O    -1.16898464e+00     2.30969424e-01      -2.44705648e+00     
O    -5.74550322e-01     -1.86639736e+00     -3.06859930e+00     
H    -1.01072351e+00     -1.61071605e+00     -3.95843841e+00     
O    1.26711536e+00      1.81297964e+00      -1.64207335e+00     
H    1.86117235e+00      2.56399272e+00      -1.55680210e+00     
H    6.78481896e-01      2.02401639e+00      -2.37439718e+00     
O    1.32702261e+00      -1.00125657e+00     2.22903858e+00      
H    9.22086715e-01      -1.35033802e+00     3.02691858e+00      
H    2.25181131e+00      -8.70762104e-01     2.45144530e+00      
O    -2.72262733e+00     3.94301411e-01      1.10719571e-01      
H    -3.36857860e+00     7.35057001e-01      7.34937029e-01      
H    -2.99465478e+00     7.12379036e-01      -7.54717408e-01     
O    -1.62025994e+00     -1.29894706e+00     -5.42289884e+00     
H    -1.71397109e+00     -1.96684353e+00     -6.11056964e+00     
H    -2.36005372e+00     -6.99328901e-01     -5.54348605e+00     
23
3129.205558
N    -7.75432956e-03     -3.67394015e-02     -3.23199385e-02     
H    4.75164740e-01      -2.80255722e-01     8.65146582e-01      
H    -9.61633720e-01     2.24083409e-01      1.30414028e-01      
H    5.03367876e-01      8.14799763e-01      -5.23324697e-01     
C    4.44706853e-02      -1.21608656e+00     -9.28176107e-01     
H    9.44724780e-01      -1.45129704e+00     -1.09408769e+00     
H    -4.11231617e-01     -1.94480434e+00     -5.16497810e-01     
C    -6.43403686e-01     -8.46533465e-01     -2.23567148e+00     
O    -1.16900998e+00     2.30986894e-01      -2.44706906e+00     
O    -5.74377687e-01     -1.86649978e+00     -3.06824117e+00     
H    -1.01341415e+00     -1.60917865e+00     -3.96398443e+00     
O    1.26712747e+00      1.81296880e+00      -1.64205865e+00     
H    1.86126067e+00      2.56414620e+00      -1.55698029e+00     
H    6.78423786e-01      2.02423954e+00      -2.37473049e+00     
O    1.32702587e+00      -1.00124903e+00     2.22903517e+00      
H    9.22033837e-01      -1.35042011e+00     3.02702900e+00      
H    2.25184907e+00      -8.70778262e-01     2.45143392e+00      
O    -2.72262116e+00     3.94312622e-01      1.10704890e-01      
H    -3.36842991e+00     7.35012416e-01      7.35014089e-01      
H    -2.99453499e+00     7.12257025e-01      -7.54582194e-01     
O    -1.62026041e+00     -1.29894123e+00     -5.42290074e+00     
H    -1.71401132e+00     -1.96693473e+00     -6.11074761e+00     
H    -2.36015261e+00     -6.99285551e-01     -5.54360377e+00     
