23
3126.955553
N    -1.66527876e-02     -3.92247991e-02     -2.90220190e-02     
H    4.76663302e-01      -2.79676116e-01     8.67822651e-01      
H    -8.73010482e-01     1.97773478e-01      1.11570211e-01      
H    5.34904874e-01      8.69459077e-01      -5.52505282e-01     
C    3.80257347e-02      -1.19987470e+00     -9.32873526e-01     
H    1.10774444e+00      -1.49340869e+00     -1.12329466e+00     
H    -5.01302825e-01     -2.08964829e+00     -4.32457222e-01     
C    -6.43333177e-01     -8.46508452e-01     -2.23573840e+00     
O    -1.16899784e+00     2.30855378e-01      -2.44694159e+00     
O    -5.75402890e-01     -1.86591441e+00     -3.07028986e+00     
H    -9.97634175e-01     -1.61796399e+00     -3.93205123e+00     
O    1.26724795e+00      1.81294334e+00      -1.64202080e+00     
H    1.86131562e+00      2.56478800e+00      -1.55799508e+00     
H    6.77875593e-01      2.02525281e+00      -2.37594861e+00     
O    1.32707069e+00      -1.00126442e+00     2.22901159e+00      
H    9.22215262e-01      -1.35033497e+00     3.02720596e+00      
H    2.25110305e+00      -8.70802190e-01     2.45144664e+00      
O    -2.72266392e+00     3.94392738e-01      1.10588294e-01      
H    -3.36678744e+00     7.34710120e-01      7.35200206e-01      
H    -2.99267282e+00     7.11303698e-01      -7.53054194e-01     
O    -1.62025950e+00     -1.29898710e+00     -5.42288394e+00     
H    -1.71374004e+00     -1.96627234e+00     -6.10965940e+00     
H    -2.35960159e+00     -6.99491566e-01     -5.54302696e+00     
23
3126.955553
N    -1.31711220e-02     -3.80192126e-02     -3.02972177e-02     
H    4.75164050e-01      -2.79167917e-01     8.65300046e-01      
H    -9.03747826e-01     2.06890512e-01      1.17918240e-01      
H    5.19983184e-01      8.43809634e-01      -5.39075457e-01     
C    3.81895461e-02      -1.20110146e+00     -9.32425197e-01     
H    1.09893947e+00      -1.49110675e+00     -1.12152207e+00     
H    -4.93926756e-01     -2.07767479e+00     -4.39615196e-01     
C    -6.43365107e-01     -8.46518224e-01     -2.23571963e+00     
O    -1.16897554e+00     2.30870787e-01      -2.44696088e+00     
O    -5.75319224e-01     -1.86595833e+00     -3.07013583e+00     
H    -9.98888526e-01     -1.61730506e+00     -3.93448851e+00     
O    1.26720572e+00      1.81296055e+00      -1.64204496e+00     
H    1.86121356e+00      2.56447406e+00      -1.55756319e+00     
H    6.78070750e-01      2.02477634e+00      -2.37531078e+00     
O    1.32705623e+00      -1.00126812e+00     2.22902089e+00      
H    9.22222783e-01      -1.35027416e+00     3.02705131e+00      
H    2.25125179e+00      -8.70780050e-01     2.45145484e+00      
O    -2.72265940e+00     3.94361498e-01      1.10632124e-01      
H    -3.36734675e+00     7.34830279e-01      7.35076616e-01      
H    -2.99325815e+00     7.11664041e-01      -7.53571408e-01     
O    -1.62025926e+00     -1.29898147e+00     -5.42288624e+00     
H    -1.71376763e+00     -1.96634674e+00     -6.10975348e+00     
H    -2.35964045e+00     -6.99483412e-01     -5.54305344e+00     
23
3126.955553
N    -1.14302892e-02     -3.74164194e-02     -3.09348170e-02     
H    4.74414424e-01      -2.78913818e-01     8.64038743e-01      
H    -9.19116499e-01     2.11449029e-01      1.21092254e-01      
H    5.12522339e-01      8.30984912e-01      -5.32360545e-01     
C    3.82714518e-02      -1.20171484e+00     -9.32201032e-01     
H    1.09453699e+00      -1.48995578e+00     -1.12063577e+00     
H    -4.90238721e-01     -2.07168804e+00     -4.43194182e-01     
C    -6.43381072e-01     -8.46523111e-01     -2.23571025e+00     
O    -1.16896438e+00     2.30878492e-01      -2.44697052e+00     
O    -5.75277391e-01     -1.86598029e+00     -3.07005881e+00     
H    -9.99515702e-01     -1.61697559e+00     -3.93570716e+00     
O    1.26718460e+00      1.81296915e+00      -1.64205704e+00     
H    1.86116253e+00      2.56431709e+00      -1.55734725e+00     
H    6.78168329e-01      2.02453811e+00      -2.37499186e+00     
O    1.32704900e+00      -1.00126996e+00     2.22902554e+00      
H    9.22226543e-01      -1.35024375e+00     3.02697398e+00      
H    2.25132616e+00      -8.70768980e-01     2.45145894e+00      
O    -2.72265714e+00     3.94345879e-01      1.10654039e-01      
H    -3.36762640e+00     7.34890359e-01      7.35014821e-01      
H    -2.99355082e+00     7.11844212e-01      -7.53830015e-01     
O    -1.62025914e+00     -1.29897865e+00     -5.42288738e+00     
H    -1.71378143e+00     -1.96638394e+00     -6.10980052e+00     
H    -2.35965989e+00     -6.99479335e-01     -5.54306668e+00     
23
3126.955553
N    -9.68945635e-03     -3.68136262e-02     -3.15724164e-02     
H    4.73664798e-01      -2.78659718e-01     8.62777440e-01      
H    -9.34485171e-01     2.16007546e-01      1.24266269e-01      
H    5.05061493e-01      8.18160191e-01      -5.25645632e-01     
C    3.83533575e-02      -1.20232822e+00     -9.31976867e-01     
H    1.09013451e+00      -1.48880481e+00     -1.11974948e+00     
H    -4.86550686e-01     -2.06570129e+00     -4.46773169e-01     
C    -6.43397037e-01     -8.46527997e-01     -2.23570087e+00     
O    -1.16895323e+00     2.30886196e-01      -2.44698017e+00     
O    -5.75235558e-01     -1.86600225e+00     -3.06998179e+00     
H    -1.00014288e+00     -1.61664612e+00     -3.93692580e+00     
O    1.26716349e+00      1.81297775e+00      -1.64206912e+00     
H    1.86111150e+00      2.56416012e+00      -1.55713130e+00     
H    6.78265908e-01      2.02429987e+00      -2.37467294e+00     
O    1.32704177e+00      -1.00127181e+00     2.22903019e+00      
H    9.22230304e-01      -1.35021335e+00     3.02689665e+00      
H    2.25140053e+00      -8.70757910e-01     2.45146304e+00      
O    -2.72265488e+00     3.94330259e-01      1.10675954e-01      
H    -3.36790606e+00     7.34950438e-01      7.34953027e-01      
H    -2.99384348e+00     7.12024383e-01      -7.54088623e-01     
O    -1.62025902e+00     -1.29897584e+00     -5.42288853e+00     
H    -1.71379523e+00     -1.96642114e+00     -6.10984756e+00     
H    -2.35967932e+00     -6.99475259e-01     -5.54307991e+00     
23
3126.955553
N    -7.94862355e-03     -3.62108330e-02     -3.22100157e-02     
H    4.72915172e-01      -2.78405619e-01     8.61516138e-01      
H    -9.49853843e-01     2.20566062e-01      1.27440283e-01      
H    4.97600648e-01      8.05335469e-01      -5.18930720e-01     
C    3.84352632e-02      -1.20294160e+00     -9.31752702e-01     
H    1.08573202e+00      -1.48765384e+00     -1.11886318e+00     
H    -4.82862651e-01     -2.05971454e+00     -4.50352156e-01     
C    -6.43413002e-01     -8.46532884e-01     -2.23569149e+00     
O    -1.16894208e+00     2.30893901e-01      -2.44698981e+00     
O    -5.75193725e-01     -1.86602422e+00     -3.06990477e+00     
H    -1.00077005e+00     -1.61631665e+00     -3.93814444e+00     
O    1.26714237e+00      1.81298635e+00      -1.64208120e+00     
H    1.86106046e+00      2.56400315e+00      -1.55691536e+00     
H    6.78363487e-01      2.02406164e+00      -2.37435402e+00     
O    1.32703454e+00      -1.00127366e+00     2.22903485e+00      
H    9.22234064e-01      -1.35018294e+00     3.02681932e+00      
H    2.25147490e+00      -8.70746841e-01     2.45146714e+00      
O    -2.72265262e+00     3.94314639e-01      1.10697869e-01      
H    -3.36818571e+00     7.35010518e-01      7.34891232e-01      
H    -2.99413615e+00     7.12204554e-01      -7.54347230e-01     
O    -1.62025890e+00     -1.29897302e+00     -5.42288968e+00     
H    -1.71380902e+00     -1.96645834e+00     -6.10989460e+00     
H    -2.35969875e+00     -6.99471182e-01     -5.54309315e+00     
23
3126.955553
N    -6.20779075e-03     -3.56080398e-02     -3.28476150e-02     
H    4.72165547e-01      -2.78151519e-01     8.60254835e-01      
H    -9.65222515e-01     2.25124579e-01      1.30614297e-01      
H    4.90139803e-01      7.92510747e-01      -5.12215807e-01     
C    3.85171689e-02      -1.20355498e+00     -9.31528538e-01     
H    1.08132954e+00      -1.48650286e+00     -1.11797688e+00     
H    -4.79174617e-01     -2.05372779e+00     -4.53931143e-01     
C    -6.43428967e-01     -8.46537770e-01     -2.23568210e+00     
O    -1.16893093e+00     2.30901606e-01      -2.44699945e+00     
O    -5.75151892e-01     -1.86604618e+00     -3.06982776e+00     
H    -1.00139723e+00     -1.61598719e+00     -3.93936308e+00     
O    1.26712125e+00      1.81299495e+00      -1.64209328e+00     
H    1.86100943e+00      2.56384619e+00      -1.55669941e+00     
H    6.78461065e-01      2.02382341e+00      -2.37403510e+00     
O    1.32702731e+00      -1.00127551e+00     2.22903950e+00      
H    9.22237825e-01      -1.35015254e+00     3.02674199e+00      
H    2.25154927e+00      -8.70735771e-01     2.45147124e+00      
O    -2.72265037e+00     3.94299019e-01      1.10719784e-01      
H    -3.36846536e+00     7.35070597e-01      7.34829437e-01      
H    -2.99442882e+00     7.12384726e-01      -7.54605837e-01     
O    -1.62025878e+00     -1.29897021e+00     -5.42289083e+00     
H    -1.71382282e+00     -1.96649554e+00     -6.10994165e+00     
H    -2.35971818e+00     -6.99467105e-01     -5.54310639e+00     
23
3126.955553
N    -5.33737435e-03     -3.53066432e-02     -3.31664147e-02     
H    4.71790734e-01      -2.78024469e-01     8.59624184e-01      
H    -9.72906851e-01     2.27403838e-01      1.32201304e-01      
H    4.86409380e-01      7.86098386e-01      -5.08858351e-01     
C    3.85581217e-02      -1.20386167e+00     -9.31416455e-01     
H    1.07912830e+00      -1.48592738e+00     -1.11753373e+00     
H    -4.77330599e-01     -2.05073442e+00     -4.55720636e-01     
C    -6.43436950e-01     -8.46540213e-01     -2.23567741e+00     
O    -1.16892536e+00     2.30905458e-01      -2.44700427e+00     
O    -5.75130976e-01     -1.86605716e+00     -3.06978925e+00     
H    -1.00171082e+00     -1.61582245e+00     -3.93997240e+00     
O    1.26711069e+00      1.81299925e+00      -1.64209932e+00     
H    1.86098392e+00      2.56376770e+00      -1.55659144e+00     
H    6.78509855e-01      2.02370429e+00      -2.37387564e+00     
O    1.32702369e+00      -1.00127643e+00     2.22904182e+00      
H    9.22239705e-01      -1.35013734e+00     3.02670332e+00      
H    2.25158645e+00      -8.70730236e-01     2.45147329e+00      
O    -2.72264924e+00     3.94291210e-01      1.10730741e-01      
H    -3.36860519e+00     7.35100637e-01      7.34798540e-01      
H    -2.99457515e+00     7.12474811e-01      -7.54735140e-01     
O    -1.62025872e+00     -1.29896880e+00     -5.42289140e+00     
H    -1.71382972e+00     -1.96651414e+00     -6.10996517e+00     
H    -2.35972790e+00     -6.99465066e-01     -5.54311301e+00     
23
3126.955553
N    -4.46695795e-03     -3.50052466e-02     -3.34852144e-02     
H    4.71415921e-01      -2.77897420e-01     8.58993533e-01      
H    -9.80591187e-01     2.29683096e-01      1.33788312e-01      
H    4.82678957e-01      7.79686026e-01      -5.05500895e-01     
C    3.85990746e-02      -1.20416836e+00     -9.31304373e-01     
H    1.07692705e+00      -1.48535189e+00     -1.11709059e+00     
H    -4.75486582e-01     -2.04774104e+00     -4.57510129e-01     
C    -6.43444932e-01     -8.46542657e-01     -2.23567272e+00     
O    -1.16891978e+00     2.30909310e-01      -2.44700910e+00     
O    -5.75110059e-01     -1.86606814e+00     -3.06975074e+00     
H    -1.00202440e+00     -1.61565772e+00     -3.94058172e+00     
O    1.26710014e+00      1.81300355e+00      -1.64210536e+00     
H    1.86095840e+00      2.56368922e+00      -1.55648347e+00     
H    6.78558644e-01      2.02358517e+00      -2.37371618e+00     
O    1.32702008e+00      -1.00127735e+00     2.22904415e+00      
H    9.22241585e-01      -1.35012213e+00     3.02666466e+00      
H    2.25162364e+00      -8.70724701e-01     2.45147534e+00      
O    -2.72264811e+00     3.94283400e-01      1.10741699e-01      
H    -3.36874502e+00     7.35130677e-01      7.34767643e-01      
H    -2.99472148e+00     7.12564897e-01      -7.54864444e-01     
O    -1.62025866e+00     -1.29896739e+00     -5.42289197e+00     
H    -1.71383661e+00     -1.96653274e+00     -6.10998869e+00     
H    -2.35973762e+00     -6.99463028e-01     -5.54311963e+00     
23
3126.955553
N    -9.85292350e-04     -3.37996602e-02     -3.47604130e-02     
H    4.69916669e-01      -2.77389220e-01     8.56470927e-01      
H    -1.01132853e+00     2.38800130e-01      1.40136340e-01      
H    4.67757267e-01      7.54036582e-01      -4.92071069e-01     
C    3.87628860e-02      -1.20539512e+00     -9.30856043e-01     
H    1.06812209e+00      -1.48304995e+00     -1.11531799e+00     
H    -4.68110512e-01     -2.03576754e+00     -4.64668103e-01     
C    -6.43476862e-01     -8.46552429e-01     -2.23565396e+00     
O    -1.16889748e+00     2.30924720e-01      -2.44702838e+00     
O    -5.75026393e-01     -1.86611206e+00     -3.06959670e+00     
H    -1.00327876e+00     -1.61499878e+00     -3.94301900e+00     
O    1.26705790e+00      1.81302075e+00      -1.64212952e+00     
H    1.86085634e+00      2.56337528e+00      -1.55605157e+00     
H    6.78753802e-01      2.02310871e+00      -2.37307834e+00     
O    1.32700562e+00      -1.00128105e+00     2.22905345e+00      
H    9.22249107e-01      -1.35006133e+00     3.02651000e+00      
H    2.25177238e+00      -8.70702561e-01     2.45148354e+00      
O    -2.72264359e+00     3.94252160e-01      1.10785529e-01      
H    -3.36930432e+00     7.35250835e-01      7.34644053e-01      
H    -2.99530682e+00     7.12925239e-01      -7.55381658e-01     
O    -1.62025842e+00     -1.29896177e+00     -5.42289427e+00     
H    -1.71386421e+00     -1.96660714e+00     -6.11008277e+00     
H    -2.35977648e+00     -6.99454874e-01     -5.54314611e+00     
23
3126.955553
N    -1.14875950e-04     -3.34982636e-02     -3.50792127e-02     
H    4.69541856e-01      -2.77262171e-01     8.55840276e-01      
H    -1.01901287e+00     2.41079388e-01      1.41723348e-01      
H    4.64026844e-01      7.47624222e-01      -4.88713613e-01     
C    3.88038389e-02      -1.20570181e+00     -9.30743961e-01     
H    1.06592084e+00      -1.48247446e+00     -1.11487485e+00     
H    -4.66266495e-01     -2.03277416e+00     -4.66457596e-01     
C    -6.43484844e-01     -8.46554873e-01     -2.23564927e+00     
O    -1.16889190e+00     2.30928572e-01      -2.44703321e+00     
O    -5.75005476e-01     -1.86612304e+00     -3.06955819e+00     
H    -1.00359234e+00     -1.61483405e+00     -3.94362832e+00     
O    1.26704735e+00      1.81302505e+00      -1.64213556e+00     
H    1.86083082e+00      2.56329680e+00      -1.55594360e+00     
H    6.78802591e-01      2.02298959e+00      -2.37291888e+00     
O    1.32700201e+00      -1.00128197e+00     2.22905578e+00      
H    9.22250987e-01      -1.35004612e+00     3.02647134e+00      
H    2.25180957e+00      -8.70697026e-01     2.45148559e+00      
O    -2.72264246e+00     3.94244350e-01      1.10796487e-01      
H    -3.36944415e+00     7.35280875e-01      7.34613156e-01      
H    -2.99545315e+00     7.13015325e-01      -7.55510962e-01     
O    -1.62025836e+00     -1.29896036e+00     -5.42289484e+00     
H    -1.71387110e+00     -1.96662574e+00     -6.11010629e+00     
H    -2.35978620e+00     -6.99452836e-01     -5.54315273e+00     
23
3126.955553
N    7.55540451e-04      -3.31968670e-02     -3.53980124e-02     
H    4.69167043e-01      -2.77135121e-01     8.55209625e-01      
H    -1.02669720e+00     2.43358647e-01      1.43310355e-01      
H    4.60296421e-01      7.41211861e-01      -4.85356157e-01     
C    3.88447917e-02      -1.20600850e+00     -9.30631878e-01     
H    1.06371960e+00      -1.48189898e+00     -1.11443170e+00     
H    -4.64422477e-01     -2.02978079e+00     -4.68247089e-01     
C    -6.43492827e-01     -8.46557316e-01     -2.23564458e+00     
O    -1.16888633e+00     2.30932424e-01      -2.44703803e+00     
O    -5.74984560e-01     -1.86613402e+00     -3.06951968e+00     
H    -1.00390593e+00     -1.61466931e+00     -3.94423764e+00     
O    1.26703679e+00      1.81302935e+00      -1.64214160e+00     
H    1.86080531e+00      2.56321831e+00      -1.55583563e+00     
H    6.78851381e-01      2.02287047e+00      -2.37275942e+00     
O    1.32699839e+00      -1.00128289e+00     2.22905810e+00      
H    9.22252867e-01      -1.35003092e+00     3.02643267e+00      
H    2.25184675e+00      -8.70691491e-01     2.45148764e+00      
O    -2.72264133e+00     3.94236541e-01      1.10807444e-01      
H    -3.36958398e+00     7.35310915e-01      7.34582259e-01      
H    -2.99559948e+00     7.13105410e-01      -7.55640265e-01     
O    -1.62025830e+00     -1.29895895e+00     -5.42289541e+00     
H    -1.71387800e+00     -1.96664434e+00     -6.11012981e+00     
H    -2.35979592e+00     -6.99450797e-01     -5.54315935e+00     
23
3126.955553
N    2.49637325e-03      -3.25940738e-02     -3.60356117e-02     
H    4.68417418e-01      -2.76881021e-01     8.53948322e-01      
H    -1.04206588e+00     2.47917164e-01      1.46484369e-01      
H    4.52835576e-01      7.28387139e-01      -4.78641244e-01     
C    3.89266974e-02      -1.20662188e+00     -9.30407714e-01     
H    1.05931712e+00      -1.48074800e+00     -1.11354540e+00     
H    -4.60734443e-01     -2.02379404e+00     -4.71826076e-01     
C    -6.43508792e-01     -8.46562202e-01     -2.23563519e+00     
O    -1.16887518e+00     2.30940129e-01      -2.44704767e+00     
O    -5.74942727e-01     -1.86615598e+00     -3.06944267e+00     
H    -1.00453311e+00     -1.61433985e+00     -3.94545628e+00     
O    1.26701567e+00      1.81303795e+00      -1.64215368e+00     
H    1.86075428e+00      2.56306135e+00      -1.55561968e+00     
H    6.78948959e-01      2.02263224e+00      -2.37244050e+00     
O    1.32699116e+00      -1.00128474e+00     2.22906275e+00      
H    9.22256628e-01      -1.35000052e+00     3.02635534e+00      
H    2.25192112e+00      -8.70680421e-01     2.45149174e+00      
O    -2.72263908e+00     3.94220921e-01      1.10829359e-01      
H    -3.36986363e+00     7.35370994e-01      7.34520464e-01      
H    -2.99589215e+00     7.13285582e-01      -7.55898872e-01     
O    -1.62025818e+00     -1.29895614e+00     -5.42289656e+00     
H    -1.71389180e+00     -1.96668154e+00     -6.11017686e+00     
H    -2.35981535e+00     -6.99446720e-01     -5.54317259e+00     
23
3126.955553
N    4.23720605e-03      -3.19912806e-02     -3.66732110e-02     
H    4.67667792e-01      -2.76626922e-01     8.52687020e-01      
H    -1.05743455e+00     2.52475680e-01      1.49658383e-01      
H    4.45374731e-01      7.15562417e-01      -4.71926332e-01     
C    3.90086031e-02      -1.20723526e+00     -9.30183549e-01     
H    1.05491463e+00      -1.47959703e+00     -1.11265910e+00     
H    -4.57046408e-01     -2.01780729e+00     -4.75405063e-01     
C    -6.43524757e-01     -8.46567089e-01     -2.23562581e+00     
O    -1.16886403e+00     2.30947834e-01      -2.44705731e+00     
O    -5.74900894e-01     -1.86617795e+00     -3.06936565e+00     
H    -1.00516028e+00     -1.61401038e+00     -3.94667492e+00     
O    1.26699455e+00      1.81304655e+00      -1.64216576e+00     
H    1.86070324e+00      2.56290438e+00      -1.55540374e+00     
H    6.79046538e-01      2.02239401e+00      -2.37212158e+00     
O    1.32698393e+00      -1.00128659e+00     2.22906741e+00      
H    9.22260388e-01      -1.34997011e+00     3.02627801e+00      
H    2.25199549e+00      -8.70669352e-01     2.45149584e+00      
O    -2.72263682e+00     3.94205301e-01      1.10851274e-01      
H    -3.37014328e+00     7.35431074e-01      7.34458669e-01      
H    -2.99618482e+00     7.13465753e-01      -7.56157479e-01     
O    -1.62025806e+00     -1.29895332e+00     -5.42289771e+00     
H    -1.71390559e+00     -1.96671874e+00     -6.11022390e+00     
H    -2.35983478e+00     -6.99442643e-01     -5.54318583e+00     
23
3126.955553
N    5.97803885e-03      -3.13884874e-02     -3.73108104e-02     
H    4.66918166e-01      -2.76372822e-01     8.51425717e-01      
H    -1.07280322e+00     2.57034197e-01      1.52832398e-01      
H    4.37913885e-01      7.02737696e-01      -4.65211419e-01     
C    3.90905088e-02      -1.20784864e+00     -9.29959384e-01     
H    1.05051215e+00      -1.47844606e+00     -1.11177281e+00     
H    -4.53358373e-01     -2.01182054e+00     -4.78984050e-01     
C    -6.43540722e-01     -8.46571975e-01     -2.23561643e+00     
O    -1.16885288e+00     2.30955538e-01      -2.44706696e+00     
O    -5.74859061e-01     -1.86619991e+00     -3.06928863e+00     
H    -1.00578746e+00     -1.61368091e+00     -3.94789356e+00     
O    1.26697344e+00      1.81305515e+00      -1.64217784e+00     
H    1.86065221e+00      2.56274741e+00      -1.55518779e+00     
H    6.79144117e-01      2.02215577e+00      -2.37180266e+00     
O    1.32697670e+00      -1.00128844e+00     2.22907206e+00      
H    9.22264149e-01      -1.34993971e+00     3.02620068e+00      
H    2.25206986e+00      -8.70658282e-01     2.45149994e+00      
O    -2.72263456e+00     3.94189681e-01      1.10873189e-01      
H    -3.37042294e+00     7.35491153e-01      7.34396875e-01      
H    -2.99647748e+00     7.13645924e-01      -7.56416087e-01     
O    -1.62025794e+00     -1.29895051e+00     -5.42289886e+00     
H    -1.71391939e+00     -1.96675594e+00     -6.11027094e+00     
H    -2.35985421e+00     -6.99438567e-01     -5.54319906e+00     
23
3126.955553
N    7.71887165e-03      -3.07856942e-02     -3.79484097e-02     
H    4.66168540e-01      -2.76118723e-01     8.50164414e-01      
H    -1.08817189e+00     2.61592714e-01      1.56006412e-01      
H    4.30453040e-01      6.89912974e-01      -4.58496507e-01     
C    3.91724145e-02      -1.20846202e+00     -9.29735219e-01     
H    1.04610967e+00      -1.47729509e+00     -1.11088651e+00     
H    -4.49670338e-01     -2.00583379e+00     -4.82563036e-01     
C    -6.43556687e-01     -8.46576862e-01     -2.23560705e+00     
O    -1.16884172e+00     2.30963243e-01      -2.44707660e+00     
O    -5.74817228e-01     -1.86622187e+00     -3.06921161e+00     
H    -1.00641463e+00     -1.61335144e+00     -3.94911221e+00     
O    1.26695232e+00      1.81306375e+00      -1.64218992e+00     
H    1.86060118e+00      2.56259044e+00      -1.55497185e+00     
H    6.79241696e-01      2.02191754e+00      -2.37148374e+00     
O    1.32696947e+00      -1.00129028e+00     2.22907671e+00      
H    9.22267909e-01      -1.34990930e+00     3.02612335e+00      
H    2.25214423e+00      -8.70647212e-01     2.45150404e+00      
O    -2.72263230e+00     3.94174062e-01      1.10895104e-01      
H    -3.37070259e+00     7.35551233e-01      7.34335080e-01      
H    -2.99677015e+00     7.13826095e-01      -7.56674694e-01     
O    -1.62025782e+00     -1.29894769e+00     -5.42290000e+00     
H    -1.71393319e+00     -1.96679314e+00     -6.11031798e+00     
H    -2.35987365e+00     -6.99434490e-01     -5.54321230e+00     
23
3126.955553
N    1.12005373e-02      -2.95801077e-02     -3.92236084e-02     
H    4.64669288e-01      -2.75610524e-01     8.47641809e-01      
H    -1.11890924e+00     2.70709748e-01      1.62354441e-01      
H    4.15531350e-01      6.64263531e-01      -4.45066682e-01     
C    3.93362259e-02      -1.20968878e+00     -9.29286890e-01     
H    1.03730470e+00      -1.47499315e+00     -1.10911392e+00     
H    -4.42294269e-01     -1.99386029e+00     -4.89721010e-01     
C    -6.43588617e-01     -8.46586634e-01     -2.23558828e+00     
O    -1.16881942e+00     2.30978652e-01      -2.44709589e+00     
O    -5.74733562e-01     -1.86626579e+00     -3.06905758e+00     
H    -1.00766899e+00     -1.61269251e+00     -3.95154949e+00     
O    1.26691009e+00      1.81308096e+00      -1.64221408e+00     
H    1.86049912e+00      2.56227650e+00      -1.55453996e+00     
H    6.79436853e-01      2.02144107e+00      -2.37084591e+00     
O    1.32695501e+00      -1.00129398e+00     2.22908601e+00      
H    9.22275430e-01      -1.34984849e+00     3.02596870e+00      
H    2.25229297e+00      -8.70625072e-01     2.45151224e+00      
O    -2.72262778e+00     3.94142822e-01      1.10938934e-01      
H    -3.37126190e+00     7.35671392e-01      7.34211490e-01      
H    -2.99735548e+00     7.14186438e-01      -7.57191908e-01     
O    -1.62025758e+00     -1.29894206e+00     -5.42290230e+00     
H    -1.71396078e+00     -1.96686754e+00     -6.11041206e+00     
H    -2.35991251e+00     -6.99426336e-01     -5.54323878e+00     
