23
1652.225285
N    -1.89424388e-03     -3.45615485e-02     -3.39270414e-02     
H    4.65940503e-01      -2.94091199e-01     8.57240767e-01      
H    -9.89425539e-01     2.58617477e-01      1.33626458e-01      
H    4.53789939e-01      7.71571770e-01      -5.06236451e-01     
C    3.99838901e-02      -1.20514062e+00     -9.29737490e-01     
H    1.07259864e+00      -1.48539187e+00     -1.12044792e+00     
H    -4.73915073e-01     -2.04251156e+00     -4.63847528e-01     
C    -6.44248906e-01     -8.45848844e-01     -2.23658685e+00     
O    -1.16836003e+00     2.30378578e-01      -2.44690892e+00     
O    -5.75071348e-01     -1.86602632e+00     -3.06951229e+00     
H    -1.00268742e+00     -1.61488209e+00     -3.94142883e+00     
O    1.26647121e+00      1.80143735e+00      -1.63413957e+00     
H    1.80028625e+00      2.62376757e+00      -1.66135150e+00     
H    7.43378951e-01      2.14303558e+00      -2.39102175e+00     
O    1.32788783e+00      -1.00159787e+00     2.23060560e+00      
H    9.06790803e-01      -1.35046867e+00     3.01837615e+00      
H    2.25465931e+00      -8.65049787e-01     2.43597744e+00      
O    -2.72399577e+00     3.95034644e-01      1.10469522e-01      
H    -3.36105300e+00     7.28092020e-01      7.46842755e-01      
H    -2.98212478e+00     7.05827788e-01      -7.61763555e-01     
O    -1.62031654e+00     -1.29897319e+00     -5.42292423e+00     
H    -1.71315349e+00     -1.96687056e+00     -6.10980880e+00     
H    -2.35946740e+00     -6.99067977e-01     -5.54270371e+00     
23
1652.225285
N    -2.10221420e-03     -3.45217747e-02     -3.39759844e-02     
H    4.67121951e-01      -2.89979229e-01     8.57363633e-01      
H    -9.91059119e-01     2.52523511e-01      1.34460425e-01      
H    4.59146982e-01      7.70394153e-01      -5.04373833e-01     
C    3.96581626e-02      -1.20505090e+00     -9.30073170e-01     
H    1.07258013e+00      -1.48509413e+00     -1.11938701e+00     
H    -4.73385942e-01     -2.04232224e+00     -4.63157925e-01     
C    -6.44051904e-01     -8.46023519e-01     -2.23635597e+00     
O    -1.16849718e+00     2.30513187e-01      -2.44693637e+00     
O    -5.75070567e-01     -1.86604226e+00     -3.06955265e+00     
H    -1.00267846e+00     -1.61499363e+00     -3.94152171e+00     
O    1.26662316e+00      1.80433105e+00      -1.63613403e+00     
H    1.81544153e+00      2.60870874e+00      -1.63508050e+00     
H    7.27198269e-01      2.11311342e+00      -2.38661563e+00     
O    1.32766908e+00      -1.00151821e+00     2.23021640e+00      
H    9.10654438e-01      -1.35037444e+00     3.02042894e+00      
H    2.25391899e+00      -8.66465748e-01     2.43985294e+00      
O    -2.72365829e+00     3.94842928e-01      1.10543045e-01      
H    -3.36304591e+00     7.29866704e-01      7.43808528e-01      
H    -2.98534712e+00     7.07557108e-01      -7.60103429e-01     
O    -1.62030204e+00     -1.29897103e+00     -5.42291646e+00     
H    -1.71332772e+00     -1.96679541e+00     -6.10986554e+00     
H    -2.35953981e+00     -6.99165720e-01     -5.54281100e+00     
23
1652.225285
N    -2.20619936e-03     -3.45018879e-02     -3.40004560e-02     
H    4.67712675e-01      -2.87923244e-01     8.57425066e-01      
H    -9.91875909e-01     2.49476528e-01      1.34877408e-01      
H    4.61825504e-01      7.69805345e-01      -5.03442525e-01     
C    3.94952989e-02      -1.20500604e+00     -9.30241009e-01     
H    1.07257087e+00      -1.48494526e+00     -1.11885656e+00     
H    -4.73121376e-01     -2.04222758e+00     -4.62813123e-01     
C    -6.43953403e-01     -8.46110856e-01     -2.23624053e+00     
O    -1.16856576e+00     2.30580492e-01      -2.44695010e+00     
O    -5.75070177e-01     -1.86605024e+00     -3.06957282e+00     
H    -1.00267398e+00     -1.61504940e+00     -3.94156816e+00     
O    1.26669914e+00      1.80577790e+00      -1.63713127e+00     
H    1.82301917e+00      2.60117932e+00      -1.62194501e+00     
H    7.19107928e-01      2.09815234e+00      -2.38441257e+00     
O    1.32755971e+00      -1.00147837e+00     2.23002180e+00      
H    9.12586256e-01      -1.35032732e+00     3.02145534e+00      
H    2.25354883e+00      -8.67173728e-01     2.44179069e+00      
O    -2.72348955e+00     3.94747070e-01      1.10579806e-01      
H    -3.36404237e+00     7.30754046e-01      7.42291415e-01      
H    -2.98695830e+00     7.08421768e-01      -7.59273366e-01     
O    -1.62029479e+00     -1.29896996e+00     -5.42291257e+00     
H    -1.71341483e+00     -1.96675783e+00     -6.10989390e+00     
H    -2.35957602e+00     -6.99214592e-01     -5.54286465e+00     
23
1652.225285
N    -2.31018452e-03     -3.44820010e-02     -3.40249275e-02     
H    4.68303399e-01      -2.85867259e-01     8.57486498e-01      
H    -9.92692699e-01     2.46429545e-01      1.35294392e-01      
H    4.64504026e-01      7.69216537e-01      -5.02511216e-01     
C    3.93324352e-02      -1.20496118e+00     -9.30408849e-01     
H    1.07256161e+00      -1.48479640e+00     -1.11832610e+00     
H    -4.72856810e-01     -2.04213292e+00     -4.62468322e-01     
C    -6.43854902e-01     -8.46198194e-01     -2.23612509e+00     
O    -1.16863433e+00     2.30647797e-01      -2.44696383e+00     
O    -5.75069787e-01     -1.86605821e+00     -3.06959300e+00     
H    -1.00266950e+00     -1.61510517e+00     -3.94161460e+00     
O    1.26677512e+00      1.80722475e+00      -1.63812850e+00     
H    1.83059681e+00      2.59364991e+00      -1.60880951e+00     
H    7.11017587e-01      2.08319126e+00      -2.38220950e+00     
O    1.32745034e+00      -1.00143854e+00     2.22982720e+00      
H    9.14518074e-01      -1.35028020e+00     3.02248174e+00      
H    2.25317866e+00      -8.67881709e-01     2.44372844e+00      
O    -2.72332081e+00     3.94651212e-01      1.10616568e-01      
H    -3.36503883e+00     7.31641388e-01      7.40774301e-01      
H    -2.98856947e+00     7.09286428e-01      -7.58443303e-01     
O    -1.62028754e+00     -1.29896888e+00     -5.42290868e+00     
H    -1.71350195e+00     -1.96672025e+00     -6.10992227e+00     
H    -2.35961222e+00     -6.99263464e-01     -5.54291829e+00     
23
1652.225285
N    -2.41416967e-03     -3.44621141e-02     -3.40493991e-02     
H    4.68894123e-01      -2.83811275e-01     8.57547931e-01      
H    -9.93509489e-01     2.43382562e-01      1.35711375e-01      
H    4.67182547e-01      7.68627729e-01      -5.01579908e-01     
C    3.91695715e-02      -1.20491632e+00     -9.30576689e-01     
H    1.07255235e+00      -1.48464753e+00     -1.11779565e+00     
H    -4.72592244e-01     -2.04203827e+00     -4.62123520e-01     
C    -6.43756401e-01     -8.46285531e-01     -2.23600965e+00     
O    -1.16870291e+00     2.30715101e-01      -2.44697756e+00     
O    -5.75069397e-01     -1.86606618e+00     -3.06961318e+00     
H    -1.00266502e+00     -1.61516094e+00     -3.94166104e+00     
O    1.26685109e+00      1.80867160e+00      -1.63912574e+00     
H    1.83817445e+00      2.58612049e+00      -1.59567401e+00     
H    7.02927246e-01      2.06823018e+00      -2.38000644e+00     
O    1.32734097e+00      -1.00139870e+00     2.22963260e+00      
H    9.16449892e-01      -1.35023308e+00     3.02350814e+00      
H    2.25280850e+00      -8.68589689e-01     2.44566619e+00      
O    -2.72315207e+00     3.94555354e-01      1.10653329e-01      
H    -3.36603529e+00     7.32528730e-01      7.39257188e-01      
H    -2.99018064e+00     7.10151088e-01      -7.57613240e-01     
O    -1.62028029e+00     -1.29896781e+00     -5.42290479e+00     
H    -1.71358906e+00     -1.96668267e+00     -6.10995063e+00     
H    -2.35964843e+00     -6.99312336e-01     -5.54297194e+00     
23
1652.225285
N    -2.51815483e-03     -3.44422272e-02     -3.40738706e-02     
H    4.69484847e-01      -2.81755290e-01     8.57609364e-01      
H    -9.94326279e-01     2.40335579e-01      1.36128359e-01      
H    4.69861069e-01      7.68038920e-01      -5.00648599e-01     
C    3.90067077e-02      -1.20487146e+00     -9.30744529e-01     
H    1.07254309e+00      -1.48449866e+00     -1.11726520e+00     
H    -4.72327679e-01     -2.04194361e+00     -4.61778719e-01     
C    -6.43657899e-01     -8.46372868e-01     -2.23589422e+00     
O    -1.16877148e+00     2.30782406e-01      -2.44699128e+00     
O    -5.75069006e-01     -1.86607415e+00     -3.06963336e+00     
H    -1.00266054e+00     -1.61521671e+00     -3.94170748e+00     
O    1.26692707e+00      1.81011845e+00      -1.64012297e+00     
H    1.84575209e+00      2.57859108e+00      -1.58253851e+00     
H    6.94836905e-01      2.05326910e+00      -2.37780338e+00     
O    1.32723159e+00      -1.00135887e+00     2.22943800e+00      
H    9.18381710e-01      -1.35018597e+00     3.02453453e+00      
H    2.25243834e+00      -8.69297670e-01     2.44760394e+00      
O    -2.72298333e+00     3.94459496e-01      1.10690091e-01      
H    -3.36703175e+00     7.33416072e-01      7.37740075e-01      
H    -2.99179181e+00     7.11015748e-01      -7.56783177e-01     
O    -1.62027304e+00     -1.29896673e+00     -5.42290090e+00     
H    -1.71367618e+00     -1.96664510e+00     -6.10997900e+00     
H    -2.35968464e+00     -6.99361207e-01     -5.54302558e+00     
23
1652.225285
N    -2.57014741e-03     -3.44322837e-02     -3.40861064e-02     
H    4.69780209e-01      -2.80727297e-01     8.57640081e-01      
H    -9.94734674e-01     2.38812087e-01      1.36336851e-01      
H    4.71200330e-01      7.67744516e-01      -5.00182945e-01     
C    3.89252759e-02      -1.20484903e+00     -9.30828448e-01     
H    1.07253846e+00      -1.48442422e+00     -1.11699997e+00     
H    -4.72195396e-01     -2.04189628e+00     -4.61606318e-01     
C    -6.43608649e-01     -8.46416537e-01     -2.23583650e+00     
O    -1.16880577e+00     2.30816058e-01      -2.44699815e+00     
O    -5.75068811e-01     -1.86607814e+00     -3.06964345e+00     
H    -1.00265830e+00     -1.61524460e+00     -3.94173070e+00     
O    1.26696506e+00      1.81084187e+00      -1.64062159e+00     
H    1.84954091e+00      2.57482637e+00      -1.57597077e+00     
H    6.90791734e-01      2.04578856e+00      -2.37670185e+00     
O    1.32717691e+00      -1.00133895e+00     2.22934070e+00      
H    9.19347619e-01      -1.35016241e+00     3.02504773e+00      
H    2.25225325e+00      -8.69651660e-01     2.44857282e+00      
O    -2.72289896e+00     3.94411567e-01      1.10708472e-01      
H    -3.36752998e+00     7.33859743e-01      7.36981518e-01      
H    -2.99259739e+00     7.11448078e-01      -7.56368146e-01     
O    -1.62026941e+00     -1.29896619e+00     -5.42289895e+00     
H    -1.71371974e+00     -1.96662631e+00     -6.10999318e+00     
H    -2.35970274e+00     -6.99385643e-01     -5.54305240e+00     
23
1652.225285
N    -2.62213999e-03     -3.44223403e-02     -3.40983422e-02     
H    4.70075571e-01      -2.79699305e-01     8.57670797e-01      
H    -9.95143069e-01     2.37288596e-01      1.36545342e-01      
H    4.72539590e-01      7.67450112e-01      -4.99717291e-01     
C    3.88438440e-02      -1.20482660e+00     -9.30912368e-01     
H    1.07253383e+00      -1.48434979e+00     -1.11673474e+00     
H    -4.72063113e-01     -2.04184895e+00     -4.61433917e-01     
C    -6.43559398e-01     -8.46460206e-01     -2.23577878e+00     
O    -1.16884006e+00     2.30849710e-01      -2.44700501e+00     
O    -5.75068616e-01     -1.86608213e+00     -3.06965354e+00     
H    -1.00265606e+00     -1.61527248e+00     -3.94175392e+00     
O    1.26700304e+00      1.81156530e+00      -1.64112021e+00     
H    1.85332973e+00      2.57106166e+00      -1.56940302e+00     
H    6.86746564e-01      2.03830802e+00      -2.37560032e+00     
O    1.32712222e+00      -1.00131903e+00     2.22924340e+00      
H    9.20313528e-01      -1.35013885e+00     3.02556093e+00      
H    2.25206817e+00      -8.70005650e-01     2.44954169e+00      
O    -2.72281459e+00     3.94363638e-01      1.10726852e-01      
H    -3.36802821e+00     7.34303414e-01      7.36222961e-01      
H    -2.99340298e+00     7.11880408e-01      -7.55953114e-01     
O    -1.62026579e+00     -1.29896566e+00     -5.42289701e+00     
H    -1.71376329e+00     -1.96660752e+00     -6.11000736e+00     
H    -2.35972084e+00     -6.99410079e-01     -5.54307923e+00     
23
1652.225285
N    -2.83011031e-03     -3.43825665e-02     -3.41472852e-02     
H    4.71257019e-01      -2.75587335e-01     8.57793663e-01      
H    -9.96776649e-01     2.31194630e-01      1.37379310e-01      
H    4.77896634e-01      7.66272496e-01      -4.97854673e-01     
C    3.85181166e-02      -1.20473688e+00     -9.31248048e-01     
H    1.07251531e+00      -1.48405205e+00     -1.11567384e+00     
H    -4.71533981e-01     -2.04165963e+00     -4.60744315e-01     
C    -6.43362396e-01     -8.46634880e-01     -2.23554790e+00     
O    -1.16897720e+00     2.30984320e-01      -2.44703247e+00     
O    -5.75067836e-01     -1.86609807e+00     -3.06969390e+00     
H    -1.00264710e+00     -1.61538402e+00     -3.94184680e+00     
O    1.26715500e+00      1.81445900e+00      -1.64311467e+00     
H    1.86848501e+00      2.55600284e+00      -1.54313202e+00     
H    6.70565882e-01      2.00838586e+00      -2.37119420e+00     
O    1.32690348e+00      -1.00123937e+00     2.22885420e+00      
H    9.24177164e-01      -1.35004461e+00     3.02761373e+00      
H    2.25132785e+00      -8.71421612e-01     2.45341719e+00      
O    -2.72247711e+00     3.94171922e-01      1.10800376e-01      
H    -3.37002113e+00     7.36078098e-01      7.33188735e-01      
H    -2.99662532e+00     7.13609728e-01      -7.54292988e-01     
O    -1.62025129e+00     -1.29896350e+00     -5.42288923e+00     
H    -1.71393753e+00     -1.96653236e+00     -6.11006410e+00     
H    -2.35979326e+00     -6.99507823e-01     -5.54318651e+00     
23
1652.225285
N    -2.88210289e-03     -3.43726231e-02     -3.41595210e-02     
H    4.71552381e-01      -2.74559343e-01     8.57824379e-01      
H    -9.97185044e-01     2.29671139e-01      1.37587801e-01      
H    4.79235894e-01      7.65978092e-01      -4.97389019e-01     
C    3.84366847e-02      -1.20471445e+00     -9.31331968e-01     
H    1.07251068e+00      -1.48397762e+00     -1.11540861e+00     
H    -4.71401698e-01     -2.04161230e+00     -4.60571914e-01     
C    -6.43313145e-01     -8.46678549e-01     -2.23549018e+00     
O    -1.16901149e+00     2.31017972e-01      -2.44703933e+00     
O    -5.75067641e-01     -1.86610206e+00     -3.06970399e+00     
H    -1.00264486e+00     -1.61541190e+00     -3.94187002e+00     
O    1.26719298e+00      1.81518243e+00      -1.64361329e+00     
H    1.87227383e+00      2.55223813e+00      -1.53656427e+00     
H    6.66520712e-01      2.00090532e+00      -2.37009267e+00     
O    1.32684879e+00      -1.00121945e+00     2.22875690e+00      
H    9.25143073e-01      -1.35002105e+00     3.02812693e+00      
H    2.25114277e+00      -8.71775602e-01     2.45438606e+00      
O    -2.72239274e+00     3.94123993e-01      1.10818756e-01      
H    -3.37051936e+00     7.36521769e-01      7.32430178e-01      
H    -2.99743091e+00     7.14042058e-01      -7.53877956e-01     
O    -1.62024767e+00     -1.29896297e+00     -5.42288729e+00     
H    -1.71398108e+00     -1.96651357e+00     -6.11007828e+00     
H    -2.35981136e+00     -6.99532259e-01     -5.54321334e+00     
23
1652.225285
N    -2.93409547e-03     -3.43626796e-02     -3.41717568e-02     
H    4.71847743e-01      -2.73531350e-01     8.57855096e-01      
H    -9.97593439e-01     2.28147647e-01      1.37796293e-01      
H    4.80575155e-01      7.65683688e-01      -4.96923365e-01     
C    3.83552529e-02      -1.20469202e+00     -9.31415887e-01     
H    1.07250605e+00      -1.48390318e+00     -1.11514338e+00     
H    -4.71269415e-01     -2.04156497e+00     -4.60399513e-01     
C    -6.43263895e-01     -8.46722218e-01     -2.23543246e+00     
O    -1.16904578e+00     2.31051624e-01      -2.44704620e+00     
O    -5.75067446e-01     -1.86610605e+00     -3.06971408e+00     
H    -1.00264262e+00     -1.61543979e+00     -3.94189324e+00     
O    1.26723097e+00      1.81590585e+00      -1.64411191e+00     
H    1.87606265e+00      2.54847342e+00      -1.52999653e+00     
H    6.62475541e-01      1.99342478e+00      -2.36899114e+00     
O    1.32679411e+00      -1.00119953e+00     2.22865960e+00      
H    9.26108982e-01      -1.34999749e+00     3.02864013e+00      
H    2.25095768e+00      -8.72129592e-01     2.45535494e+00      
O    -2.72230837e+00     3.94076064e-01      1.10837137e-01      
H    -3.37101759e+00     7.36965440e-01      7.31671621e-01      
H    -2.99823649e+00     7.14474388e-01      -7.53462925e-01     
O    -1.62024404e+00     -1.29896243e+00     -5.42288534e+00     
H    -1.71402464e+00     -1.96649478e+00     -6.11009246e+00     
H    -2.35982946e+00     -6.99556695e-01     -5.54324016e+00     
23
1652.225285
N    -3.03808063e-03     -3.43427927e-02     -3.41962283e-02     
H    4.72438467e-01      -2.71475365e-01     8.57916529e-01      
H    -9.98410229e-01     2.25100664e-01      1.38213277e-01      
H    4.83253677e-01      7.65094879e-01      -4.95992056e-01     
C    3.81923891e-02      -1.20464716e+00     -9.31583727e-01     
H    1.07249679e+00      -1.48375431e+00     -1.11461293e+00     
H    -4.71004850e-01     -2.04147031e+00     -4.60054712e-01     
C    -6.43165393e-01     -8.46809555e-01     -2.23531703e+00     
O    -1.16911435e+00     2.31118929e-01      -2.44705992e+00     
O    -5.75067055e-01     -1.86611402e+00     -3.06973426e+00     
H    -1.00263814e+00     -1.61549556e+00     -3.94193968e+00     
O    1.26730695e+00      1.81735270e+00      -1.64510914e+00     
H    1.88364029e+00      2.54094401e+00      -1.51686103e+00     
H    6.54385200e-01      1.97846370e+00      -2.36678808e+00     
O    1.32668473e+00      -1.00115970e+00     2.22846500e+00      
H    9.28040800e-01      -1.34995038e+00     3.02966652e+00      
H    2.25058752e+00      -8.72837573e-01     2.45729269e+00      
O    -2.72213963e+00     3.93980206e-01      1.10873899e-01      
H    -3.37201405e+00     7.37852782e-01      7.30154508e-01      
H    -2.99984766e+00     7.15339048e-01      -7.52632862e-01     
O    -1.62023679e+00     -1.29896135e+00     -5.42288145e+00     
H    -1.71411176e+00     -1.96645721e+00     -6.11012083e+00     
H    -2.35986567e+00     -6.99605566e-01     -5.54329380e+00     
23
1652.225285
N    -3.14206578e-03     -3.43229058e-02     -3.42206999e-02     
H    4.73029191e-01      -2.69419381e-01     8.57977962e-01      
H    -9.99227019e-01     2.22053681e-01      1.38630260e-01      
H    4.85932198e-01      7.64506071e-01      -4.95060748e-01     
C    3.80295254e-02      -1.20460230e+00     -9.31751567e-01     
H    1.07248753e+00      -1.48360544e+00     -1.11408248e+00     
H    -4.70740284e-01     -2.04137566e+00     -4.59709910e-01     
C    -6.43066892e-01     -8.46896892e-01     -2.23520159e+00     
O    -1.16918293e+00     2.31186233e-01      -2.44707365e+00     
O    -5.75066665e-01     -1.86612199e+00     -3.06975444e+00     
H    -1.00263366e+00     -1.61555133e+00     -3.94198612e+00     
O    1.26738292e+00      1.81879955e+00      -1.64610638e+00     
H    1.89121793e+00      2.53341459e+00      -1.50372553e+00     
H    6.46294859e-01      1.96350262e+00      -2.36458502e+00     
O    1.32657536e+00      -1.00111986e+00     2.22827040e+00      
H    9.29972618e-01      -1.34990326e+00     3.03069292e+00      
H    2.25021736e+00      -8.73545553e-01     2.45923044e+00      
O    -2.72197089e+00     3.93884348e-01      1.10910660e-01      
H    -3.37301051e+00     7.38740124e-01      7.28637395e-01      
H    -3.00145883e+00     7.16203708e-01      -7.51802799e-01     
O    -1.62022954e+00     -1.29896028e+00     -5.42287756e+00     
H    -1.71419887e+00     -1.96641963e+00     -6.11014919e+00     
H    -2.35990188e+00     -6.99654438e-01     -5.54334745e+00     
23
1652.225285
N    -3.24605094e-03     -3.43030189e-02     -3.42451714e-02     
H    4.73619915e-01      -2.67363396e-01     8.58039394e-01      
H    -1.00004381e+00     2.19006698e-01      1.39047244e-01      
H    4.88610720e-01      7.63917263e-01      -4.94129439e-01     
C    3.78666617e-02      -1.20455744e+00     -9.31919407e-01     
H    1.07247827e+00      -1.48345658e+00     -1.11355202e+00     
H    -4.70475718e-01     -2.04128100e+00     -4.59365109e-01     
C    -6.42968391e-01     -8.46984230e-01     -2.23508615e+00     
O    -1.16925150e+00     2.31253538e-01      -2.44708738e+00     
O    -5.75066275e-01     -1.86612996e+00     -3.06977462e+00     
H    -1.00262918e+00     -1.61560710e+00     -3.94203256e+00     
O    1.26745890e+00      1.82024640e+00      -1.64710361e+00     
H    1.89879557e+00      2.52588518e+00      -1.49059003e+00     
H    6.38204518e-01      1.94854154e+00      -2.36238195e+00     
O    1.32646599e+00      -1.00108003e+00     2.22807580e+00      
H    9.31904436e-01      -1.34985614e+00     3.03171932e+00      
H    2.24984719e+00      -8.74253534e-01     2.46116819e+00      
O    -2.72180215e+00     3.93788490e-01      1.10947422e-01      
H    -3.37400697e+00     7.39627466e-01      7.27120281e-01      
H    -3.00307000e+00     7.17068368e-01      -7.50972736e-01     
O    -1.62022229e+00     -1.29895920e+00     -5.42287367e+00     
H    -1.71428599e+00     -1.96638205e+00     -6.11017756e+00     
H    -2.35993808e+00     -6.99703310e-01     -5.54340109e+00     
23
1652.225285
N    -3.35003610e-03     -3.42831321e-02     -3.42696430e-02     
H    4.74210639e-01      -2.65307411e-01     8.58100827e-01      
H    -1.00086060e+00     2.15959715e-01      1.39464227e-01      
H    4.91289242e-01      7.63328455e-01      -4.93198131e-01     
C    3.77037980e-02      -1.20451258e+00     -9.32087246e-01     
H    1.07246901e+00      -1.48330771e+00     -1.11302157e+00     
H    -4.70211152e-01     -2.04118634e+00     -4.59020307e-01     
C    -6.42869890e-01     -8.47071567e-01     -2.23497071e+00     
O    -1.16932008e+00     2.31320843e-01      -2.44710111e+00     
O    -5.75065885e-01     -1.86613794e+00     -3.06979479e+00     
H    -1.00262470e+00     -1.61566287e+00     -3.94207901e+00     
O    1.26753488e+00      1.82169325e+00      -1.64810085e+00     
H    1.90637321e+00      2.51835576e+00      -1.47745454e+00     
H    6.30114177e-01      1.93358046e+00      -2.36017889e+00     
O    1.32635662e+00      -1.00104019e+00     2.22788120e+00      
H    9.33836254e-01      -1.34980902e+00     3.03274572e+00      
H    2.24947703e+00      -8.74961514e-01     2.46310594e+00      
O    -2.72163341e+00     3.93692632e-01      1.10984183e-01      
H    -3.37500343e+00     7.40514808e-01      7.25603168e-01      
H    -3.00468118e+00     7.17933028e-01      -7.50142673e-01     
O    -1.62021504e+00     -1.29895813e+00     -5.42286978e+00     
H    -1.71437310e+00     -1.96634447e+00     -6.11020592e+00     
H    -2.35997429e+00     -6.99752182e-01     -5.54345474e+00     
23
1652.225285
N    -3.55800642e-03     -3.42433583e-02     -3.43185860e-02     
H    4.75392087e-01      -2.61195441e-01     8.58223693e-01      
H    -1.00249418e+00     2.09865749e-01      1.40298194e-01      
H    4.96646285e-01      7.62150838e-01      -4.91335513e-01     
C    3.73780705e-02      -1.20442286e+00     -9.32422926e-01     
H    1.07245050e+00      -1.48300997e+00     -1.11196066e+00     
H    -4.69682021e-01     -2.04099702e+00     -4.58330704e-01     
C    -6.42672888e-01     -8.47246242e-01     -2.23473983e+00     
O    -1.16945723e+00     2.31455452e-01      -2.44712856e+00     
O    -5.75065104e-01     -1.86615388e+00     -3.06983515e+00     
H    -1.00261574e+00     -1.61577441e+00     -3.94217189e+00     
O    1.26768683e+00      1.82458695e+00      -1.65009531e+00     
H    1.92152849e+00      2.50329693e+00      -1.45118354e+00     
H    6.13933495e-01      1.90365830e+00      -2.35577277e+00     
O    1.32613787e+00      -1.00096053e+00     2.22749200e+00      
H    9.37699889e-01      -1.34971479e+00     3.03479851e+00      
H    2.24873671e+00      -8.76377475e-01     2.46698144e+00      
O    -2.72129593e+00     3.93500916e-01      1.11057706e-01      
H    -3.37699634e+00     7.42289492e-01      7.22568941e-01      
H    -3.00790352e+00     7.19662348e-01      -7.48482547e-01     
O    -1.62020054e+00     -1.29895597e+00     -5.42286201e+00     
H    -1.71454733e+00     -1.96626932e+00     -6.11026266e+00     
H    -2.36004670e+00     -6.99849925e-01     -5.54356203e+00     
