23
1808.978315
N    -2.94124628e-03     -3.27914649e-02     -3.32806965e-02     
H    4.79692161e-01      -3.17912113e-01     8.44101454e-01      
H    -1.00056615e+00     2.41959928e-01      9.99029140e-02      
H    4.49427317e-01      7.67163583e-01      -5.26015083e-01     
C    4.37001808e-02      -1.20999260e+00     -9.24340744e-01     
H    1.07874448e+00      -1.49475483e+00     -1.08989894e+00     
H    -4.53835873e-01     -2.04778174e+00     -4.42884158e-01     
C    -7.01616402e-01     -7.24043028e-01     -2.25633707e+00     
O    -1.13302638e+00     1.58328278e-01      -2.43146730e+00     
O    -5.71125017e-01     -1.88315468e+00     -3.07653067e+00     
H    -1.01766820e+00     -1.54280335e+00     -3.91339079e+00     
O    1.26757052e+00      1.81413494e+00      -1.64275834e+00     
H    1.86681973e+00      2.55869954e+00      -1.54642260e+00     
H    6.67451121e-01      2.00613752e+00      -2.36764924e+00     
O    1.32684886e+00      -1.00118273e+00     2.22874979e+00      
H    9.25922266e-01      -1.34939632e+00     3.02866691e+00      
H    2.25077815e+00      -8.71671957e-01     2.45557929e+00      
O    -2.72389646e+00     3.94830821e-01      1.10896771e-01      
H    -3.36330586e+00     7.30152652e-01      7.44597534e-01      
H    -2.97609650e+00     7.05357728e-01      -7.62277816e-01     
O    -1.61953255e+00     -1.30012770e+00     -5.42217203e+00     
H    -1.71870288e+00     -1.96100717e+00     -6.11438240e+00     
H    -2.35805683e+00     -6.99929269e-01     -5.54071219e+00     
23
1808.978315
N    -2.88746600e-03     -3.31942120e-02     -3.34912258e-02     
H    4.77435694e-01      -3.07844915e-01     8.47509148e-01      
H    -9.99414576e-01     2.40030349e-01      1.09167767e-01      
H    4.55875016e-01      7.67088013e-01      -5.19207808e-01     
C    4.24453807e-02      -1.20868988e+00     -9.26025610e-01     
H    1.07718951e+00      -1.49211635e+00     -1.09647528e+00     
H    -4.58326541e-01     -2.04627487e+00     -4.47435397e-01     
C    -6.87077525e-01     -7.54669157e-01     -2.25116864e+00     
O    -1.14199694e+00     1.76475462e-01      -2.43535516e+00     
O    -5.72110819e-01     -1.87888854e+00     -3.07481644e+00     
H    -1.01391405e+00     -1.56093457e+00     -3.92049318e+00     
O    1.26744764e+00      1.81385424e+00      -1.64259812e+00     
H    1.86534164e+00      2.55990772e+00      -1.54888383e+00     
H    6.70252397e-01      2.01043987e+00      -2.36908624e+00     
O    1.32688985e+00      -1.00120685e+00     2.22882454e+00      
H    9.25003036e-01      -1.34957017e+00     3.02814701e+00      
H    2.25100812e+00      -8.71432376e-01     2.45455433e+00      
O    -2.72358380e+00     3.94690061e-01      1.10863482e-01      
H    -3.36473556e+00     7.31412178e-01      7.42124612e-01      
H    -2.98082591e+00     7.07204563e-01      -7.60489124e-01     
O    -1.61971405e+00     -1.29983692e+00     -5.42235230e+00     
H    -1.71748976e+00     -1.96239786e+00     -6.11329573e+00     
H    -2.35848188e+00     -6.99811690e-01     -5.54131736e+00     
23
1808.978315
N    -2.86057586e-03     -3.33955856e-02     -3.35964904e-02     
H    4.76307461e-01      -3.02811316e-01     8.49212995e-01      
H    -9.98838790e-01     2.39065560e-01      1.13800194e-01      
H    4.59098865e-01      7.67050228e-01      -5.15804170e-01     
C    4.18179806e-02      -1.20803852e+00     -9.26868043e-01     
H    1.07641202e+00      -1.49079711e+00     -1.09976345e+00     
H    -4.60571876e-01     -2.04552144e+00     -4.49711017e-01     
C    -6.79808087e-01     -7.69982221e-01     -2.24858442e+00     
O    -1.14648222e+00     1.85549054e-01      -2.43729909e+00     
O    -5.72603721e-01     -1.87675546e+00     -3.07395932e+00     
H    -1.01203697e+00     -1.57000018e+00     -3.92404438e+00     
O    1.26738620e+00      1.81371389e+00      -1.64251800e+00     
H    1.86460259e+00      2.56051181e+00      -1.55011445e+00     
H    6.71653034e-01      2.01259105e+00      -2.36980475e+00     
O    1.32691035e+00      -1.00121891e+00     2.22886192e+00      
H    9.24543421e-01      -1.34965710e+00     3.02788707e+00      
H    2.25112310e+00      -8.71312585e-01     2.45404185e+00      
O    -2.72342748e+00     3.94619681e-01      1.10846837e-01      
H    -3.36545041e+00     7.32041941e-01      7.40888152e-01      
H    -2.98319062e+00     7.08127981e-01      -7.59594779e-01     
O    -1.61980480e+00     -1.29969153e+00     -5.42244244e+00     
H    -1.71688320e+00     -1.96309321e+00     -6.11275240e+00     
H    -2.35869441e+00     -6.99752900e-01     -5.54161995e+00     
23
1808.978315
N    -2.83368572e-03     -3.35969592e-02     -3.37017551e-02     
H    4.75179228e-01      -2.97777717e-01     8.50916842e-01      
H    -9.98263003e-01     2.38100771e-01      1.18432620e-01      
H    4.62322715e-01      7.67012443e-01      -5.12400532e-01     
C    4.11905805e-02      -1.20738717e+00     -9.27710476e-01     
H    1.07563453e+00      -1.48947787e+00     -1.10305162e+00     
H    -4.62817210e-01     -2.04476801e+00     -4.51986637e-01     
C    -6.72538649e-01     -7.85295285e-01     -2.24600020e+00     
O    -1.15096751e+00     1.94622647e-01      -2.43924302e+00     
O    -5.73096622e-01     -1.87462239e+00     -3.07310220e+00     
H    -1.01015989e+00     -1.57906580e+00     -3.92759558e+00     
O    1.26732477e+00      1.81357355e+00      -1.64243789e+00     
H    1.86386355e+00      2.56111589e+00      -1.55134506e+00     
H    6.73053672e-01      2.01474223e+00      -2.37052325e+00     
O    1.32693085e+00      -1.00123097e+00     2.22889930e+00      
H    9.24083806e-01      -1.34974402e+00     3.02762712e+00      
H    2.25123808e+00      -8.71192794e-01     2.45352937e+00      
O    -2.72327115e+00     3.94549301e-01      1.10830193e-01      
H    -3.36616527e+00     7.32671704e-01      7.39651691e-01      
H    -2.98555532e+00     7.09051398e-01      -7.58700433e-01     
O    -1.61989555e+00     -1.29954614e+00     -5.42253257e+00     
H    -1.71627665e+00     -1.96378855e+00     -6.11220907e+00     
H    -2.35890694e+00     -6.99694110e-01     -5.54192253e+00     
23
1808.978315
N    -2.80679557e-03     -3.37983327e-02     -3.38070197e-02     
H    4.74050995e-01      -2.92744118e-01     8.52620689e-01      
H    -9.97687217e-01     2.37135981e-01      1.23065047e-01      
H    4.65546564e-01      7.66974658e-01      -5.08996895e-01     
C    4.05631805e-02      -1.20673581e+00     -9.28552909e-01     
H    1.07485704e+00      -1.48815864e+00     -1.10633978e+00     
H    -4.65062544e-01     -2.04401458e+00     -4.54262257e-01     
C    -6.65269211e-01     -8.00608350e-01     -2.24341599e+00     
O    -1.15545279e+00     2.03696239e-01      -2.44118695e+00     
O    -5.73589523e-01     -1.87248932e+00     -3.07224508e+00     
H    -1.00828281e+00     -1.58813141e+00     -3.93114677e+00     
O    1.26726333e+00      1.81343320e+00      -1.64235778e+00     
H    1.86312450e+00      2.56171998e+00      -1.55257568e+00     
H    6.74454310e-01      2.01689341e+00      -2.37124175e+00     
O    1.32695135e+00      -1.00124302e+00     2.22893667e+00      
H    9.23624191e-01      -1.34983095e+00     3.02736717e+00      
H    2.25135306e+00      -8.71073003e-01     2.45301688e+00      
O    -2.72311483e+00     3.94478920e-01      1.10813548e-01      
H    -3.36688012e+00     7.33301467e-01      7.38415230e-01      
H    -2.98792003e+00     7.09974816e-01      -7.57806088e-01     
O    -1.61998629e+00     -1.29940075e+00     -5.42262271e+00     
H    -1.71567009e+00     -1.96448390e+00     -6.11166573e+00     
H    -2.35911947e+00     -6.99635320e-01     -5.54222512e+00     
23
1808.978315
N    -2.77990543e-03     -3.39997063e-02     -3.39122844e-02     
H    4.72922761e-01      -2.87710518e-01     8.54324536e-01      
H    -9.97111431e-01     2.36171192e-01      1.27697473e-01      
H    4.68770413e-01      7.66936874e-01      -5.05593257e-01     
C    3.99357804e-02      -1.20608445e+00     -9.29395342e-01     
H    1.07407955e+00      -1.48683940e+00     -1.10962795e+00     
H    -4.67307878e-01     -2.04326115e+00     -4.56537876e-01     
C    -6.57999773e-01     -8.15921414e-01     -2.24083177e+00     
O    -1.15993807e+00     2.12769831e-01      -2.44313088e+00     
O    -5.74082424e-01     -1.87035625e+00     -3.07138796e+00     
H    -1.00640574e+00     -1.59719702e+00     -3.93469797e+00     
O    1.26720189e+00      1.81329285e+00      -1.64227767e+00     
H    1.86238546e+00      2.56232407e+00      -1.55380629e+00     
H    6.75854948e-01      2.01904458e+00      -2.37196025e+00     
O    1.32697185e+00      -1.00125508e+00     2.22897405e+00      
H    9.23164576e-01      -1.34991788e+00     3.02710722e+00      
H    2.25146805e+00      -8.70953213e-01     2.45250440e+00      
O    -2.72295850e+00     3.94408540e-01      1.10796903e-01      
H    -3.36759497e+00     7.33931230e-01      7.37178769e-01      
H    -2.99028474e+00     7.10898233e-01      -7.56911742e-01     
O    -1.62007704e+00     -1.29925536e+00     -5.42271285e+00     
H    -1.71506353e+00     -1.96517925e+00     -6.11112240e+00     
H    -2.35933199e+00     -6.99576531e-01     -5.54252770e+00     
23
1808.978315
N    -2.76646036e-03     -3.41003931e-02     -3.39649167e-02     
H    4.72358645e-01      -2.85193719e-01     8.55176459e-01      
H    -9.96823538e-01     2.35688797e-01      1.30013686e-01      
H    4.70382338e-01      7.66917981e-01      -5.03891438e-01     
C    3.96220804e-02      -1.20575878e+00     -9.29816558e-01     
H    1.07369080e+00      -1.48617978e+00     -1.11127204e+00     
H    -4.68430546e-01     -2.04288444e+00     -4.57675686e-01     
C    -6.54365054e-01     -8.23577946e-01     -2.23953966e+00     
O    -1.16218071e+00     2.17306627e-01      -2.44410284e+00     
O    -5.74328874e-01     -1.86928971e+00     -3.07095940e+00     
H    -1.00546720e+00     -1.60172983e+00     -3.93647357e+00     
O    1.26717118e+00      1.81322267e+00      -1.64223761e+00     
H    1.86201594e+00      2.56262612e+00      -1.55442160e+00     
H    6.76555266e-01      2.02012017e+00      -2.37231951e+00     
O    1.32698210e+00      -1.00126111e+00     2.22899274e+00      
H    9.22934768e-01      -1.34996134e+00     3.02697725e+00      
H    2.25152554e+00      -8.70893317e-01     2.45224816e+00      
O    -2.72288034e+00     3.94373350e-01      1.10788581e-01      
H    -3.36795239e+00     7.34246112e-01      7.36560539e-01      
H    -2.99146709e+00     7.11359942e-01      -7.56464569e-01     
O    -1.62012242e+00     -1.29918267e+00     -5.42275791e+00     
H    -1.71476025e+00     -1.96552692e+00     -6.11085073e+00     
H    -2.35943826e+00     -6.99547136e-01     -5.54267899e+00     
23
1808.978315
N    -2.75301529e-03     -3.42010798e-02     -3.40175490e-02     
H    4.71794528e-01      -2.82676919e-01     8.56028383e-01      
H    -9.96535645e-01     2.35206402e-01      1.32329900e-01      
H    4.71994263e-01      7.66899089e-01      -5.02189620e-01     
C    3.93083804e-02      -1.20543310e+00     -9.30237775e-01     
H    1.07330206e+00      -1.48552016e+00     -1.11291612e+00     
H    -4.69553213e-01     -2.04250772e+00     -4.58813496e-01     
C    -6.50730335e-01     -8.31234479e-01     -2.23824756e+00     
O    -1.16442335e+00     2.21843423e-01      -2.44507481e+00     
O    -5.74575325e-01     -1.86822317e+00     -3.07053084e+00     
H    -1.00452866e+00     -1.60626264e+00     -3.93824916e+00     
O    1.26714046e+00      1.81315250e+00      -1.64219755e+00     
H    1.86164641e+00      2.56292816e+00      -1.55503691e+00     
H    6.77255585e-01      2.02119576e+00      -2.37267876e+00     
O    1.32699235e+00      -1.00126714e+00     2.22901142e+00      
H    9.22704961e-01      -1.35000480e+00     3.02684728e+00      
H    2.25158303e+00      -8.70833422e-01     2.45199192e+00      
O    -2.72280218e+00     3.94338160e-01      1.10780259e-01      
H    -3.36830982e+00     7.34560993e-01      7.35942309e-01      
H    -2.99264944e+00     7.11821651e-01      -7.56017397e-01     
O    -1.62016779e+00     -1.29910997e+00     -5.42280298e+00     
H    -1.71445697e+00     -1.96587459e+00     -6.11057906e+00     
H    -2.35954452e+00     -6.99517741e-01     -5.54283029e+00     
23
1808.978315
N    -2.69923501e-03     -3.46038270e-02     -3.42280784e-02     
H    4.69538062e-01      -2.72609721e-01     8.59436077e-01      
H    -9.95384073e-01     2.33276824e-01      1.41594752e-01      
H    4.78441961e-01      7.66823519e-01      -4.95382344e-01     
C    3.80535802e-02      -1.20413038e+00     -9.31922641e-01     
H    1.07174708e+00      -1.48288168e+00     -1.11949246e+00     
H    -4.74043881e-01     -2.04100086e+00     -4.63364736e-01     
C    -6.36191459e-01     -8.61860607e-01     -2.23307912e+00     
O    -1.17339391e+00     2.39990607e-01      -2.44896267e+00     
O    -5.75561127e-01     -1.86395703e+00     -3.06881660e+00     
H    -1.00077450e+00     -1.62439386e+00     -3.94535156e+00     
O    1.26701758e+00      1.81287180e+00      -1.64203733e+00     
H    1.86016833e+00      2.56413634e+00      -1.55749813e+00     
H    6.80056861e-01      2.02549812e+00      -2.37411576e+00     
O    1.32703335e+00      -1.00129126e+00     2.22908618e+00      
H    9.21785731e-01      -1.35017866e+00     3.02632738e+00      
H    2.25181299e+00      -8.70593840e-01     2.45096696e+00      
O    -2.72248952e+00     3.94197400e-01      1.10746969e-01      
H    -3.36973952e+00     7.35820519e-01      7.33469387e-01      
H    -2.99737886e+00     7.13668485e-01      -7.54228705e-01     
O    -1.62034929e+00     -1.29881919e+00     -5.42298326e+00     
H    -1.71324385e+00     -1.96726529e+00     -6.10949240e+00     
H    -2.35996958e+00     -6.99400161e-01     -5.54343545e+00     
23
1808.978315
N    -2.68578994e-03     -3.47045137e-02     -3.42807107e-02     
H    4.68973945e-01      -2.70092921e-01     8.60288001e-01      
H    -9.95096180e-01     2.32794429e-01      1.43910966e-01      
H    4.80053886e-01      7.66804627e-01      -4.93680526e-01     
C    3.77398802e-02      -1.20380470e+00     -9.32343858e-01     
H    1.07135834e+00      -1.48222206e+00     -1.12113654e+00     
H    -4.75166548e-01     -2.04062414e+00     -4.64502546e-01     
C    -6.32556740e-01     -8.69517140e-01     -2.23178702e+00     
O    -1.17563655e+00     2.44527403e-01      -2.44993464e+00     
O    -5.75807578e-01     -1.86289049e+00     -3.06838804e+00     
H    -9.99835963e-01     -1.62892667e+00     -3.94712715e+00     
O    1.26698686e+00      1.81280163e+00      -1.64199727e+00     
H    1.85979880e+00      2.56443838e+00      -1.55811344e+00     
H    6.80757180e-01      2.02657371e+00      -2.37447501e+00     
O    1.32704360e+00      -1.00129729e+00     2.22910486e+00      
H    9.21555924e-01      -1.35022212e+00     3.02619741e+00      
H    2.25187048e+00      -8.70533945e-01     2.45071072e+00      
O    -2.72241136e+00     3.94162210e-01      1.10738647e-01      
H    -3.37009695e+00     7.36135400e-01      7.32851157e-01      
H    -2.99856121e+00     7.14130194e-01      -7.53781533e-01     
O    -1.62039466e+00     -1.29874649e+00     -5.42302833e+00     
H    -1.71294057e+00     -1.96761296e+00     -6.10922073e+00     
H    -2.36007584e+00     -6.99370766e-01     -5.54358675e+00     
23
1808.978315
N    -2.67234487e-03     -3.48052005e-02     -3.43333430e-02     
H    4.68409829e-01      -2.67576122e-01     8.61139924e-01      
H    -9.94808287e-01     2.32312034e-01      1.46227179e-01      
H    4.81665811e-01      7.66785734e-01      -4.91978707e-01     
C    3.74261802e-02      -1.20347903e+00     -9.32765074e-01     
H    1.07096959e+00      -1.48156244e+00     -1.12278063e+00     
H    -4.76289216e-01     -2.04024743e+00     -4.65640356e-01     
C    -6.28922021e-01     -8.77173672e-01     -2.23049491e+00     
O    -1.17787919e+00     2.49064199e-01      -2.45090660e+00     
O    -5.76054028e-01     -1.86182395e+00     -3.06795948e+00     
H    -9.98897424e-01     -1.63345948e+00     -3.94890275e+00     
O    1.26695615e+00      1.81273145e+00      -1.64195721e+00     
H    1.85942928e+00      2.56474043e+00      -1.55872875e+00     
H    6.81457498e-01      2.02764930e+00      -2.37483427e+00     
O    1.32705385e+00      -1.00130332e+00     2.22912355e+00      
H    9.21326116e-01      -1.35026558e+00     3.02606744e+00      
H    2.25192797e+00      -8.70474049e-01     2.45045448e+00      
O    -2.72233320e+00     3.94127020e-01      1.10730325e-01      
H    -3.37045437e+00     7.36450282e-01      7.32232927e-01      
H    -2.99974356e+00     7.14591903e-01      -7.53334360e-01     
O    -1.62044004e+00     -1.29867380e+00     -5.42307339e+00     
H    -1.71263729e+00     -1.96796063e+00     -6.10894906e+00     
H    -2.36018211e+00     -6.99341371e-01     -5.54373804e+00     
23
1808.978315
N    -2.64545473e-03     -3.50065741e-02     -3.44386077e-02     
H    4.67281595e-01      -2.62542522e-01     8.62843771e-01      
H    -9.94232501e-01     2.31347245e-01      1.50859605e-01      
H    4.84889660e-01      7.66747950e-01      -4.88575069e-01     
C    3.67987801e-02      -1.20282767e+00     -9.33607507e-01     
H    1.07019210e+00      -1.48024320e+00     -1.12606880e+00     
H    -4.78534550e-01     -2.03949400e+00     -4.67915975e-01     
C    -6.21652583e-01     -8.92486736e-01     -2.22791069e+00     
O    -1.18236447e+00     2.58137791e-01      -2.45285053e+00     
O    -5.76546929e-01     -1.85969088e+00     -3.06710236e+00     
H    -9.97020346e-01     -1.64252509e+00     -3.95245395e+00     
O    1.26689471e+00      1.81259110e+00      -1.64187710e+00     
H    1.85869024e+00      2.56534452e+00      -1.55995936e+00     
H    6.82858136e-01      2.02980047e+00      -2.37555277e+00     
O    1.32707435e+00      -1.00131538e+00     2.22916093e+00      
H    9.20866501e-01      -1.35035251e+00     3.02580749e+00      
H    2.25204296e+00      -8.70354259e-01     2.44994200e+00      
O    -2.72217687e+00     3.94056640e-01      1.10713680e-01      
H    -3.37116922e+00     7.37080045e-01      7.30996466e-01      
H    -3.00210827e+00     7.15515320e-01      -7.52440014e-01     
O    -1.62053079e+00     -1.29852841e+00     -5.42316353e+00     
H    -1.71203073e+00     -1.96865598e+00     -6.10840573e+00     
H    -2.36039463e+00     -6.99282582e-01     -5.54404062e+00     
23
1808.978315
N    -2.61856458e-03     -3.52079476e-02     -3.45438723e-02     
H    4.66153362e-01      -2.57508923e-01     8.64547618e-01      
H    -9.93656715e-01     2.30382455e-01      1.55492032e-01      
H    4.88113509e-01      7.66710165e-01      -4.85171432e-01     
C    3.61713801e-02      -1.20217631e+00     -9.34449940e-01     
H    1.06941461e+00      -1.47892397e+00     -1.12935696e+00     
H    -4.80779884e-01     -2.03874057e+00     -4.70191595e-01     
C    -6.14383145e-01     -9.07799801e-01     -2.22532648e+00     
O    -1.18684975e+00     2.67211383e-01      -2.45479446e+00     
O    -5.77039830e-01     -1.85755781e+00     -3.06624524e+00     
H    -9.95143268e-01     -1.65159070e+00     -3.95600514e+00     
O    1.26683327e+00      1.81245075e+00      -1.64179699e+00     
H    1.85795119e+00      2.56594861e+00      -1.56118998e+00     
H    6.84258774e-01      2.03195165e+00      -2.37627127e+00     
O    1.32709485e+00      -1.00132743e+00     2.22919830e+00      
H    9.20406886e-01      -1.35043944e+00     3.02554754e+00      
H    2.25215794e+00      -8.70234468e-01     2.44942951e+00      
O    -2.72202055e+00     3.93986259e-01      1.10697035e-01      
H    -3.37188407e+00     7.37709808e-01      7.29760005e-01      
H    -3.00447298e+00     7.16438738e-01      -7.51545669e-01     
O    -1.62062153e+00     -1.29838302e+00     -5.42325367e+00     
H    -1.71142417e+00     -1.96935133e+00     -6.10786239e+00     
H    -2.36060716e+00     -6.99223792e-01     -5.54434321e+00     
23
1808.978315
N    -2.59167444e-03     -3.54093212e-02     -3.46491370e-02     
H    4.65025129e-01      -2.52475324e-01     8.66251465e-01      
H    -9.93080928e-01     2.29417666e-01      1.60124458e-01      
H    4.91337359e-01      7.66672380e-01      -4.81767794e-01     
C    3.55439800e-02      -1.20152496e+00     -9.35292373e-01     
H    1.06863712e+00      -1.47760473e+00     -1.13264513e+00     
H    -4.83025218e-01     -2.03798714e+00     -4.72467215e-01     
C    -6.07113707e-01     -9.23112865e-01     -2.22274226e+00     
O    -1.19133504e+00     2.76284976e-01      -2.45673839e+00     
O    -5.77532731e-01     -1.85542474e+00     -3.06538812e+00     
H    -9.93266190e-01     -1.66065632e+00     -3.95955634e+00     
O    1.26677184e+00      1.81231041e+00      -1.64171688e+00     
H    1.85721215e+00      2.56655269e+00      -1.56242059e+00     
H    6.85659412e-01      2.03410283e+00      -2.37698977e+00     
O    1.32711535e+00      -1.00133949e+00     2.22923568e+00      
H    9.19947271e-01      -1.35052636e+00     3.02528759e+00      
H    2.25227292e+00      -8.70114677e-01     2.44891703e+00      
O    -2.72186422e+00     3.93915879e-01      1.10680391e-01      
H    -3.37259893e+00     7.38339571e-01      7.28523544e-01      
H    -3.00683768e+00     7.17362155e-01      -7.50651323e-01     
O    -1.62071228e+00     -1.29823763e+00     -5.42334380e+00     
H    -1.71081762e+00     -1.97004667e+00     -6.10731906e+00     
H    -2.36081969e+00     -6.99165002e-01     -5.54464579e+00     
23
1808.978315
N    -2.56478430e-03     -3.56106948e-02     -3.47544016e-02     
H    4.63896896e-01      -2.47441725e-01     8.67955312e-01      
H    -9.92505142e-01     2.28452877e-01      1.64756885e-01      
H    4.94561208e-01      7.66634595e-01      -4.78364156e-01     
C    3.49165799e-02      -1.20087360e+00     -9.36134806e-01     
H    1.06785963e+00      -1.47628549e+00     -1.13593330e+00     
H    -4.85270553e-01     -2.03723371e+00     -4.74742835e-01     
C    -5.99844269e-01     -9.38425929e-01     -2.22015804e+00     
O    -1.19582032e+00     2.85358568e-01      -2.45868232e+00     
O    -5.78025633e-01     -1.85329166e+00     -3.06453100e+00     
H    -9.91389112e-01     -1.66972193e+00     -3.96310754e+00     
O    1.26671040e+00      1.81217006e+00      -1.64163676e+00     
H    1.85647310e+00      2.56715678e+00      -1.56365121e+00     
H    6.87060049e-01      2.03625401e+00      -2.37770828e+00     
O    1.32713585e+00      -1.00135155e+00     2.22927306e+00      
H    9.19487656e-01      -1.35061329e+00     3.02502765e+00      
H    2.25238790e+00      -8.69994886e-01     2.44840455e+00      
O    -2.72170790e+00     3.93845499e-01      1.10663746e-01      
H    -3.37331378e+00     7.38969334e-01      7.27287084e-01      
H    -3.00920239e+00     7.18285573e-01      -7.49756978e-01     
O    -1.62080303e+00     -1.29809224e+00     -5.42343394e+00     
H    -1.71021106e+00     -1.97074202e+00     -6.10677573e+00     
H    -2.36103222e+00     -6.99106212e-01     -5.54494838e+00     
23
1808.978315
N    -2.51100402e-03     -3.60134419e-02     -3.49649309e-02     
H    4.61640429e-01      -2.37374527e-01     8.71363006e-01      
H    -9.91353570e-01     2.26523298e-01      1.74021738e-01      
H    5.01008907e-01      7.66559025e-01      -4.71556881e-01     
C    3.36617798e-02      -1.19957088e+00     -9.37819672e-01     
H    1.06630466e+00      -1.47364701e+00     -1.14250964e+00     
H    -4.89761221e-01     -2.03572684e+00     -4.79294074e-01     
C    -5.85305392e-01     -9.69052058e-01     -2.21498961e+00     
O    -1.20479088e+00     3.03505752e-01      -2.46257018e+00     
O    -5.79011435e-01     -1.84902552e+00     -3.06281677e+00     
H    -9.87634956e-01     -1.68785315e+00     -3.97020993e+00     
O    1.26658752e+00      1.81188936e+00      -1.64147654e+00     
H    1.85499501e+00      2.56836496e+00      -1.56611244e+00     
H    6.89861325e-01      2.04055636e+00      -2.37914528e+00     
O    1.32717684e+00      -1.00137567e+00     2.22934781e+00      
H    9.18568426e-01      -1.35078714e+00     3.02450775e+00      
H    2.25261787e+00      -8.69755305e-01     2.44737959e+00      
O    -2.72139524e+00     3.93704739e-01      1.10630457e-01      
H    -3.37474348e+00     7.40228860e-01      7.24814162e-01      
H    -3.01393180e+00     7.20132408e-01      -7.47968286e-01     
O    -1.62098453e+00     -1.29780146e+00     -5.42361421e+00     
H    -1.70899794e+00     -1.97213271e+00     -6.10568906e+00     
H    -2.36145727e+00     -6.98988633e-01     -5.54555355e+00     
