23
1720.762338
N    -9.10615507e-03     -3.71817256e-02     -3.07876911e-02     
H    5.96390322e-01      -2.39774391e-01     8.02230892e-01      
H    -1.02190231e+00     2.40376562e-01      3.78436474e-02      
H    5.06680719e-01      7.83694404e-01      -4.13646521e-01     
C    3.64273049e-02      -1.20609643e+00     -9.29492250e-01     
H    1.07033889e+00      -1.47910147e+00     -1.11851024e+00     
H    -4.72055212e-01     -2.04660342e+00     -4.61414474e-01     
C    -6.42880504e-01     -8.46873962e-01     -2.23584960e+00     
O    -1.16882378e+00     2.31289198e-01      -2.44721380e+00     
O    -5.75109326e-01     -1.86604905e+00     -3.06963559e+00     
H    -1.00304675e+00     -1.61581315e+00     -3.94173895e+00     
O    1.26650127e+00      1.81218997e+00      -1.64214818e+00     
H    1.85807146e+00      2.56535371e+00      -1.55815782e+00     
H    6.83529222e-01      2.02991529e+00      -2.37565131e+00     
O    1.32606187e+00      -1.00156683e+00     2.22935063e+00      
H    9.26918602e-01      -1.35151813e+00     3.02915012e+00      
H    2.25123977e+00      -8.68522830e-01     2.44935906e+00      
O    -2.72390388e+00     3.94919119e-01      1.11356023e-01      
H    -3.36549385e+00     7.29469488e-01      7.42371446e-01      
H    -2.98113314e+00     7.07484696e-01      -7.61083321e-01     
O    -1.62030505e+00     -1.29895756e+00     -5.42295712e+00     
H    -1.71325781e+00     -1.96691523e+00     -6.10979348e+00     
H    -2.35957870e+00     -6.99125562e-01     -5.54255505e+00     
23
1720.762338
N    -7.51114759e-03     -3.64869076e-02     -3.16214717e-02     
H    5.64959315e-01      -2.49241623e-01     8.16106227e-01      
H    -1.01541669e+00     2.38842825e-01      6.26233170e-02      
H    4.98815067e-01      7.79486129e-01      -4.34931386e-01     
C    3.69907238e-02      -1.20576776e+00     -9.29889240e-01     
H    1.07088531e+00      -1.48037633e+00     -1.11793375e+00     
H    -4.71991046e-01     -2.04539114e+00     -4.61333135e-01     
C    -6.43025602e-01     -8.46792357e-01     -2.23580304e+00     
O    -1.16884499e+00     2.31196152e-01      -2.44716503e+00     
O    -5.75099051e-01     -1.86605931e+00     -3.06964513e+00     
H    -1.00294796e+00     -1.61569192e+00     -3.94175431e+00     
O    1.26664571e+00      1.81239552e+00      -1.64214050e+00     
H    1.85878043e+00      2.56489835e+00      -1.55768525e+00     
H    6.82310972e-01      2.02827320e+00      -2.37508780e+00     
O    1.32629962e+00      -1.00149492e+00     2.22927517e+00      
H    9.25750288e-01      -1.35116153e+00     3.02850942e+00      
H    2.25135433e+00      -8.69070530e-01     2.44988916e+00      
O    -2.72358937e+00     3.94756285e-01      1.11207921e-01      
H    -3.36637655e+00     7.30899805e-01      7.40455047e-01      
H    -2.98460339e+00     7.08799789e-01      -7.59593253e-01     
O    -1.62029342e+00     -1.29895931e+00     -5.42294112e+00     
H    -1.71340596e+00     -1.96682891e+00     -6.10985404e+00     
H    -2.35962329e+00     -6.99208909e-01     -5.54269950e+00     
23
1720.762338
N    -6.71364385e-03     -3.61394985e-02     -3.20383621e-02     
H    5.49243812e-01      -2.53975239e-01     8.23043894e-01      
H    -1.01217389e+00     2.38075956e-01      7.50131519e-02      
H    4.94882241e-01      7.77381992e-01      -4.45573819e-01     
C    3.72724332e-02      -1.20560342e+00     -9.30087734e-01     
H    1.07115852e+00      -1.48101377e+00     -1.11764551e+00     
H    -4.71958962e-01     -2.04478500e+00     -4.61292465e-01     
C    -6.43098151e-01     -8.46751555e-01     -2.23577975e+00     
O    -1.16885560e+00     2.31149629e-01      -2.44714065e+00     
O    -5.75093914e-01     -1.86606445e+00     -3.06964989e+00     
H    -1.00289856e+00     -1.61563131e+00     -3.94176198e+00     
O    1.26671793e+00      1.81249829e+00      -1.64213665e+00     
H    1.85913492e+00      2.56467066e+00      -1.55744896e+00     
H    6.81701847e-01      2.02745216e+00      -2.37480604e+00     
O    1.32641849e+00      -1.00145897e+00     2.22923744e+00      
H    9.25166131e-01      -1.35098323e+00     3.02818907e+00      
H    2.25141161e+00      -8.69344380e-01     2.45015420e+00      
O    -2.72343212e+00     3.94674867e-01      1.11133870e-01      
H    -3.36681791e+00     7.31614964e-01      7.39496847e-01      
H    -2.98633852e+00     7.09457336e-01      -7.58848220e-01     
O    -1.62028761e+00     -1.29896019e+00     -5.42293312e+00     
H    -1.71348004e+00     -1.96678575e+00     -6.10988432e+00     
H    -2.35964558e+00     -6.99250583e-01     -5.54277173e+00     
23
1720.762338
N    -5.91614011e-03     -3.57920895e-02     -3.24552524e-02     
H    5.33528309e-01      -2.58708856e-01     8.29981561e-01      
H    -1.00893108e+00     2.37309088e-01      8.74029867e-02      
H    4.90949415e-01      7.75277854e-01      -4.56216251e-01     
C    3.75541426e-02      -1.20543909e+00     -9.30286229e-01     
H    1.07143173e+00      -1.48165120e+00     -1.11735726e+00     
H    -4.71926879e-01     -2.04417885e+00     -4.61251795e-01     
C    -6.43170701e-01     -8.46710753e-01     -2.23575647e+00     
O    -1.16886621e+00     2.31103107e-01      -2.44711627e+00     
O    -5.75088776e-01     -1.86606958e+00     -3.06965466e+00     
H    -1.00284917e+00     -1.61557070e+00     -3.94176966e+00     
O    1.26679014e+00      1.81260106e+00      -1.64213281e+00     
H    1.85948941e+00      2.56444298e+00      -1.55721267e+00     
H    6.81092722e-01      2.02663111e+00      -2.37452429e+00     
O    1.32653736e+00      -1.00142301e+00     2.22919971e+00      
H    9.24581974e-01      -1.35080493e+00     3.02786872e+00      
H    2.25146889e+00      -8.69618230e-01     2.45041925e+00      
O    -2.72327487e+00     3.94593450e-01      1.11059819e-01      
H    -3.36725926e+00     7.32330122e-01      7.38538647e-01      
H    -2.98807365e+00     7.10114882e-01      -7.58103186e-01     
O    -1.62028179e+00     -1.29896107e+00     -5.42292512e+00     
H    -1.71355411e+00     -1.96674259e+00     -6.10991460e+00     
H    -2.35966788e+00     -6.99292256e-01     -5.54284396e+00     
23
1720.762338
N    -5.11863637e-03     -3.54446805e-02     -3.28721427e-02     
H    5.17812805e-01      -2.63442472e-01     8.36919228e-01      
H    -1.00568828e+00     2.36542219e-01      9.97928215e-02      
H    4.87016589e-01      7.73173717e-01      -4.66858684e-01     
C    3.78358520e-02      -1.20527475e+00     -9.30484724e-01     
H    1.07170494e+00      -1.48228863e+00     -1.11706902e+00     
H    -4.71894796e-01     -2.04357271e+00     -4.61211125e-01     
C    -6.43243250e-01     -8.46669950e-01     -2.23573319e+00     
O    -1.16887681e+00     2.31056584e-01      -2.44709189e+00     
O    -5.75083639e-01     -1.86607471e+00     -3.06965942e+00     
H    -1.00279977e+00     -1.61551009e+00     -3.94177733e+00     
O    1.26686236e+00      1.81270383e+00      -1.64212897e+00     
H    1.85984390e+00      2.56421530e+00      -1.55697638e+00     
H    6.80483598e-01      2.02581007e+00      -2.37424253e+00     
O    1.32665623e+00      -1.00138706e+00     2.22916199e+00      
H    9.23997817e-01      -1.35062663e+00     3.02754838e+00      
H    2.25152617e+00      -8.69892080e-01     2.45068430e+00      
O    -2.72311761e+00     3.94512032e-01      1.10985768e-01      
H    -3.36770061e+00     7.33045281e-01      7.37580447e-01      
H    -2.98980877e+00     7.10772429e-01      -7.57358152e-01     
O    -1.62027598e+00     -1.29896195e+00     -5.42291712e+00     
H    -1.71362819e+00     -1.96669943e+00     -6.10994489e+00     
H    -2.35969017e+00     -6.99333930e-01     -5.54291619e+00     
23
1720.762338
N    -4.32113263e-03     -3.50972715e-02     -3.32890330e-02     
H    5.02097302e-01      -2.68176088e-01     8.43856896e-01      
H    -1.00244547e+00     2.35775350e-01      1.12182656e-01      
H    4.83083764e-01      7.71069579e-01      -4.77501117e-01     
C    3.81175615e-02      -1.20511041e+00     -9.30683219e-01     
H    1.07197815e+00      -1.48292606e+00     -1.11678078e+00     
H    -4.71862713e-01     -2.04296657e+00     -4.61170456e-01     
C    -6.43315799e-01     -8.46629148e-01     -2.23570991e+00     
O    -1.16888742e+00     2.31010061e-01      -2.44706750e+00     
O    -5.75078501e-01     -1.86607984e+00     -3.06966419e+00     
H    -1.00275037e+00     -1.61544947e+00     -3.94178501e+00     
O    1.26693458e+00      1.81280661e+00      -1.64212513e+00     
H    1.86019839e+00      2.56398762e+00      -1.55674010e+00     
H    6.79874473e-01      2.02498903e+00      -2.37396077e+00     
O    1.32677511e+00      -1.00135111e+00     2.22912426e+00      
H    9.23413660e-01      -1.35044833e+00     3.02722803e+00      
H    2.25158345e+00      -8.70165931e-01     2.45094935e+00      
O    -2.72296036e+00     3.94430615e-01      1.10911716e-01      
H    -3.36814196e+00     7.33760439e-01      7.36622248e-01      
H    -2.99154390e+00     7.11429975e-01      -7.56613118e-01     
O    -1.62027017e+00     -1.29896282e+00     -5.42290912e+00     
H    -1.71370226e+00     -1.96665626e+00     -6.10997517e+00     
H    -2.35971246e+00     -6.99375604e-01     -5.54298841e+00     
23
1720.762338
N    -3.92238076e-03     -3.49235669e-02     -3.34974782e-02     
H    4.94239550e-01      -2.70542896e-01     8.47325729e-01      
H    -1.00082407e+00     2.35391916e-01      1.18377574e-01      
H    4.81117351e-01      7.70017510e-01      -4.82822333e-01     
C    3.82584162e-02      -1.20502824e+00     -9.30782466e-01     
H    1.07211475e+00      -1.48324477e+00     -1.11663666e+00     
H    -4.71846672e-01     -2.04266350e+00     -4.61150121e-01     
C    -6.43352073e-01     -8.46608747e-01     -2.23569826e+00     
O    -1.16889272e+00     2.30986799e-01      -2.44705531e+00     
O    -5.75075932e-01     -1.86608240e+00     -3.06966657e+00     
H    -1.00272567e+00     -1.61541917e+00     -3.94178885e+00     
O    1.26697069e+00      1.81285799e+00      -1.64212320e+00     
H    1.86037564e+00      2.56387377e+00      -1.55662195e+00     
H    6.79569910e-01      2.02457850e+00      -2.37381990e+00     
O    1.32683454e+00      -1.00133313e+00     2.22910539e+00      
H    9.23121581e-01      -1.35035918e+00     3.02706785e+00      
H    2.25161209e+00      -8.70302856e-01     2.45108187e+00      
O    -2.72288173e+00     3.94389906e-01      1.10874691e-01      
H    -3.36836264e+00     7.34118018e-01      7.36143148e-01      
H    -2.99241146e+00     7.11758748e-01      -7.56240602e-01     
O    -1.62026726e+00     -1.29896326e+00     -5.42290512e+00     
H    -1.71373930e+00     -1.96663468e+00     -6.10999031e+00     
H    -2.35972361e+00     -6.99396440e-01     -5.54302453e+00     
23
1720.762338
N    -3.52362889e-03     -3.47498624e-02     -3.37059234e-02     
H    4.86381798e-01      -2.72909704e-01     8.50794563e-01      
H    -9.99202665e-01     2.35008482e-01      1.24572491e-01      
H    4.79150938e-01      7.68965442e-01      -4.88143549e-01     
C    3.83992709e-02      -1.20494608e+00     -9.30881713e-01     
H    1.07225136e+00      -1.48356349e+00     -1.11649253e+00     
H    -4.71830630e-01     -2.04236043e+00     -4.61129786e-01     
C    -6.43388348e-01     -8.46588345e-01     -2.23568662e+00     
O    -1.16889802e+00     2.30963538e-01      -2.44704312e+00     
O    -5.75073364e-01     -1.86608497e+00     -3.06966895e+00     
H    -1.00270098e+00     -1.61538886e+00     -3.94179268e+00     
O    1.26700680e+00      1.81290938e+00      -1.64212128e+00     
H    1.86055288e+00      2.56375993e+00      -1.55650381e+00     
H    6.79265348e-01      2.02416798e+00      -2.37367902e+00     
O    1.32689398e+00      -1.00131515e+00     2.22908653e+00      
H    9.22829503e-01      -1.35027003e+00     3.02690768e+00      
H    2.25164073e+00      -8.70439781e-01     2.45121439e+00      
O    -2.72280310e+00     3.94349197e-01      1.10837665e-01      
H    -3.36858332e+00     7.34475598e-01      7.35664048e-01      
H    -2.99327902e+00     7.12087522e-01      -7.55868085e-01     
O    -1.62026435e+00     -1.29896370e+00     -5.42290112e+00     
H    -1.71377634e+00     -1.96661310e+00     -6.11000545e+00     
H    -2.35973476e+00     -6.99417277e-01     -5.54306064e+00     
23
1720.762338
N    -1.92862141e-03     -3.40550444e-02     -3.45397040e-02     
H    4.54950792e-01      -2.82376936e-01     8.64669897e-01      
H    -9.92717053e-01     2.33474744e-01      1.49352161e-01      
H    4.71285286e-01      7.64757166e-01      -5.09428415e-01     
C    3.89626897e-02      -1.20461740e+00     -9.31278703e-01     
H    1.07279778e+00      -1.48483835e+00     -1.11591605e+00     
H    -4.71766464e-01     -2.04114815e+00     -4.61048446e-01     
C    -6.43533446e-01     -8.46506741e-01     -2.23564006e+00     
O    -1.16891924e+00     2.30870492e-01      -2.44699436e+00     
O    -5.75063088e-01     -1.86609523e+00     -3.06967849e+00     
H    -1.00260218e+00     -1.61526764e+00     -3.94180804e+00     
O    1.26715124e+00      1.81311492e+00      -1.64211360e+00     
H    1.86126186e+00      2.56330457e+00      -1.55603123e+00     
H    6.78047098e-01      2.02252590e+00      -2.37311550e+00     
O    1.32713172e+00      -1.00124325e+00     2.22901107e+00      
H    9.21661189e-01      -1.34991343e+00     3.02626698e+00      
H    2.25175529e+00      -8.70987481e-01     2.45174449e+00      
O    -2.72248860e+00     3.94186363e-01      1.10689563e-01      
H    -3.36946602e+00     7.35905914e-01      7.33747648e-01      
H    -2.99674928e+00     7.13402614e-01      -7.54378017e-01     
O    -1.62025273e+00     -1.29896546e+00     -5.42288512e+00     
H    -1.71392448e+00     -1.96652678e+00     -6.11006601e+00     
H    -2.35977934e+00     -6.99500625e-01     -5.54320510e+00     
23
1720.762338
N    -1.52986954e-03     -3.38813399e-02     -3.47481492e-02     
H    4.47093040e-01      -2.84743744e-01     8.68138731e-01      
H    -9.91095650e-01     2.33091310e-01      1.55547078e-01      
H    4.69318873e-01      7.63705098e-01      -5.14749631e-01     
C    3.91035444e-02      -1.20453524e+00     -9.31377950e-01     
H    1.07293439e+00      -1.48515707e+00     -1.11577192e+00     
H    -4.71750422e-01     -2.04084508e+00     -4.61028111e-01     
C    -6.43569721e-01     -8.46486339e-01     -2.23562842e+00     
O    -1.16892454e+00     2.30847231e-01      -2.44698217e+00     
O    -5.75060520e-01     -1.86609780e+00     -3.06968087e+00     
H    -1.00257749e+00     -1.61523733e+00     -3.94181187e+00     
O    1.26718735e+00      1.81316631e+00      -1.64211168e+00     
H    1.86143910e+00      2.56319073e+00      -1.55591309e+00     
H    6.77742536e-01      2.02211538e+00      -2.37297462e+00     
O    1.32719116e+00      -1.00122527e+00     2.22899221e+00      
H    9.21369111e-01      -1.34982428e+00     3.02610681e+00      
H    2.25178393e+00      -8.71124406e-01     2.45187701e+00      
O    -2.72240997e+00     3.94145654e-01      1.10652537e-01      
H    -3.36968670e+00     7.36263494e-01      7.33268548e-01      
H    -2.99761684e+00     7.13731388e-01      -7.54005500e-01     
O    -1.62024982e+00     -1.29896590e+00     -5.42288112e+00     
H    -1.71396152e+00     -1.96650520e+00     -6.11008115e+00     
H    -2.35979049e+00     -6.99521462e-01     -5.54324121e+00     
23
1720.762338
N    -1.13111767e-03     -3.37076353e-02     -3.49565944e-02     
H    4.39235288e-01      -2.87110552e-01     8.71607564e-01      
H    -9.89474247e-01     2.32707876e-01      1.61741996e-01      
H    4.67352460e-01      7.62653029e-01      -5.20070847e-01     
C    3.92443991e-02      -1.20445307e+00     -9.31477197e-01     
H    1.07307099e+00      -1.48547578e+00     -1.11562780e+00     
H    -4.71734381e-01     -2.04054201e+00     -4.61007776e-01     
C    -6.43605995e-01     -8.46465938e-01     -2.23561677e+00     
O    -1.16892984e+00     2.30823969e-01      -2.44696998e+00     
O    -5.75057951e-01     -1.86610036e+00     -3.06968325e+00     
H    -1.00255279e+00     -1.61520703e+00     -3.94181571e+00     
O    1.26722346e+00      1.81321769e+00      -1.64210975e+00     
H    1.86161635e+00      2.56307688e+00      -1.55579494e+00     
H    6.77437973e-01      2.02170485e+00      -2.37283375e+00     
O    1.32725059e+00      -1.00120729e+00     2.22897334e+00      
H    9.21077032e-01      -1.34973513e+00     3.02594663e+00      
H    2.25181257e+00      -8.71261331e-01     2.45200953e+00      
O    -2.72233134e+00     3.94104945e-01      1.10615512e-01      
H    -3.36990738e+00     7.36621073e-01      7.32789448e-01      
H    -2.99848440e+00     7.14060161e-01      -7.53632984e-01     
O    -1.62024691e+00     -1.29896634e+00     -5.42287712e+00     
H    -1.71399856e+00     -1.96648362e+00     -6.11009629e+00     
H    -2.35980164e+00     -6.99542298e-01     -5.54327733e+00     
23
1720.762338
N    -3.33613931e-04     -3.33602263e-02     -3.53734847e-02     
H    4.23519785e-01      -2.91844168e-01     8.78545232e-01      
H    -9.86231441e-01     2.31941007e-01      1.74131830e-01      
H    4.63419635e-01      7.60548891e-01      -5.30713280e-01     
C    3.95261086e-02      -1.20428873e+00     -9.31675692e-01     
H    1.07334420e+00      -1.48611321e+00     -1.11533956e+00     
H    -4.71702298e-01     -2.03993587e+00     -4.60967107e-01     
C    -6.43678544e-01     -8.46425136e-01     -2.23559349e+00     
O    -1.16894045e+00     2.30777446e-01      -2.44694559e+00     
O    -5.75052813e-01     -1.86610549e+00     -3.06968802e+00     
H    -1.00250339e+00     -1.61514641e+00     -3.94182339e+00     
O    1.26729568e+00      1.81332047e+00      -1.64210591e+00     
H    1.86197084e+00      2.56284920e+00      -1.55555866e+00     
H    6.76828848e-01      2.02088381e+00      -2.37255199e+00     
O    1.32736947e+00      -1.00117134e+00     2.22893561e+00      
H    9.20492875e-01      -1.34955683e+00     3.02562628e+00      
H    2.25186985e+00      -8.71535182e-01     2.45227458e+00      
O    -2.72217409e+00     3.94023528e-01      1.10541460e-01      
H    -3.37034873e+00     7.37336231e-01      7.31831249e-01      
H    -3.00021953e+00     7.14717707e-01      -7.52887950e-01     
O    -1.62024110e+00     -1.29896721e+00     -5.42286912e+00     
H    -1.71407263e+00     -1.96644045e+00     -6.11012657e+00     
H    -2.35982393e+00     -6.99583972e-01     -5.54334955e+00     
23
1720.762338
N    4.63889809e-04      -3.30128173e-02     -3.57903750e-02     
H    4.07804281e-01      -2.96577784e-01     8.85482899e-01      
H    -9.82988635e-01     2.31174138e-01      1.86521665e-01      
H    4.59486809e-01      7.58444754e-01      -5.41355713e-01     
C    3.98078180e-02      -1.20412439e+00     -9.31874187e-01     
H    1.07361741e+00      -1.48675064e+00     -1.11505132e+00     
H    -4.71670215e-01     -2.03932973e+00     -4.60926437e-01     
C    -6.43751093e-01     -8.46384333e-01     -2.23557021e+00     
O    -1.16895105e+00     2.30730923e-01      -2.44692121e+00     
O    -5.75047676e-01     -1.86611062e+00     -3.06969278e+00     
H    -1.00245399e+00     -1.61508580e+00     -3.94183106e+00     
O    1.26736790e+00      1.81342324e+00      -1.64210207e+00     
H    1.86232533e+00      2.56262152e+00      -1.55532237e+00     
H    6.76219724e-01      2.02006277e+00      -2.37227023e+00     
O    1.32748834e+00      -1.00113539e+00     2.22889789e+00      
H    9.19908718e-01      -1.34937853e+00     3.02530594e+00      
H    2.25192713e+00      -8.71809032e-01     2.45253963e+00      
O    -2.72201683e+00     3.93942110e-01      1.10467409e-01      
H    -3.37079008e+00     7.38051390e-01      7.30873049e-01      
H    -3.00195465e+00     7.15375254e-01      -7.52142916e-01     
O    -1.62023529e+00     -1.29896809e+00     -5.42286112e+00     
H    -1.71414671e+00     -1.96639729e+00     -6.11015686e+00     
H    -2.35984622e+00     -6.99625646e-01     -5.54342178e+00     
23
1720.762338
N    1.26139355e-03      -3.26654083e-02     -3.62072653e-02     
H    3.92088778e-01      -3.01311401e-01     8.92420566e-01      
H    -9.79745829e-01     2.30407270e-01      1.98911500e-01      
H    4.55553983e-01      7.56340616e-01      -5.51998145e-01     
C    4.00895274e-02      -1.20396006e+00     -9.32072682e-01     
H    1.07389062e+00      -1.48738807e+00     -1.11476307e+00     
H    -4.71638132e-01     -2.03872358e+00     -4.60885767e-01     
C    -6.43823643e-01     -8.46343531e-01     -2.23554693e+00     
O    -1.16896166e+00     2.30684401e-01      -2.44689683e+00     
O    -5.75042538e-01     -1.86611575e+00     -3.06969755e+00     
H    -1.00240460e+00     -1.61502519e+00     -3.94183874e+00     
O    1.26744011e+00      1.81352601e+00      -1.64209823e+00     
H    1.86267982e+00      2.56239384e+00      -1.55508608e+00     
H    6.75610599e-01      2.01924172e+00      -2.37198848e+00     
O    1.32760721e+00      -1.00109943e+00     2.22886016e+00      
H    9.19324561e-01      -1.34920023e+00     3.02498559e+00      
H    2.25198441e+00      -8.72082882e-01     2.45280468e+00      
O    -2.72185958e+00     3.93860693e-01      1.10393358e-01      
H    -3.37123143e+00     7.38766548e-01      7.29914849e-01      
H    -3.00368978e+00     7.16032800e-01      -7.51397882e-01     
O    -1.62022947e+00     -1.29896897e+00     -5.42285312e+00     
H    -1.71422078e+00     -1.96635413e+00     -6.11018714e+00     
H    -2.35986852e+00     -6.99667319e-01     -5.54349401e+00     
23
1720.762338
N    2.05889729e-03      -3.23179992e-02     -3.66241557e-02     
H    3.76373275e-01      -3.06045017e-01     8.99358233e-01      
H    -9.76503024e-01     2.29640401e-01      2.11301335e-01      
H    4.51621157e-01      7.54236479e-01      -5.62640578e-01     
C    4.03712368e-02      -1.20379572e+00     -9.32271176e-01     
H    1.07416383e+00      -1.48802551e+00     -1.11447483e+00     
H    -4.71606048e-01     -2.03811744e+00     -4.60845097e-01     
C    -6.43896192e-01     -8.46302729e-01     -2.23552364e+00     
O    -1.16897227e+00     2.30637878e-01      -2.44687245e+00     
O    -5.75037401e-01     -1.86612089e+00     -3.06970231e+00     
H    -1.00235520e+00     -1.61496458e+00     -3.94184641e+00     
O    1.26751233e+00      1.81362878e+00      -1.64209438e+00     
H    1.86303431e+00      2.56216615e+00      -1.55484979e+00     
H    6.75001474e-01      2.01842068e+00      -2.37170672e+00     
O    1.32772608e+00      -1.00106348e+00     2.22882243e+00      
H    9.18740404e-01      -1.34902193e+00     3.02466524e+00      
H    2.25204169e+00      -8.72356732e-01     2.45306972e+00      
O    -2.72170233e+00     3.93779275e-01      1.10319307e-01      
H    -3.37167279e+00     7.39481707e-01      7.28956649e-01      
H    -3.00542491e+00     7.16690347e-01      -7.50652849e-01     
O    -1.62022366e+00     -1.29896985e+00     -5.42284512e+00     
H    -1.71429486e+00     -1.96631097e+00     -6.11021742e+00     
H    -2.35989081e+00     -6.99708993e-01     -5.54356624e+00     
23
1720.762338
N    3.65390477e-03      -3.16231812e-02     -3.74579363e-02     
H    3.44942268e-01      -3.15512249e-01     9.13233568e-01      
H    -9.70017412e-01     2.28106664e-01      2.36081005e-01      
H    4.43755505e-01      7.50028204e-01      -5.83925443e-01     
C    4.09346557e-02      -1.20346705e+00     -9.32668166e-01     
H    1.07471025e+00      -1.48930037e+00     -1.11389834e+00     
H    -4.71541882e-01     -2.03690516e+00     -4.60763758e-01     
C    -6.44041290e-01     -8.46221124e-01     -2.23547708e+00     
O    -1.16899348e+00     2.30544832e-01      -2.44682368e+00     
O    -5.75027126e-01     -1.86613115e+00     -3.06971185e+00     
H    -1.00225641e+00     -1.61484335e+00     -3.94186177e+00     
O    1.26765677e+00      1.81383433e+00      -1.64208670e+00     
H    1.86374328e+00      2.56171079e+00      -1.55437722e+00     
H    6.73783224e-01      2.01677859e+00      -2.37114321e+00     
O    1.32796383e+00      -1.00099157e+00     2.22874697e+00      
H    9.17572090e-01      -1.34866533e+00     3.02402454e+00      
H    2.25215625e+00      -8.72904432e-01     2.45359982e+00      
O    -2.72138782e+00     3.93616441e-01      1.10171205e-01      
H    -3.37255549e+00     7.40912024e-01      7.27040250e-01      
H    -3.00889516e+00     7.18005440e-01      -7.49162781e-01     
O    -1.62021203e+00     -1.29897160e+00     -5.42282912e+00     
H    -1.71444301e+00     -1.96622465e+00     -6.11027798e+00     
H    -2.35993540e+00     -6.99792340e-01     -5.54371069e+00     
