23
3894.140140
N    -2.75976792e-03     -3.43800415e-02     -3.41113871e-02     
H    4.70669269e-01      -2.77671311e-01     8.57641209e-01      
H    -9.95410392e-01     2.34076403e-01      1.36989634e-01      
H    4.75231378e-01      7.66749949e-01      -4.98763752e-01     
C    3.86833492e-02      -1.20478283e+00     -9.31085275e-01     
H    1.07249857e+00      -1.48422747e+00     -1.11622684e+00     
H    -4.71785715e-01     -2.04179165e+00     -4.61096731e-01     
C    -6.43453231e-01     -8.46596576e-01     -2.23570161e+00     
O    -1.16891243e+00     2.30934308e-01      -2.44700302e+00     
O    -5.75073278e-01     -1.86606743e+00     -3.06966644e+00     
H    -1.00308807e+00     -1.61466709e+00     -3.94099883e+00     
O    1.26740340e+00      1.81314229e+00      -1.64187859e+00     
H    1.85854128e+00      2.56050328e+00      -1.55659417e+00     
H    6.75880424e-01      2.02431493e+00      -2.37686977e+00     
O    1.32708466e+00      -1.00125153e+00     2.22901529e+00      
H    9.21884176e-01      -1.35041586e+00     3.02731138e+00      
H    2.25091683e+00      -8.70828045e-01     2.45128765e+00      
O    -2.72311701e+00     3.94226552e-01      1.13095936e-01      
H    -3.35434479e+00     7.27429198e-01      7.20715245e-01      
H    -3.00231183e+00     7.21190713e-01      -7.78211052e-01     
O    -1.62754811e+00     -1.28792622e+00     -5.41952104e+00     
H    -1.72608550e+00     -2.03618360e+00     -6.18404963e+00     
H    -2.23136690e+00     -8.05708532e-01     -5.52330295e+00     
23
3894.140140
N    -2.75135723e-03     -3.43856445e-02     -3.41142438e-02     
H    4.70668526e-01      -2.77664313e-01     8.57663964e-01      
H    -9.95547758e-01     2.34117706e-01      1.36982807e-01      
H    4.75228061e-01      7.66777788e-01      -4.98769309e-01     
C    3.86827570e-02      -1.20478256e+00     -9.31084008e-01     
H    1.07250507e+00      -1.48422083e+00     -1.11622121e+00     
H    -4.71788923e-01     -2.04178231e+00     -4.61094827e-01     
C    -6.43455148e-01     -8.46584317e-01     -2.23569204e+00     
O    -1.16891148e+00     2.30929984e-01      -2.44700695e+00     
O    -5.75072015e-01     -1.86607310e+00     -3.06966826e+00     
H    -1.00297895e+00     -1.61483238e+00     -3.94119921e+00     
O    1.26732230e+00      1.81310976e+00      -1.64193830e+00     
H    1.85913280e+00      2.56126053e+00      -1.55651250e+00     
H    6.76574374e-01      2.02407293e+00      -2.37600164e+00     
O    1.32706671e+00      -1.00125844e+00     2.22902366e+00      
H    9.21974468e-01      -1.35033483e+00     3.02713037e+00      
H    2.25111213e+00      -8.70799441e-01     2.45133560e+00      
O    -2.72299922e+00     3.94236859e-01      1.12512855e-01      
H    -3.35801476e+00     7.29369588e-01      7.24212896e-01      
H    -3.00048741e+00     7.19079302e-01      -7.72439051e-01     
O    -1.62572572e+00     -1.29068581e+00     -5.42036406e+00     
H    -1.72302672e+00     -2.01878019e+00     -6.16554615e+00     
H    -2.26346444e+00     -7.79146137e-01     -5.52826043e+00     
23
3894.140140
N    -2.74715188e-03     -3.43884460e-02     -3.41156721e-02     
H    4.70668154e-01      -2.77660814e-01     8.57675342e-01      
H    -9.95616442e-01     2.34138357e-01      1.36979394e-01      
H    4.75226403e-01      7.66791707e-01      -4.98772088e-01     
C    3.86824609e-02      -1.20478242e+00     -9.31083375e-01     
H    1.07250832e+00      -1.48421751e+00     -1.11621839e+00     
H    -4.71790527e-01     -2.04177764e+00     -4.61093875e-01     
C    -6.43456106e-01     -8.46578188e-01     -2.23568726e+00     
O    -1.16891100e+00     2.30927823e-01      -2.44700891e+00     
O    -5.75071383e-01     -1.86607593e+00     -3.06966917e+00     
H    -1.00292439e+00     -1.61491502e+00     -3.94129940e+00     
O    1.26728176e+00      1.81309349e+00      -1.64196816e+00     
H    1.85942856e+00      2.56163915e+00      -1.55647167e+00     
H    6.76921348e-01      2.02395193e+00      -2.37556758e+00     
O    1.32705773e+00      -1.00126190e+00     2.22902785e+00      
H    9.22019614e-01      -1.35029431e+00     3.02703986e+00      
H    2.25120977e+00      -8.70785140e-01     2.45135957e+00      
O    -2.72294033e+00     3.94242013e-01      1.12221315e-01      
H    -3.35984975e+00     7.30339783e-01      7.25961721e-01      
H    -2.99957520e+00     7.18023596e-01      -7.69553051e-01     
O    -1.62481452e+00     -1.29206560e+00     -5.42078557e+00     
H    -1.72149734e+00     -2.01007848e+00     -6.15629442e+00     
H    -2.27951321e+00     -7.65864939e-01     -5.53073917e+00     
23
3894.140140
N    -2.74294653e-03     -3.43912474e-02     -3.41171004e-02     
H    4.70667782e-01      -2.77657316e-01     8.57686719e-01      
H    -9.95685125e-01     2.34159008e-01      1.36975980e-01      
H    4.75224745e-01      7.66805627e-01      -4.98774867e-01     
C    3.86821648e-02      -1.20478229e+00     -9.31082741e-01     
H    1.07251157e+00      -1.48421420e+00     -1.11621557e+00     
H    -4.71792131e-01     -2.04177297e+00     -4.61092923e-01     
C    -6.43457064e-01     -8.46572059e-01     -2.23568247e+00     
O    -1.16891053e+00     2.30925661e-01      -2.44701088e+00     
O    -5.75070752e-01     -1.86607876e+00     -3.06967008e+00     
H    -1.00286983e+00     -1.61499767e+00     -3.94139959e+00     
O    1.26724121e+00      1.81307722e+00      -1.64199802e+00     
H    1.85972432e+00      2.56201777e+00      -1.55643084e+00     
H    6.77268323e-01      2.02383094e+00      -2.37513352e+00     
O    1.32704876e+00      -1.00126536e+00     2.22903204e+00      
H    9.22064761e-01      -1.35025380e+00     3.02694936e+00      
H    2.25130742e+00      -8.70770838e-01     2.45138354e+00      
O    -2.72288143e+00     3.94247166e-01      1.11929775e-01      
H    -3.36168473e+00     7.31309977e-01      7.27710546e-01      
H    -2.99866299e+00     7.16967891e-01      -7.66667051e-01     
O    -1.62390333e+00     -1.29344540e+00     -5.42120708e+00     
H    -1.71996795e+00     -2.00137677e+00     -6.14704268e+00     
H    -2.29556198e+00     -7.52583741e-01     -5.53321791e+00     
23
3894.140140
N    -2.73874119e-03     -3.43940489e-02     -3.41185287e-02     
H    4.70667410e-01      -2.77653817e-01     8.57698097e-01      
H    -9.95753809e-01     2.34179659e-01      1.36972567e-01      
H    4.75223087e-01      7.66819546e-01      -4.98777646e-01     
C    3.86818686e-02      -1.20478215e+00     -9.31082108e-01     
H    1.07251482e+00      -1.48421088e+00     -1.11621275e+00     
H    -4.71793735e-01     -2.04176830e+00     -4.61091971e-01     
C    -6.43458022e-01     -8.46565930e-01     -2.23567769e+00     
O    -1.16891005e+00     2.30923500e-01      -2.44701284e+00     
O    -5.75070120e-01     -1.86608160e+00     -3.06967099e+00     
H    -1.00281526e+00     -1.61508031e+00     -3.94149978e+00     
O    1.26720066e+00      1.81306095e+00      -1.64202787e+00     
H    1.86002009e+00      2.56239639e+00      -1.55639001e+00     
H    6.77615298e-01      2.02370994e+00      -2.37469945e+00     
O    1.32703978e+00      -1.00126882e+00     2.22903623e+00      
H    9.22109907e-01      -1.35021328e+00     3.02685885e+00      
H    2.25140507e+00      -8.70756536e-01     2.45140752e+00      
O    -2.72282254e+00     3.94252320e-01      1.11638235e-01      
H    -3.36351972e+00     7.32280172e-01      7.29459372e-01      
H    -2.99775078e+00     7.15912185e-01      -7.63781051e-01     
O    -1.62299213e+00     -1.29482519e+00     -5.42162859e+00     
H    -1.71843857e+00     -1.99267506e+00     -6.13779094e+00     
H    -2.31161074e+00     -7.39302544e-01     -5.53569665e+00     
23
3894.140140
N    -2.73453584e-03     -3.43968504e-02     -3.41199571e-02     
H    4.70667039e-01      -2.77650318e-01     8.57709475e-01      
H    -9.95822492e-01     2.34200311e-01      1.36969153e-01      
H    4.75221428e-01      7.66833465e-01      -4.98780424e-01     
C    3.86815725e-02      -1.20478201e+00     -9.31081475e-01     
H    1.07251807e+00      -1.48420756e+00     -1.11620993e+00     
H    -4.71795339e-01     -2.04176363e+00     -4.61091020e-01     
C    -6.43458981e-01     -8.46559801e-01     -2.23567291e+00     
O    -1.16890958e+00     2.30921338e-01      -2.44701481e+00     
O    -5.75069489e-01     -1.86608443e+00     -3.06967190e+00     
H    -1.00276070e+00     -1.61516296e+00     -3.94159998e+00     
O    1.26716011e+00      1.81304469e+00      -1.64205773e+00     
H    1.86031585e+00      2.56277501e+00      -1.55634918e+00     
H    6.77962273e-01      2.02358894e+00      -2.37426539e+00     
O    1.32703080e+00      -1.00127228e+00     2.22904042e+00      
H    9.22155053e-01      -1.35017276e+00     3.02676834e+00      
H    2.25150272e+00      -8.70742234e-01     2.45143149e+00      
O    -2.72276364e+00     3.94257473e-01      1.11346694e-01      
H    -3.36535470e+00     7.33250367e-01      7.31208197e-01      
H    -2.99683857e+00     7.14856479e-01      -7.60895051e-01     
O    -1.62208093e+00     -1.29620499e+00     -5.42205010e+00     
H    -1.71690918e+00     -1.98397336e+00     -6.12853920e+00     
H    -2.32765951e+00     -7.26021346e-01     -5.53817539e+00     
23
3894.140140
N    -2.73243317e-03     -3.43982512e-02     -3.41206712e-02     
H    4.70666853e-01      -2.77648568e-01     8.57715164e-01      
H    -9.95856834e-01     2.34210636e-01      1.36967446e-01      
H    4.75220599e-01      7.66840425e-01      -4.98781814e-01     
C    3.86814245e-02      -1.20478194e+00     -9.31081158e-01     
H    1.07251969e+00      -1.48420590e+00     -1.11620852e+00     
H    -4.71796141e-01     -2.04176129e+00     -4.61090544e-01     
C    -6.43459460e-01     -8.46556737e-01     -2.23567052e+00     
O    -1.16890934e+00     2.30920257e-01      -2.44701579e+00     
O    -5.75069173e-01     -1.86608585e+00     -3.06967236e+00     
H    -1.00273342e+00     -1.61520428e+00     -3.94165007e+00     
O    1.26713984e+00      1.81303655e+00      -1.64207266e+00     
H    1.86046373e+00      2.56296432e+00      -1.55632877e+00     
H    6.78135761e-01      2.02352844e+00      -2.37404836e+00     
O    1.32702631e+00      -1.00127401e+00     2.22904252e+00      
H    9.22177627e-01      -1.35015250e+00     3.02672309e+00      
H    2.25155154e+00      -8.70735084e-01     2.45144348e+00      
O    -2.72273419e+00     3.94260050e-01      1.11200924e-01      
H    -3.36627219e+00     7.33735464e-01      7.32082610e-01      
H    -2.99638247e+00     7.14328627e-01      -7.59452051e-01     
O    -1.62162533e+00     -1.29689489e+00     -5.42226085e+00     
H    -1.71614449e+00     -1.97962250e+00     -6.12391334e+00     
H    -2.33568390e+00     -7.19380747e-01     -5.53941476e+00     
23
3894.140140
N    -2.73033050e-03     -3.43996519e-02     -3.41213854e-02     
H    4.70666667e-01      -2.77646819e-01     8.57720852e-01      
H    -9.95891176e-01     2.34220962e-01      1.36965740e-01      
H    4.75219770e-01      7.66847385e-01      -4.98783203e-01     
C    3.86812764e-02      -1.20478188e+00     -9.31080841e-01     
H    1.07252132e+00      -1.48420424e+00     -1.11620711e+00     
H    -4.71796943e-01     -2.04175896e+00     -4.61090068e-01     
C    -6.43459939e-01     -8.46553672e-01     -2.23566812e+00     
O    -1.16890910e+00     2.30919177e-01      -2.44701677e+00     
O    -5.75068857e-01     -1.86608727e+00     -3.06967281e+00     
H    -1.00270614e+00     -1.61524560e+00     -3.94170017e+00     
O    1.26711957e+00      1.81302842e+00      -1.64208758e+00     
H    1.86061161e+00      2.56315363e+00      -1.55630835e+00     
H    6.78309248e-01      2.02346794e+00      -2.37383132e+00     
O    1.32702183e+00      -1.00127574e+00     2.22904461e+00      
H    9.22200200e-01      -1.35013225e+00     3.02667784e+00      
H    2.25160036e+00      -8.70727933e-01     2.45145547e+00      
O    -2.72270475e+00     3.94262627e-01      1.11055154e-01      
H    -3.36718969e+00     7.34220561e-01      7.32957023e-01      
H    -2.99592636e+00     7.13800774e-01      -7.58009051e-01     
O    -1.62116974e+00     -1.29758478e+00     -5.42247161e+00     
H    -1.71537980e+00     -1.97527165e+00     -6.11928747e+00     
H    -2.34370828e+00     -7.12740149e-01     -5.54065413e+00     
23
3894.140140
N    -2.72191980e-03     -3.44052549e-02     -3.41242420e-02     
H    4.70665923e-01      -2.77639821e-01     8.57743608e-01      
H    -9.96028542e-01     2.34262264e-01      1.36958912e-01      
H    4.75216454e-01      7.66875223e-01      -4.98788761e-01     
C    3.86806842e-02      -1.20478160e+00     -9.31079575e-01     
H    1.07252782e+00      -1.48419760e+00     -1.11620147e+00     
H    -4.71800151e-01     -2.04174962e+00     -4.61088164e-01     
C    -6.43461855e-01     -8.46541414e-01     -2.23565856e+00     
O    -1.16890816e+00     2.30914853e-01      -2.44702071e+00     
O    -5.75067595e-01     -1.86609293e+00     -3.06967463e+00     
H    -1.00259702e+00     -1.61541090e+00     -3.94190055e+00     
O    1.26703847e+00      1.81299588e+00      -1.64214730e+00     
H    1.86120313e+00      2.56391087e+00      -1.55622669e+00     
H    6.79003198e-01      2.02322594e+00      -2.37296320e+00     
O    1.32700387e+00      -1.00128266e+00     2.22905299e+00      
H    9.22290492e-01      -1.35005121e+00     3.02649682e+00      
H    2.25179566e+00      -8.70699329e-01     2.45150341e+00      
O    -2.72258695e+00     3.94272933e-01      1.10472074e-01      
H    -3.37085965e+00     7.36160951e-01      7.36454673e-01      
H    -2.99410194e+00     7.11689362e-01      -7.52237051e-01     
O    -1.61934734e+00     -1.30034438e+00     -5.42331463e+00     
H    -1.71232102e+00     -1.95786823e+00     -6.10078399e+00     
H    -2.37580582e+00     -6.86177753e-01     -5.54561161e+00     
23
3894.140140
N    -2.71981713e-03     -3.44066556e-02     -3.41249562e-02     
H    4.70665737e-01      -2.77638072e-01     8.57749296e-01      
H    -9.96062884e-01     2.34272590e-01      1.36957206e-01      
H    4.75215625e-01      7.66882183e-01      -4.98790150e-01     
C    3.86805361e-02      -1.20478154e+00     -9.31079258e-01     
H    1.07252945e+00      -1.48419594e+00     -1.11620006e+00     
H    -4.71800953e-01     -2.04174729e+00     -4.61087688e-01     
C    -6.43462334e-01     -8.46538349e-01     -2.23565616e+00     
O    -1.16890792e+00     2.30913773e-01      -2.44702169e+00     
O    -5.75067279e-01     -1.86609435e+00     -3.06967508e+00     
H    -1.00256974e+00     -1.61545222e+00     -3.94195065e+00     
O    1.26701820e+00      1.81298775e+00      -1.64216222e+00     
H    1.86135101e+00      2.56410018e+00      -1.55620627e+00     
H    6.79176685e-01      2.02316544e+00      -2.37274616e+00     
O    1.32699939e+00      -1.00128439e+00     2.22905508e+00      
H    9.22313065e-01      -1.35003096e+00     3.02645157e+00      
H    2.25184448e+00      -8.70692178e-01     2.45151540e+00      
O    -2.72255751e+00     3.94275510e-01      1.10326304e-01      
H    -3.37177715e+00     7.36646048e-01      7.37329086e-01      
H    -2.99364583e+00     7.11161509e-01      -7.50794051e-01     
O    -1.61889175e+00     -1.30103427e+00     -5.42352539e+00     
H    -1.71155633e+00     -1.95351738e+00     -6.09615812e+00     
H    -2.38383020e+00     -6.79537155e-01     -5.54685098e+00     
23
3894.140140
N    -2.71771446e-03     -3.44080564e-02     -3.41256703e-02     
H    4.70665551e-01      -2.77636322e-01     8.57754985e-01      
H    -9.96097226e-01     2.34282915e-01      1.36955499e-01      
H    4.75214796e-01      7.66889143e-01      -4.98791540e-01     
C    3.86803881e-02      -1.20478147e+00     -9.31078941e-01     
H    1.07253107e+00      -1.48419428e+00     -1.11619865e+00     
H    -4.71801755e-01     -2.04174495e+00     -4.61087212e-01     
C    -6.43462813e-01     -8.46535285e-01     -2.23565377e+00     
O    -1.16890768e+00     2.30912692e-01      -2.44702267e+00     
O    -5.75066963e-01     -1.86609577e+00     -3.06967554e+00     
H    -1.00254246e+00     -1.61549354e+00     -3.94200074e+00     
O    1.26699793e+00      1.81297961e+00      -1.64217715e+00     
H    1.86149889e+00      2.56428949e+00      -1.55618586e+00     
H    6.79350173e-01      2.02310494e+00      -2.37252913e+00     
O    1.32699490e+00      -1.00128612e+00     2.22905718e+00      
H    9.22335639e-01      -1.35001070e+00     3.02640632e+00      
H    2.25189330e+00      -8.70685028e-01     2.45152739e+00      
O    -2.72252806e+00     3.94278087e-01      1.10180534e-01      
H    -3.37269464e+00     7.37131145e-01      7.38203499e-01      
H    -2.99318973e+00     7.10633657e-01      -7.49351051e-01     
O    -1.61843615e+00     -1.30172417e+00     -5.42373614e+00     
H    -1.71079164e+00     -1.94916652e+00     -6.09153226e+00     
H    -2.39185459e+00     -6.72896556e-01     -5.54809035e+00     
23
3894.140140
N    -2.71350911e-03     -3.44108579e-02     -3.41270987e-02     
H    4.70665180e-01      -2.77632823e-01     8.57766363e-01      
H    -9.96165909e-01     2.34303567e-01      1.36952085e-01      
H    4.75213137e-01      7.66903062e-01      -4.98794318e-01     
C    3.86800920e-02      -1.20478133e+00     -9.31078308e-01     
H    1.07253432e+00      -1.48419096e+00     -1.11619583e+00     
H    -4.71803359e-01     -2.04174028e+00     -4.61086261e-01     
C    -6.43463772e-01     -8.46529156e-01     -2.23564899e+00     
O    -1.16890721e+00     2.30910530e-01      -2.44702464e+00     
O    -5.75066332e-01     -1.86609860e+00     -3.06967645e+00     
H    -1.00248790e+00     -1.61557619e+00     -3.94210094e+00     
O    1.26695738e+00      1.81296335e+00      -1.64220701e+00     
H    1.86179465e+00      2.56466811e+00      -1.55614503e+00     
H    6.79697148e-01      2.02298394e+00      -2.37209507e+00     
O    1.32698592e+00      -1.00128958e+00     2.22906137e+00      
H    9.22380785e-01      -1.34997018e+00     3.02631581e+00      
H    2.25199095e+00      -8.70670726e-01     2.45155136e+00      
O    -2.72246916e+00     3.94283240e-01      1.09888993e-01      
H    -3.37452962e+00     7.38101340e-01      7.39952324e-01      
H    -2.99227752e+00     7.09577951e-01      -7.46465051e-01     
O    -1.61752495e+00     -1.30310397e+00     -5.42415765e+00     
H    -1.70926225e+00     -1.94046482e+00     -6.08228052e+00     
H    -2.40790336e+00     -6.59615358e-01     -5.55056909e+00     
23
3894.140140
N    -2.70930377e-03     -3.44136594e-02     -3.41285270e-02     
H    4.70664808e-01      -2.77629324e-01     8.57777741e-01      
H    -9.96234593e-01     2.34324218e-01      1.36948672e-01      
H    4.75211479e-01      7.66916981e-01      -4.98797097e-01     
C    3.86797958e-02      -1.20478119e+00     -9.31077675e-01     
H    1.07253757e+00      -1.48418764e+00     -1.11619301e+00     
H    -4.71804963e-01     -2.04173561e+00     -4.61085309e-01     
C    -6.43464730e-01     -8.46523027e-01     -2.23564421e+00     
O    -1.16890673e+00     2.30908369e-01      -2.44702660e+00     
O    -5.75065700e-01     -1.86610144e+00     -3.06967736e+00     
H    -1.00243333e+00     -1.61565883e+00     -3.94220113e+00     
O    1.26691683e+00      1.81294708e+00      -1.64223686e+00     
H    1.86209042e+00      2.56504673e+00      -1.55610420e+00     
H    6.80044123e-01      2.02286294e+00      -2.37166100e+00     
O    1.32697694e+00      -1.00129304e+00     2.22906556e+00      
H    9.22425931e-01      -1.34992966e+00     3.02622530e+00      
H    2.25208860e+00      -8.70656424e-01     2.45157534e+00      
O    -2.72241027e+00     3.94288394e-01      1.09597453e-01      
H    -3.37636461e+00     7.39071535e-01      7.41701150e-01      
H    -2.99136531e+00     7.08522245e-01      -7.43579051e-01     
O    -1.61661375e+00     -1.30448376e+00     -5.42457916e+00     
H    -1.70773287e+00     -1.93176311e+00     -6.07302878e+00     
H    -2.42395212e+00     -6.46334161e-01     -5.55304783e+00     
23
3894.140140
N    -2.70509842e-03     -3.44164608e-02     -3.41299553e-02     
H    4.70664436e-01      -2.77625826e-01     8.57789118e-01      
H    -9.96303276e-01     2.34344869e-01      1.36945258e-01      
H    4.75209821e-01      7.66930901e-01      -4.98799876e-01     
C    3.86794997e-02      -1.20478106e+00     -9.31077041e-01     
H    1.07254082e+00      -1.48418433e+00     -1.11619019e+00     
H    -4.71806567e-01     -2.04173094e+00     -4.61084357e-01     
C    -6.43465688e-01     -8.46516898e-01     -2.23563942e+00     
O    -1.16890626e+00     2.30906207e-01      -2.44702857e+00     
O    -5.75065069e-01     -1.86610427e+00     -3.06967827e+00     
H    -1.00237877e+00     -1.61574148e+00     -3.94230132e+00     
O    1.26687628e+00      1.81293081e+00      -1.64226672e+00     
H    1.86238618e+00      2.56542535e+00      -1.55606337e+00     
H    6.80391098e-01      2.02274195e+00      -2.37122694e+00     
O    1.32696797e+00      -1.00129650e+00     2.22906975e+00      
H    9.22471078e-01      -1.34988915e+00     3.02613480e+00      
H    2.25218625e+00      -8.70642122e-01     2.45159931e+00      
O    -2.72235137e+00     3.94293547e-01      1.09305913e-01      
H    -3.37819959e+00     7.40041729e-01      7.43449975e-01      
H    -2.99045310e+00     7.07466540e-01      -7.40693051e-01     
O    -1.61570256e+00     -1.30586356e+00     -5.42500067e+00     
H    -1.70620348e+00     -1.92306140e+00     -6.06377704e+00     
H    -2.44000089e+00     -6.33052963e-01     -5.55552657e+00     
23
3894.140140
N    -2.70089307e-03     -3.44192623e-02     -3.41313836e-02     
H    4.70664064e-01      -2.77622327e-01     8.57800496e-01      
H    -9.96371960e-01     2.34365520e-01      1.36941845e-01      
H    4.75208163e-01      7.66944820e-01      -4.98802655e-01     
C    3.86792036e-02      -1.20478092e+00     -9.31076408e-01     
H    1.07254407e+00      -1.48418101e+00     -1.11618737e+00     
H    -4.71808171e-01     -2.04172627e+00     -4.61083405e-01     
C    -6.43466646e-01     -8.46510769e-01     -2.23563464e+00     
O    -1.16890578e+00     2.30904046e-01      -2.44703053e+00     
O    -5.75064437e-01     -1.86610710e+00     -3.06967918e+00     
H    -1.00232421e+00     -1.61582412e+00     -3.94240151e+00     
O    1.26683574e+00      1.81291454e+00      -1.64229658e+00     
H    1.86268194e+00      2.56580397e+00      -1.55602254e+00     
H    6.80738072e-01      2.02262095e+00      -2.37079288e+00     
O    1.32695899e+00      -1.00129996e+00     2.22907394e+00      
H    9.22516224e-01      -1.34984863e+00     3.02604429e+00      
H    2.25228389e+00      -8.70627821e-01     2.45162328e+00      
O    -2.72229248e+00     3.94298701e-01      1.09014373e-01      
H    -3.38003458e+00     7.41011924e-01      7.45198800e-01      
H    -2.98954089e+00     7.06410834e-01      -7.37807051e-01     
O    -1.61479136e+00     -1.30724335e+00     -5.42542218e+00     
H    -1.70467410e+00     -1.91435969e+00     -6.05452531e+00     
H    -2.45604966e+00     -6.19771765e-01     -5.55800531e+00     
23
3894.140140
N    -2.69248238e-03     -3.44248653e-02     -3.41342403e-02     
H    4.70663321e-01      -2.77615329e-01     8.57823251e-01      
H    -9.96509326e-01     2.34406823e-01      1.36935018e-01      
H    4.75204846e-01      7.66972659e-01      -4.98808212e-01     
C    3.86786114e-02      -1.20478065e+00     -9.31075141e-01     
H    1.07255057e+00      -1.48417437e+00     -1.11618174e+00     
H    -4.71811379e-01     -2.04171693e+00     -4.61081501e-01     
C    -6.43468563e-01     -8.46498510e-01     -2.23562507e+00     
O    -1.16890483e+00     2.30899722e-01      -2.44703446e+00     
O    -5.75063174e-01     -1.86611277e+00     -3.06968100e+00     
H    -1.00221509e+00     -1.61598941e+00     -3.94260189e+00     
O    1.26675464e+00      1.81288201e+00      -1.64235629e+00     
H    1.86327346e+00      2.56656122e+00      -1.55594087e+00     
H    6.81432022e-01      2.02237895e+00      -2.36992475e+00     
O    1.32694104e+00      -1.00130687e+00     2.22908231e+00      
H    9.22606516e-01      -1.34976760e+00     3.02586328e+00      
H    2.25247919e+00      -8.70599217e-01     2.45167123e+00      
O    -2.72217469e+00     3.94309008e-01      1.08431292e-01      
H    -3.38370455e+00     7.42952314e-01      7.48696451e-01      
H    -2.98771647e+00     7.04299423e-01      -7.32035050e-01     
O    -1.61296897e+00     -1.31000294e+00     -5.42626520e+00     
H    -1.70161532e+00     -1.89695628e+00     -6.03602183e+00     
H    -2.48814720e+00     -5.93209370e-01     -5.56296279e+00     
