23
40.405532
N    -1.60905772e-02     -3.93042382e-02     -2.93478812e-02     
H    4.59574863e-01      -2.81510741e-01     8.61571638e-01      
H    -1.00838214e+00     2.32165903e-01      1.40366889e-01      
H    4.65047687e-01      7.60380151e-01      -4.94350391e-01     
C    1.94125174e-02      -1.21183753e+00     -9.23708327e-01     
H    1.05165238e+00      -1.50344094e+00     -1.09981567e+00     
H    -5.04498428e-01     -2.04213288e+00     -4.56587478e-01     
C    -6.47145250e-01     -8.48062430e-01     -2.23487333e+00     
O    -1.13799003e+00     2.43381663e-01      -2.46124807e+00     
O    -6.06916530e-01     -1.87937962e+00     -3.05666749e+00     
H    -1.02106680e+00     -1.62430341e+00     -3.93407025e+00     
O    1.27668634e+00      1.81856444e+00      -1.60710292e+00     
H    1.85898030e+00      2.57622008e+00      -1.50469785e+00     
H    7.02345620e-01      2.02366338e+00      -2.35123528e+00     
O    1.36505156e+00      -9.84716926e-01     2.21288279e+00      
H    9.88179445e-01      -1.39729321e+00     2.99669910e+00      
H    2.27832217e+00      -7.84570698e-01     2.44185509e+00      
O    -2.73898732e+00     3.82760414e-01      8.08298271e-02      
H    -3.39754964e+00     7.05773261e-01      7.02061831e-01      
H    -3.00078654e+00     7.17792489e-01      -7.82247281e-01     
O    -1.62034847e+00     -1.29997623e+00     -5.42150980e+00     
H    -1.75178119e+00     -1.96980971e+00     -6.10124889e+00     
H    -2.31783623e+00     -6.51817172e-01     -5.55680860e+00     
23
40.405532
N    -1.27494642e-02     -3.80787920e-02     -3.05416143e-02     
H    4.62347721e-01      -2.80543886e-01     8.60611786e-01      
H    -1.00527657e+00     2.32684830e-01      1.39515748e-01      
H    4.67590293e-01      7.62000439e-01      -4.95459288e-01     
C    2.42296331e-02      -1.21007358e+00     -9.25551297e-01     
H    1.05687043e+00      -1.49863094e+00     -1.10391282e+00     
H    -4.96323458e-01     -2.04203823e+00     -4.57712887e-01     
C    -6.46224161e-01     -8.47683708e-01     -2.23507084e+00     
O    -1.14571968e+00     2.40265501e-01      -2.45769073e+00     
O    -5.98954454e-01     -1.87605724e+00     -3.05991905e+00     
H    -1.01646300e+00     -1.62205962e+00     -3.93600278e+00     
O    1.27428451e+00      1.81717637e+00      -1.61585655e+00     
H    1.85946207e+00      2.57304812e+00      -1.51759027e+00     
H    6.96423270e-01      2.02358427e+00      -2.35677578e+00     
O    1.35554189e+00      -9.88857495e-01     2.21692429e+00      
H    9.71695920e-01      -1.38549284e+00     3.00417116e+00      
H    2.27166613e+00      -8.06106431e-01     2.44426118e+00      
O    -2.73490195e+00     3.85637256e-01      8.83132739e-02      
H    -3.39041840e+00     7.13127634e-01      7.10222835e-01      
H    -2.99934345e+00     7.16530634e-01      -7.75466223e-01     
O    -1.62032599e+00     -1.29972332e+00     -5.42185563e+00     
H    -1.74229850e+00     -1.96899977e+00     -6.10344560e+00     
H    -2.32831643e+00     -6.63727617e-01     -5.55338967e+00     
23
40.405532
N    -1.10789077e-02     -3.74660689e-02     -3.11384809e-02     
H    4.63734150e-01      -2.80060458e-01     8.60131860e-01      
H    -1.00372379e+00     2.32944294e-01      1.39090178e-01      
H    4.68861596e-01      7.62810583e-01      -4.96013737e-01     
C    2.66381910e-02      -1.20919161e+00     -9.26472782e-01     
H    1.05947945e+00      -1.49622593e+00     -1.10596140e+00     
H    -4.92235972e-01     -2.04199091e+00     -4.58275592e-01     
C    -6.45763617e-01     -8.47494348e-01     -2.23516959e+00     
O    -1.14958450e+00     2.38707420e-01      -2.45591207e+00     
O    -5.94973416e-01     -1.87439605e+00     -3.06154482e+00     
H    -1.01416109e+00     -1.62093772e+00     -3.93696904e+00     
O    1.27308359e+00      1.81648233e+00      -1.62023337e+00     
H    1.85970295e+00      2.57146214e+00      -1.52403648e+00     
H    6.93462096e-01      2.02354472e+00      -2.35954602e+00     
O    1.35078705e+00      -9.90927779e-01     2.21894504e+00      
H    9.63454158e-01      -1.37959265e+00     3.00790718e+00      
H    2.26833811e+00      -8.16874298e-01     2.44546422e+00      
O    -2.73285927e+00     3.87075677e-01      9.20549972e-02      
H    -3.38685278e+00     7.16804821e-01      7.14303337e-01      
H    -2.99862190e+00     7.15899706e-01      -7.72075695e-01     
O    -1.62031475e+00     -1.29959686e+00     -5.42202855e+00     
H    -1.73755715e+00     -1.96859480e+00     -6.10454396e+00     
H    -2.33355654e+00     -6.69682839e-01     -5.55168020e+00     
23
40.405532
N    -9.40835119e-03     -3.68533458e-02     -3.17353475e-02     
H    4.65120579e-01      -2.79577031e-01     8.59651934e-01      
H    -1.00217100e+00     2.33203758e-01      1.38664607e-01      
H    4.70132899e-01      7.63620727e-01      -4.96568186e-01     
C    2.90467489e-02      -1.20830963e+00     -9.27394267e-01     
H    1.06208848e+00      -1.49382093e+00     -1.10800998e+00     
H    -4.88148487e-01     -2.04194358e+00     -4.58838297e-01     
C    -6.45303073e-01     -8.47304987e-01     -2.23526834e+00     
O    -1.15344933e+00     2.37149339e-01      -2.45413340e+00     
O    -5.90992378e-01     -1.87273486e+00     -3.06317060e+00     
H    -1.01185919e+00     -1.61981583e+00     -3.93793531e+00     
O    1.27188268e+00      1.81578829e+00      -1.62461018e+00     
H    1.85994384e+00      2.56987616e+00      -1.53048269e+00     
H    6.90500921e-01      2.02350516e+00      -2.36231627e+00     
O    1.34603221e+00      -9.92998063e-01     2.22096579e+00      
H    9.55212395e-01      -1.37369247e+00     3.01164321e+00      
H    2.26501009e+00      -8.27642164e-01     2.44666726e+00      
O    -2.73081659e+00     3.88514097e-01      9.57967206e-02      
H    -3.38328716e+00     7.20482008e-01      7.18383839e-01      
H    -2.99790035e+00     7.15268779e-01      -7.68685166e-01     
O    -1.62030350e+00     -1.29947040e+00     -5.42220146e+00     
H    -1.73281580e+00     -1.96818982e+00     -6.10564231e+00     
H    -2.33879664e+00     -6.75638062e-01     -5.54997074e+00     
23
40.405532
N    -7.73779468e-03     -3.62406227e-02     -3.23322140e-02     
H    4.66507008e-01      -2.79093603e-01     8.59172008e-01      
H    -1.00061821e+00     2.33463222e-01      1.38239037e-01      
H    4.71404202e-01      7.64430872e-01      -4.97122635e-01     
C    3.14553067e-02      -1.20742766e+00     -9.28315753e-01     
H    1.06469750e+00      -1.49141593e+00     -1.11005856e+00     
H    -4.84061002e-01     -2.04189626e+00     -4.59401002e-01     
C    -6.44842529e-01     -8.47115626e-01     -2.23536709e+00     
O    -1.15731415e+00     2.35591258e-01      -2.45235474e+00     
O    -5.87011340e-01     -1.87107367e+00     -3.06479638e+00     
H    -1.00955729e+00     -1.61869393e+00     -3.93890157e+00     
O    1.27068176e+00      1.81509426e+00      -1.62898700e+00     
H    1.86018472e+00      2.56829019e+00      -1.53692889e+00     
H    6.87539747e-01      2.02346561e+00      -2.36508652e+00     
O    1.34127737e+00      -9.95068347e-01     2.22298654e+00      
H    9.46970633e-01      -1.36779228e+00     3.01537924e+00      
H    2.26168207e+00      -8.38410031e-01     2.44787031e+00      
O    -2.72877390e+00     3.89952518e-01      9.95384439e-02      
H    -3.37972153e+00     7.24159195e-01      7.22464341e-01      
H    -2.99717880e+00     7.14637851e-01      -7.65294637e-01     
O    -1.62029226e+00     -1.29934395e+00     -5.42237438e+00     
H    -1.72807445e+00     -1.96778485e+00     -6.10674067e+00     
H    -2.34403674e+00     -6.81593284e-01     -5.54826127e+00     
23
40.405532
N    -6.06723817e-03     -3.56278996e-02     -3.29290806e-02     
H    4.67893437e-01      -2.78610175e-01     8.58692082e-01      
H    -9.99065429e-01     2.33722685e-01      1.37813467e-01      
H    4.72675506e-01      7.65241016e-01      -4.97677084e-01     
C    3.38638646e-02      -1.20654569e+00     -9.29237238e-01     
H    1.06730652e+00      -1.48901093e+00     -1.11210713e+00     
H    -4.79973517e-01     -2.04184894e+00     -4.59963706e-01     
C    -6.44381985e-01     -8.46926265e-01     -2.23546584e+00     
O    -1.16117898e+00     2.34033177e-01      -2.45057607e+00     
O    -5.83030302e-01     -1.86941248e+00     -3.06642216e+00     
H    -1.00725539e+00     -1.61757204e+00     -3.93986783e+00     
O    1.26948085e+00      1.81440022e+00      -1.63336381e+00     
H    1.86042560e+00      2.56670421e+00      -1.54337510e+00     
H    6.84578572e-01      2.02342605e+00      -2.36785677e+00     
O    1.33652253e+00      -9.97138632e-01     2.22500730e+00      
H    9.38728871e-01      -1.36189210e+00     3.01911527e+00      
H    2.25835405e+00      -8.49177898e-01     2.44907335e+00      
O    -2.72673122e+00     3.91390939e-01      1.03280167e-01      
H    -3.37615591e+00     7.27836382e-01      7.26544844e-01      
H    -2.99645725e+00     7.14006923e-01      -7.61904108e-01     
O    -1.62028102e+00     -1.29921749e+00     -5.42254729e+00     
H    -1.72333311e+00     -1.96737988e+00     -6.10783902e+00     
H    -2.34927684e+00     -6.87548506e-01     -5.54655180e+00     
23
40.405532
N    -5.23195992e-03     -3.53215380e-02     -3.32275139e-02     
H    4.68586652e-01      -2.78368462e-01     8.58452119e-01      
H    -9.98289037e-01     2.33852417e-01      1.37600681e-01      
H    4.73311157e-01      7.65646088e-01      -4.97954309e-01     
C    3.50681435e-02      -1.20610470e+00     -9.29697980e-01     
H    1.06861104e+00      -1.48780842e+00     -1.11313142e+00     
H    -4.77929775e-01     -2.04182527e+00     -4.60245059e-01     
C    -6.44151713e-01     -8.46831584e-01     -2.23551521e+00     
O    -1.16311139e+00     2.33254136e-01      -2.44968674e+00     
O    -5.81039783e-01     -1.86858188e+00     -3.06723505e+00     
H    -1.00610443e+00     -1.61701109e+00     -3.94035097e+00     
O    1.26888039e+00      1.81405320e+00      -1.63555222e+00     
H    1.86054604e+00      2.56591122e+00      -1.54659821e+00     
H    6.83097985e-01      2.02340627e+00      -2.36924189e+00     
O    1.33414511e+00      -9.98173774e-01     2.22601767e+00      
H    9.34607990e-01      -1.35894201e+00     3.02098329e+00      
H    2.25669004e+00      -8.54561831e-01     2.44967487e+00      
O    -2.72570988e+00     3.92110149e-01      1.05151029e-01      
H    -3.37437310e+00     7.29674976e-01      7.28585095e-01      
H    -2.99609647e+00     7.13691459e-01      -7.60208844e-01     
O    -1.62027540e+00     -1.29915426e+00     -5.42263375e+00     
H    -1.72096243e+00     -1.96717740e+00     -6.10838820e+00     
H    -2.35189690e+00     -6.90526118e-01     -5.54569707e+00     
23
40.405532
N    -4.39668166e-03     -3.50151765e-02     -3.35259471e-02     
H    4.69279866e-01      -2.78126748e-01     8.58212156e-01      
H    -9.97512644e-01     2.33982149e-01      1.37387896e-01      
H    4.73946809e-01      7.66051160e-01      -4.98231533e-01     
C    3.62724224e-02      -1.20566371e+00     -9.30158723e-01     
H    1.06991555e+00      -1.48660592e+00     -1.11415571e+00     
H    -4.75886032e-01     -2.04180161e+00     -4.60526411e-01     
C    -6.43921441e-01     -8.46736904e-01     -2.23556459e+00     
O    -1.16504380e+00     2.32475096e-01      -2.44879741e+00     
O    -5.79049264e-01     -1.86775129e+00     -3.06804794e+00     
H    -1.00495348e+00     -1.61645014e+00     -3.94083410e+00     
O    1.26827993e+00      1.81370619e+00      -1.63774063e+00     
H    1.86066649e+00      2.56511823e+00      -1.54982131e+00     
H    6.81617398e-01      2.02338650e+00      -2.37062701e+00     
O    1.33176769e+00      -9.99208916e-01     2.22702805e+00      
H    9.30487108e-01      -1.35599191e+00     3.02285130e+00      
H    2.25502603e+00      -8.59945764e-01     2.45027640e+00      
O    -2.72468853e+00     3.92829359e-01      1.07021891e-01      
H    -3.37259029e+00     7.31513569e-01      7.30625346e-01      
H    -2.99573570e+00     7.13375996e-01      -7.58513580e-01     
O    -1.62026978e+00     -1.29909104e+00     -5.42272021e+00     
H    -1.71859176e+00     -1.96697491e+00     -6.10893738e+00     
H    -2.35451695e+00     -6.93503729e-01     -5.54484234e+00     
23
40.405532
N    -1.05556864e-03     -3.37897303e-02     -3.47196803e-02     
H    4.72052724e-01      -2.77159892e-01     8.57252304e-01      
H    -9.94407074e-01     2.34501077e-01      1.36536756e-01      
H    4.76489415e-01      7.67671448e-01      -4.99340431e-01     
C    4.10895382e-02      -1.20389977e+00     -9.32001693e-01     
H    1.07513359e+00      -1.48179592e+00     -1.11825287e+00     
H    -4.67711062e-01     -2.04170697e+00     -4.61651821e-01     
C    -6.43000353e-01     -8.46358182e-01     -2.23576209e+00     
O    -1.17277346e+00     2.29358934e-01      -2.44524007e+00     
O    -5.71087188e-01     -1.86442891e+00     -3.07129950e+00     
H    -1.00034968e+00     -1.61420636e+00     -3.94276662e+00     
O    1.26587811e+00      1.81231811e+00      -1.64649425e+00     
H    1.86114825e+00      2.56194627e+00      -1.56271373e+00     
H    6.75695048e-01      2.02330738e+00      -2.37616751e+00     
O    1.32225801e+00      -1.00334948e+00     2.23106955e+00      
H    9.14003584e-01      -1.34419155e+00     3.03032336e+00      
H    2.24836999e+00      -8.81481498e-01     2.45268248e+00      
O    -2.72060317e+00     3.95706201e-01      1.14505337e-01      
H    -3.36545905e+00     7.38867943e-01      7.38786350e-01      
H    -2.99429260e+00     7.12114140e-01      -7.51732522e-01     
O    -1.62024730e+00     -1.29883812e+00     -5.42306603e+00     
H    -1.70910906e+00     -1.96616497e+00     -6.11113408e+00     
H    -2.36499715e+00     -7.05414173e-01     -5.54142340e+00     
23
40.405532
N    -2.20290384e-04     -3.34833688e-02     -3.50181135e-02     
H    4.72745938e-01      -2.76918178e-01     8.57012341e-01      
H    -9.93630681e-01     2.34630809e-01      1.36323971e-01      
H    4.77125067e-01      7.68076520e-01      -4.99617655e-01     
C    4.22938171e-02      -1.20345878e+00     -9.32462436e-01     
H    1.07643810e+00      -1.48059342e+00     -1.11927716e+00     
H    -4.65667319e-01     -2.04168331e+00     -4.61933173e-01     
C    -6.42770081e-01     -8.46263502e-01     -2.23581147e+00     
O    -1.17470587e+00     2.28579894e-01      -2.44435074e+00     
O    -5.69096669e-01     -1.86359832e+00     -3.07211239e+00     
H    -9.99198726e-01     -1.61364541e+00     -3.94324975e+00     
O    1.26527765e+00      1.81197110e+00      -1.64868266e+00     
H    1.86126870e+00      2.56115328e+00      -1.56593683e+00     
H    6.74214461e-01      2.02328761e+00      -2.37755263e+00     
O    1.31988059e+00      -1.00438463e+00     2.23207993e+00      
H    9.09882702e-01      -1.34124145e+00     3.03219137e+00      
H    2.24670598e+00      -8.86865431e-01     2.45328401e+00      
O    -2.71958182e+00     3.96425411e-01      1.16376199e-01      
H    -3.36367624e+00     7.40706536e-01      7.40826601e-01      
H    -2.99393183e+00     7.11798677e-01      -7.50037258e-01     
O    -1.62024168e+00     -1.29877490e+00     -5.42315249e+00     
H    -1.70673839e+00     -1.96596248e+00     -6.11168326e+00     
H    -2.36761720e+00     -7.08391784e-01     -5.54056867e+00     
23
40.405532
N    6.14987871e-04      -3.31770072e-02     -3.53165468e-02     
H    4.73439153e-01      -2.76676465e-01     8.56772378e-01      
H    -9.92854289e-01     2.34760541e-01      1.36111185e-01      
H    4.77760718e-01      7.68481592e-01      -4.99894880e-01     
C    4.34980960e-02      -1.20301779e+00     -9.32923178e-01     
H    1.07774262e+00      -1.47939091e+00     -1.12030145e+00     
H    -4.63623577e-01     -2.04165964e+00     -4.62214526e-01     
C    -6.42539809e-01     -8.46168821e-01     -2.23586084e+00     
O    -1.17663828e+00     2.27800853e-01      -2.44346141e+00     
O    -5.67106150e-01     -1.86276772e+00     -3.07292528e+00     
H    -9.98047775e-01     -1.61308446e+00     -3.94373289e+00     
O    1.26467719e+00      1.81162408e+00      -1.65087107e+00     
H    1.86138914e+00      2.56036029e+00      -1.56915994e+00     
H    6.72733874e-01      2.02326783e+00      -2.37893775e+00     
O    1.31750317e+00      -1.00541977e+00     2.23309030e+00      
H    9.05761821e-01      -1.33829136e+00     3.03405939e+00      
H    2.24504197e+00      -8.92249364e-01     2.45388553e+00      
O    -2.71856048e+00     3.97144621e-01      1.18247061e-01      
H    -3.36189343e+00     7.42545130e-01      7.42866852e-01      
H    -2.99357105e+00     7.11483213e-01      -7.48341994e-01     
O    -1.62023606e+00     -1.29871167e+00     -5.42323895e+00     
H    -1.70436771e+00     -1.96576000e+00     -6.11223244e+00     
H    -2.37023726e+00     -7.11369396e-01     -5.53971394e+00     
23
40.405532
N    2.28554438e-03      -3.25642841e-02     -3.59134134e-02     
H    4.74825582e-01      -2.76193037e-01     8.56292452e-01      
H    -9.91301503e-01     2.35020004e-01      1.35685615e-01      
H    4.79032022e-01      7.69291736e-01      -5.00449329e-01     
C    4.59066539e-02      -1.20213582e+00     -9.33844663e-01     
H    1.08035164e+00      -1.47698591e+00     -1.12235002e+00     
H    -4.59536092e-01     -2.04161232e+00     -4.62777230e-01     
C    -6.42079265e-01     -8.45979460e-01     -2.23595959e+00     
O    -1.18050311e+00     2.26242772e-01      -2.44168274e+00     
O    -5.63125112e-01     -1.86110653e+00     -3.07455106e+00     
H    -9.95745872e-01     -1.61196257e+00     -3.94469915e+00     
O    1.26347628e+00      1.81093004e+00      -1.65524788e+00     
H    1.86163002e+00      2.55877431e+00      -1.57560615e+00     
H    6.69772699e-01      2.02322827e+00      -2.38170800e+00     
O    1.31274833e+00      -1.00749005e+00     2.23511106e+00      
H    8.97520059e-01      -1.33239118e+00     3.03779542e+00      
H    2.24171395e+00      -9.03017231e-01     2.45508857e+00      
O    -2.71651780e+00     3.98583042e-01      1.21988784e-01      
H    -3.35832781e+00     7.46222317e-01      7.46947355e-01      
H    -2.99284950e+00     7.10852285e-01      -7.44951465e-01     
O    -1.62022482e+00     -1.29858521e+00     -5.42341186e+00     
H    -1.69962637e+00     -1.96535503e+00     -6.11333079e+00     
H    -2.37547736e+00     -7.17324618e-01     -5.53800447e+00     
23
40.405532
N    3.95610089e-03      -3.19515610e-02     -3.65102799e-02     
H    4.76212011e-01      -2.75709609e-01     8.55812526e-01      
H    -9.89748718e-01     2.35279468e-01      1.35260045e-01      
H    4.80303325e-01      7.70101881e-01      -5.01003778e-01     
C    4.83152117e-02      -1.20125385e+00     -9.34766149e-01     
H    1.08296066e+00      -1.47458091e+00     -1.12439860e+00     
H    -4.55448607e-01     -2.04156500e+00     -4.63339935e-01     
C    -6.41618721e-01     -8.45790099e-01     -2.23605834e+00     
O    -1.18436793e+00     2.24684691e-01      -2.43990408e+00     
O    -5.59144074e-01     -1.85944534e+00     -3.07617684e+00     
H    -9.93443969e-01     -1.61084067e+00     -3.94566541e+00     
O    1.26227536e+00      1.81023601e+00      -1.65962470e+00     
H    1.86187090e+00      2.55718834e+00      -1.58205235e+00     
H    6.66811525e-01      2.02318872e+00      -2.38447825e+00     
O    1.30799349e+00      -1.00956034e+00     2.23713181e+00      
H    8.89278297e-01      -1.32649099e+00     3.04153145e+00      
H    2.23838593e+00      -9.13785098e-01     2.45629162e+00      
O    -2.71447511e+00     4.00021463e-01      1.25730507e-01      
H    -3.35476218e+00     7.49899504e-01      7.51027857e-01      
H    -2.99212795e+00     7.10221357e-01      -7.41560936e-01     
O    -1.62021358e+00     -1.29845876e+00     -5.42358478e+00     
H    -1.69488502e+00     -1.96495006e+00     -6.11442915e+00     
H    -2.38071746e+00     -7.23279840e-01     -5.53629500e+00     
23
40.405532
N    5.62665740e-03      -3.13388379e-02     -3.71071465e-02     
H    4.77598440e-01      -2.75226182e-01     8.55332600e-01      
H    -9.88195933e-01     2.35538932e-01      1.34834474e-01      
H    4.81574628e-01      7.70912025e-01      -5.01558227e-01     
C    5.07237696e-02      -1.20037187e+00     -9.35687634e-01     
H    1.08556969e+00      -1.47217591e+00     -1.12644718e+00     
H    -4.51361122e-01     -2.04151767e+00     -4.63902640e-01     
C    -6.41158177e-01     -8.45600738e-01     -2.23615709e+00     
O    -1.18823276e+00     2.23126610e-01      -2.43812541e+00     
O    -5.55163036e-01     -1.85778415e+00     -3.07780262e+00     
H    -9.91142066e-01     -1.60971878e+00     -3.94663168e+00     
O    1.26107445e+00      1.80954197e+00      -1.66400151e+00     
H    1.86211179e+00      2.55560236e+00      -1.58849856e+00     
H    6.63850350e-01      2.02314916e+00      -2.38724850e+00     
O    1.30323865e+00      -1.01163062e+00     2.23915256e+00      
H    8.81036534e-01      -1.32059081e+00     3.04526748e+00      
H    2.23505791e+00      -9.24552964e-01     2.45749466e+00      
O    -2.71243243e+00     4.01459883e-01      1.29472231e-01      
H    -3.35119656e+00     7.53576691e-01      7.55108359e-01      
H    -2.99140640e+00     7.09590430e-01      -7.38170407e-01     
O    -1.62020233e+00     -1.29833230e+00     -5.42375769e+00     
H    -1.69014367e+00     -1.96454508e+00     -6.11552750e+00     
H    -2.38595756e+00     -7.29235063e-01     -5.53458554e+00     
23
40.405532
N    7.29721391e-03      -3.07261148e-02     -3.77040131e-02     
H    4.78984869e-01      -2.74742754e-01     8.54852674e-01      
H    -9.86643148e-01     2.35798396e-01      1.34408904e-01      
H    4.82845931e-01      7.71722169e-01      -5.02112676e-01     
C    5.31323275e-02      -1.19948990e+00     -9.36609119e-01     
H    1.08817871e+00      -1.46977090e+00     -1.12849576e+00     
H    -4.47273636e-01     -2.04147035e+00     -4.64465345e-01     
C    -6.40697633e-01     -8.45411378e-01     -2.23625584e+00     
O    -1.19209758e+00     2.21568529e-01      -2.43634675e+00     
O    -5.51181998e-01     -1.85612296e+00     -3.07942839e+00     
H    -9.88840164e-01     -1.60859688e+00     -3.94759794e+00     
O    1.25987353e+00      1.80884793e+00      -1.66837833e+00     
H    1.86235267e+00      2.55401638e+00      -1.59494477e+00     
H    6.60889176e-01      2.02310961e+00      -2.39001874e+00     
O    1.29848381e+00      -1.01370091e+00     2.24117331e+00      
H    8.72794772e-01      -1.31469062e+00     3.04900350e+00      
H    2.23172989e+00      -9.35320831e-01     2.45869770e+00      
O    -2.71038975e+00     4.02898304e-01      1.33213954e-01      
H    -3.34763094e+00     7.57253878e-01      7.59188861e-01      
H    -2.99068485e+00     7.08959502e-01      -7.34779879e-01     
O    -1.62019109e+00     -1.29820584e+00     -5.42393061e+00     
H    -1.68540232e+00     -1.96414011e+00     -6.11662586e+00     
H    -2.39119767e+00     -7.35190285e-01     -5.53287607e+00     
23
40.405532
N    1.06383269e-02      -2.95006686e-02     -3.88977462e-02     
H    4.81757727e-01      -2.73775899e-01     8.53892822e-01      
H    -9.83537577e-01     2.36317323e-01      1.33557763e-01      
H    4.85388537e-01      7.73342457e-01      -5.03221573e-01     
C    5.79494432e-02      -1.19772595e+00     -9.38452089e-01     
H    1.09339676e+00      -1.46496090e+00     -1.13259291e+00     
H    -4.39098666e-01     -2.04137570e+00     -4.65590754e-01     
C    -6.39776544e-01     -8.45032656e-01     -2.23645335e+00     
O    -1.19982723e+00     2.18452367e-01      -2.43278941e+00     
O    -5.43219922e-01     -1.85280058e+00     -3.08267995e+00     
H    -9.84236358e-01     -1.60635309e+00     -3.94953047e+00     
O    1.25747170e+00      1.80745986e+00      -1.67713196e+00     
H    1.86283444e+00      2.55084442e+00      -1.60783719e+00     
H    6.54966826e-01      2.02303050e+00      -2.39555924e+00     
O    1.28897414e+00      -1.01784147e+00     2.24521481e+00      
H    8.56311247e-01      -1.30289025e+00     3.05647556e+00      
H    2.22507385e+00      -9.56856564e-01     2.46110379e+00      
O    -2.70630438e+00     4.05775146e-01      1.40697401e-01      
H    -3.34049970e+00     7.64608251e-01      7.67349865e-01      
H    -2.98924176e+00     7.07697647e-01      -7.27998821e-01     
O    -1.62016861e+00     -1.29795293e+00     -5.42427644e+00     
H    -1.67591963e+00     -1.96333017e+00     -6.11882257e+00     
H    -2.40167787e+00     -7.47100730e-01     -5.52945714e+00     
