23
53.343171
N    -4.00029416e-03     -1.78314660e-02     -2.98495215e-02     
H    4.70345044e-01      -2.66150636e-01     8.59958251e-01      
H    -9.97087248e-01     2.47750549e-01      1.44620098e-01      
H    4.76946514e-01      7.82165067e-01      -4.92973416e-01     
C    3.35744120e-02      -1.18537968e+00     -9.30833279e-01     
H    1.06675802e+00      -1.46521254e+00     -1.11935027e+00     
H    -4.77150720e-01     -2.02281054e+00     -4.61848521e-01     
C    -6.51077635e-01     -8.22403294e-01     -2.23302397e+00     
O    -1.17141264e+00     2.57745540e-01      -2.44215711e+00     
O    -5.89475775e-01     -1.84327925e+00     -3.06624510e+00     
H    -1.01553144e+00     -1.59693994e+00     -3.94007753e+00     
O    1.30094696e+00      1.79698626e+00      -1.64674160e+00     
H    1.90864484e+00      2.53666268e+00      -1.56133670e+00     
H    7.17186958e-01      2.01791775e+00      -2.37886795e+00     
O    1.32446253e+00      -1.00457685e+00     2.22575567e+00      
H    9.18841489e-01      -1.35034458e+00     3.02418989e+00      
H    2.25172357e+00      -8.86001496e-01     2.44452284e+00      
O    -2.73183445e+00     3.55688273e-01      1.22143022e-01      
H    -3.38288358e+00     6.74056238e-01      7.53701294e-01      
H    -3.01329825e+00     6.83973717e-01      -7.37383280e-01     
O    -1.61857601e+00     -1.32676127e+00     -5.43887893e+00     
H    -1.63698704e+00     -2.01135315e+00     -6.11965867e+00     
H    -2.40395843e+00     -7.89993738e-01     -5.59041858e+00     
23
53.343171
N    -3.68175191e-03     -2.19742129e-02     -3.09178446e-02     
H    4.70425357e-01      -2.69023807e-01     8.59401746e-01      
H    -9.96805401e-01     2.44373315e-01      1.42705655e-01      
H    4.76514413e-01      7.78339126e-01      -4.94426558e-01     
C    3.48510541e-02      -1.19023019e+00     -9.30895011e-01     
H    1.06819966e+00      -1.46995963e+00     -1.11856377e+00     
H    -4.75812677e-01     -2.02754648e+00     -4.61658670e-01     
C    -6.49173450e-01     -8.28439356e-01     -2.23368381e+00     
O    -1.17078664e+00     2.51038408e-01      -2.44337252e+00     
O    -5.85873888e-01     -1.84898196e+00     -3.06710225e+00     
H    -1.01231148e+00     -1.60153702e+00     -3.94050824e+00     
O    1.29247997e+00      1.80099273e+00      -1.64558556e+00     
H    1.89671048e+00      2.54338008e+00      -1.56006941e+00     
H    7.07554275e-01      2.01927505e+00      -2.37750028e+00     
O    1.32510011e+00      -1.00375244e+00     2.22657895e+00      
H    9.19692454e-01      -1.35028137e+00     3.02478925e+00      
H    2.25171718e+00      -8.82179530e-01     2.44626199e+00      
O    -2.72953730e+00     3.65333150e-01      1.19298170e-01      
H    -3.37941885e+00     6.89339868e-01      7.48952432e-01      
H    -3.00872723e+00     6.91166555e-01      -7.41818223e-01     
O    -1.61899664e+00     -1.31981210e+00     -5.43488248e+00     
H    -1.65620288e+00     -2.00015735e+00     -6.11725294e+00     
H    -2.39290808e+00     -7.67360041e-01     -5.57859715e+00     
23
53.343171
N    -3.52248078e-03     -2.40455863e-02     -3.14520061e-02     
H    4.70465513e-01      -2.70460392e-01     8.59123493e-01      
H    -9.96664477e-01     2.42684698e-01      1.41748434e-01      
H    4.76298363e-01      7.76426156e-01      -4.95153128e-01     
C    3.54893751e-02      -1.19265545e+00     -9.30925877e-01     
H    1.06892048e+00      -1.47233318e+00     -1.11817052e+00     
H    -4.75143655e-01     -2.02991444e+00     -4.61563744e-01     
C    -6.48221358e-01     -8.31457388e-01     -2.23401373e+00     
O    -1.17047364e+00     2.47684843e-01      -2.44398022e+00     
O    -5.84072944e-01     -1.85183332e+00     -3.06753083e+00     
H    -1.01070150e+00     -1.60383555e+00     -3.94072359e+00     
O    1.28824648e+00      1.80299597e+00      -1.64500754e+00     
H    1.89074329e+00      2.54673877e+00      -1.55943576e+00     
H    7.02737933e-01      2.01995370e+00      -2.37681644e+00     
O    1.32541890e+00      -1.00334023e+00     2.22699059e+00      
H    9.20117936e-01      -1.35024976e+00     3.02508893e+00      
H    2.25171399e+00      -8.80268547e-01     2.44713156e+00      
O    -2.72838872e+00     3.70155588e-01      1.17875744e-01      
H    -3.37768649e+00     6.96981683e-01      7.46578002e-01      
H    -3.00644171e+00     6.94762974e-01      -7.44035694e-01     
O    -1.61920696e+00     -1.31633751e+00     -5.43288425e+00     
H    -1.66581080e+00     -1.99455945e+00     -6.11605007e+00     
H    -2.38738291e+00     -7.56043193e-01     -5.57268644e+00     
23
53.343171
N    -3.36320965e-03     -2.61169597e-02     -3.19861676e-02     
H    4.70505669e-01      -2.71896978e-01     8.58845240e-01      
H    -9.96523554e-01     2.40996081e-01      1.40791212e-01      
H    4.76082313e-01      7.74513185e-01      -4.95879699e-01     
C    3.61276961e-02      -1.19508071e+00     -9.30956743e-01     
H    1.06964130e+00      -1.47470673e+00     -1.11777728e+00     
H    -4.74474634e-01     -2.03228241e+00     -4.61468819e-01     
C    -6.47269266e-01     -8.34475419e-01     -2.23434365e+00     
O    -1.17016064e+00     2.44331277e-01      -2.44458793e+00     
O    -5.82272001e-01     -1.85468468e+00     -3.06795941e+00     
H    -1.00909151e+00     -1.60613409e+00     -3.94093895e+00     
O    1.28401299e+00      1.80499921e+00      -1.64442952e+00     
H    1.88477611e+00      2.55009747e+00      -1.55880211e+00     
H    6.97921591e-01      2.02063235e+00      -2.37613261e+00     
O    1.32573769e+00      -1.00292802e+00     2.22740223e+00      
H    9.20543418e-01      -1.35021816e+00     3.02538861e+00      
H    2.25171079e+00      -8.78357563e-01     2.44800114e+00      
O    -2.72724015e+00     3.74978027e-01      1.16453318e-01      
H    -3.37595412e+00     7.04623497e-01      7.44203571e-01      
H    -3.00415620e+00     6.98359393e-01      -7.46253166e-01     
O    -1.61941728e+00     -1.31286292e+00     -5.43088603e+00     
H    -1.67541873e+00     -1.98896155e+00     -6.11484720e+00     
H    -2.38185774e+00     -7.44726344e-01     -5.56677573e+00     
23
53.343171
N    -3.20393853e-03     -2.81883331e-02     -3.25203291e-02     
H    4.70545826e-01      -2.73333563e-01     8.58566988e-01      
H    -9.96382630e-01     2.39307464e-01      1.39833991e-01      
H    4.75866263e-01      7.72600215e-01      -4.96606270e-01     
C    3.67660172e-02      -1.19750597e+00     -9.30987610e-01     
H    1.07036212e+00      -1.47708028e+00     -1.11738403e+00     
H    -4.73805612e-01     -2.03465038e+00     -4.61373893e-01     
C    -6.46317174e-01     -8.37493450e-01     -2.23467357e+00     
O    -1.16984763e+00     2.40977712e-01      -2.44519563e+00     
O    -5.80471057e-01     -1.85753603e+00     -3.06838799e+00     
H    -1.00748153e+00     -1.60843263e+00     -3.94115430e+00     
O    1.27977950e+00      1.80700244e+00      -1.64385150e+00     
H    1.87880892e+00      2.55345616e+00      -1.55816846e+00     
H    6.93105249e-01      2.02131099e+00      -2.37544877e+00     
O    1.32605648e+00      -1.00251582e+00     2.22781388e+00      
H    9.20968900e-01      -1.35018655e+00     3.02568829e+00      
H    2.25170760e+00      -8.76446580e-01     2.44887071e+00      
O    -2.72609157e+00     3.79800465e-01      1.15030892e-01      
H    -3.37422176e+00     7.12265312e-01      7.41829140e-01      
H    -3.00187069e+00     7.01955811e-01      -7.48470637e-01     
O    -1.61962759e+00     -1.30938834e+00     -5.42888780e+00     
H    -1.68502665e+00     -1.98336365e+00     -6.11364433e+00     
H    -2.37633257e+00     -7.33409496e-01     -5.56086501e+00     
23
53.343171
N    -3.04466740e-03     -3.02597066e-02     -3.30544907e-02     
H    4.70585982e-01      -2.74770149e-01     8.58288735e-01      
H    -9.96241706e-01     2.37618847e-01      1.38876769e-01      
H    4.75650212e-01      7.70687245e-01      -4.97332841e-01     
C    3.74043382e-02      -1.19993122e+00     -9.31018476e-01     
H    1.07108293e+00      -1.47945382e+00     -1.11699078e+00     
H    -4.73136590e-01     -2.03701835e+00     -4.61278967e-01     
C    -6.45365081e-01     -8.40511481e-01     -2.23500350e+00     
O    -1.16953463e+00     2.37624146e-01      -2.44580333e+00     
O    -5.78670113e-01     -1.86038739e+00     -3.06881656e+00     
H    -1.00587155e+00     -1.61073117e+00     -3.94136965e+00     
O    1.27554600e+00      1.80900568e+00      -1.64327348e+00     
H    1.87284174e+00      2.55681486e+00      -1.55753482e+00     
H    6.88288907e-01      2.02198964e+00      -2.37476493e+00     
O    1.32637527e+00      -1.00210361e+00     2.22822552e+00      
H    9.21394382e-01      -1.35015494e+00     3.02598797e+00      
H    2.25170440e+00      -8.74535597e-01     2.44974029e+00      
O    -2.72494300e+00     3.84622903e-01      1.13608466e-01      
H    -3.37248940e+00     7.19907127e-01      7.39454709e-01      
H    -2.99958518e+00     7.05552230e-01      -7.50688108e-01     
O    -1.61983791e+00     -1.30591375e+00     -5.42688957e+00     
H    -1.69463457e+00     -1.97776574e+00     -6.11244147e+00     
H    -2.37080739e+00     -7.22092648e-01     -5.55495430e+00     
23
53.343171
N    -2.96503184e-03     -3.12953933e-02     -3.33215714e-02     
H    4.70606060e-01      -2.75488442e-01     8.58149609e-01      
H    -9.96171244e-01     2.36774538e-01      1.38398158e-01      
H    4.75542187e-01      7.69730760e-01      -4.97696126e-01     
C    3.77234987e-02      -1.20114385e+00     -9.31033909e-01     
H    1.07144334e+00      -1.48064060e+00     -1.11679416e+00     
H    -4.72802080e-01     -2.03820234e+00     -4.61231504e-01     
C    -6.44889035e-01     -8.42020496e-01     -2.23516846e+00     
O    -1.16937813e+00     2.35947363e-01      -2.44610718e+00     
O    -5.77769641e-01     -1.86181307e+00     -3.06903085e+00     
H    -1.00506655e+00     -1.61188044e+00     -3.94147733e+00     
O    1.27342926e+00      1.81000730e+00      -1.64298447e+00     
H    1.86985815e+00      2.55849421e+00      -1.55721799e+00     
H    6.85880736e-01      2.02232897e+00      -2.37442302e+00     
O    1.32653467e+00      -1.00189751e+00     2.22843134e+00      
H    9.21607123e-01      -1.35013914e+00     3.02613781e+00      
H    2.25170280e+00      -8.73580106e-01     2.45017508e+00      
O    -2.72436871e+00     3.87034122e-01      1.12897253e-01      
H    -3.37162322e+00     7.23728034e-01      7.38267494e-01      
H    -2.99844242e+00     7.07350440e-01      -7.51796844e-01     
O    -1.61994307e+00     -1.30417646e+00     -5.42589046e+00     
H    -1.69943853e+00     -1.97496679e+00     -6.11184003e+00     
H    -2.36804481e+00     -7.16434224e-01     -5.55199894e+00     
23
53.343171
N    -2.88539628e-03     -3.23310800e-02     -3.35886522e-02     
H    4.70626139e-01      -2.76206734e-01     8.58010483e-01      
H    -9.96100783e-01     2.35930230e-01      1.37919548e-01      
H    4.75434162e-01      7.68774274e-01      -4.98059411e-01     
C    3.80426593e-02      -1.20235648e+00     -9.31049342e-01     
H    1.07180375e+00      -1.48182737e+00     -1.11659754e+00     
H    -4.72467569e-01     -2.03938632e+00     -4.61184042e-01     
C    -6.44412989e-01     -8.43529512e-01     -2.23533342e+00     
O    -1.16922163e+00     2.34270581e-01      -2.44641104e+00     
O    -5.76869170e-01     -1.86323874e+00     -3.06924514e+00     
H    -1.00426156e+00     -1.61302971e+00     -3.94158501e+00     
O    1.27131251e+00      1.81100891e+00      -1.64269546e+00     
H    1.86687455e+00      2.56017355e+00      -1.55690117e+00     
H    6.83472565e-01      2.02266829e+00      -2.37408110e+00     
O    1.32669406e+00      -1.00169141e+00     2.22863716e+00      
H    9.21819864e-01      -1.35012334e+00     3.02628765e+00      
H    2.25170121e+00      -8.72624614e-01     2.45060986e+00      
O    -2.72379442e+00     3.89445342e-01      1.12186040e-01      
H    -3.37075703e+00     7.27548941e-01      7.37080279e-01      
H    -2.99729966e+00     7.09148649e-01      -7.52905580e-01     
O    -1.62004822e+00     -1.30243917e+00     -5.42489135e+00     
H    -1.70424249e+00     -1.97216784e+00     -6.11123860e+00     
H    -2.36528222e+00     -7.10775799e-01     -5.54904358e+00     
23
53.343171
N    -2.56685402e-03     -3.64738268e-02     -3.46569752e-02     
H    4.70706451e-01      -2.79079906e-01     8.57453977e-01      
H    -9.95818935e-01     2.32552996e-01      1.36005104e-01      
H    4.75002062e-01      7.64948334e-01      -4.99512553e-01     
C    3.93193013e-02      -1.20720700e+00     -9.31111074e-01     
H    1.07324539e+00      -1.48657447e+00     -1.11581104e+00     
H    -4.71129525e-01     -2.04412226e+00     -4.60994190e-01     
C    -6.42508805e-01     -8.49565574e-01     -2.23599326e+00     
O    -1.16859563e+00     2.27563449e-01      -2.44762644e+00     
O    -5.73267282e-01     -1.86894146e+00     -3.07010230e+00     
H    -1.00104160e+00     -1.61762679e+00     -3.94201571e+00     
O    1.26284553e+00      1.81501539e+00      -1.64153942e+00     
H    1.85494019e+00      2.56689095e+00      -1.55563387e+00     
H    6.73839881e-01      2.02402559e+00      -2.37271342e+00     
O    1.32733164e+00      -1.00086699e+00     2.22946044e+00      
H    9.22670828e-01      -1.35006012e+00     3.02688701e+00      
H    2.25169481e+00      -8.68802648e-01     2.45234902e+00      
O    -2.72149728e+00     3.99090218e-01      1.09341188e-01      
H    -3.36729231e+00     7.42832571e-01      7.32331417e-01      
H    -2.99272864e+00     7.16341487e-01      -7.57340522e-01     
O    -1.62046886e+00     -1.29548999e+00     -5.42089489e+00     
H    -1.72345833e+00     -1.96097204e+00     -6.10883286e+00     
H    -2.35423188e+00     -6.88142103e-01     -5.53722216e+00     
23
53.343171
N    -2.48721846e-03     -3.75095135e-02     -3.49240560e-02     
H    4.70726530e-01      -2.79798198e-01     8.57314851e-01      
H    -9.95748474e-01     2.31708688e-01      1.35526494e-01      
H    4.74894037e-01      7.63991848e-01      -4.99875838e-01     
C    3.96384619e-02      -1.20841963e+00     -9.31126507e-01     
H    1.07360580e+00      -1.48776124e+00     -1.11561442e+00     
H    -4.70795014e-01     -2.04530624e+00     -4.60946728e-01     
C    -6.42032759e-01     -8.51074590e-01     -2.23615822e+00     
O    -1.16843913e+00     2.25886667e-01      -2.44793030e+00     
O    -5.72366811e-01     -1.87036713e+00     -3.07031659e+00     
H    -1.00023661e+00     -1.61877606e+00     -3.94212339e+00     
O    1.26072878e+00      1.81601700e+00      -1.64125041e+00     
H    1.85195659e+00      2.56857029e+00      -1.55531705e+00     
H    6.71431710e-01      2.02436491e+00      -2.37237150e+00     
O    1.32749103e+00      -1.00066089e+00     2.22966626e+00      
H    9.22883569e-01      -1.35004432e+00     3.02703685e+00      
H    2.25169322e+00      -8.67847156e-01     2.45278380e+00      
O    -2.72092299e+00     4.01501438e-01      1.08629975e-01      
H    -3.36642612e+00     7.46653478e-01      7.31144202e-01      
H    -2.99158588e+00     7.18139696e-01      -7.58449258e-01     
O    -1.62057401e+00     -1.29375270e+00     -5.41989578e+00     
H    -1.72826229e+00     -1.95817309e+00     -6.10823143e+00     
H    -2.35146929e+00     -6.82483678e-01     -5.53426680e+00     
23
53.343171
N    -2.40758290e-03     -3.85452002e-02     -3.51911367e-02     
H    4.70746608e-01      -2.80516491e-01     8.57175725e-01      
H    -9.95678012e-01     2.30864379e-01      1.35047883e-01      
H    4.74786012e-01      7.63035363e-01      -5.00239123e-01     
C    3.99576224e-02      -1.20963226e+00     -9.31141940e-01     
H    1.07396621e+00      -1.48894802e+00     -1.11541780e+00     
H    -4.70460504e-01     -2.04649023e+00     -4.60899265e-01     
C    -6.41556713e-01     -8.52583605e-01     -2.23632318e+00     
O    -1.16828263e+00     2.24209884e-01      -2.44823415e+00     
O    -5.71466339e-01     -1.87179281e+00     -3.07053088e+00     
H    -9.99431614e-01     -1.61992533e+00     -3.94223107e+00     
O    1.25861204e+00      1.81701862e+00      -1.64096140e+00     
H    1.84897300e+00      2.57024964e+00      -1.55500022e+00     
H    6.69023539e-01      2.02470424e+00      -2.37202959e+00     
O    1.32765043e+00      -1.00045479e+00     2.22987208e+00      
H    9.23096310e-01      -1.35002852e+00     3.02718669e+00      
H    2.25169162e+00      -8.66891665e-01     2.45321859e+00      
O    -2.72034870e+00     4.03912657e-01      1.07918762e-01      
H    -3.36555994e+00     7.50474385e-01      7.29956987e-01      
H    -2.99044312e+00     7.19937906e-01      -7.59557994e-01     
O    -1.62067917e+00     -1.29201541e+00     -5.41889667e+00     
H    -1.73306625e+00     -1.95537414e+00     -6.10762999e+00     
H    -2.34870671e+00     -6.76825254e-01     -5.53131144e+00     
23
53.343171
N    -2.24831177e-03     -4.06165737e-02     -3.57252983e-02     
H    4.70786764e-01      -2.81953077e-01     8.56897472e-01      
H    -9.95537088e-01     2.29175762e-01      1.34090661e-01      
H    4.74569961e-01      7.61122393e-01      -5.00965694e-01     
C    4.05959434e-02      -1.21205751e+00     -9.31172806e-01     
H    1.07468702e+00      -1.49132156e+00     -1.11502455e+00     
H    -4.69791482e-01     -2.04885820e+00     -4.60804339e-01     
C    -6.40604620e-01     -8.55601636e-01     -2.23665311e+00     
O    -1.16796963e+00     2.20856318e-01      -2.44884185e+00     
O    -5.69665395e-01     -1.87464417e+00     -3.07095945e+00     
H    -9.97821631e-01     -1.62222387e+00     -3.94244642e+00     
O    1.25437854e+00      1.81902186e+00      -1.64038338e+00     
H    1.84300582e+00      2.57360834e+00      -1.55436658e+00     
H    6.64207197e-01      2.02538289e+00      -2.37134575e+00     
O    1.32796922e+00      -1.00004258e+00     2.23028372e+00      
H    9.23521792e-01      -1.34999691e+00     3.02748637e+00      
H    2.25168842e+00      -8.64980682e-01     2.45408817e+00      
O    -2.71920013e+00     4.08735095e-01      1.06496336e-01      
H    -3.36382758e+00     7.58116200e-01      7.27582556e-01      
H    -2.98815761e+00     7.23534325e-01      -7.61775465e-01     
O    -1.62088949e+00     -1.28854082e+00     -5.41689844e+00     
H    -1.74267417e+00     -1.94977623e+00     -6.10642713e+00     
H    -2.34318153e+00     -6.65508406e-01     -5.52540073e+00     
23
53.343171
N    -2.08904065e-03     -4.26879471e-02     -3.62594598e-02     
H    4.70826921e-01      -2.83389662e-01     8.56619220e-01      
H    -9.95396164e-01     2.27487145e-01      1.33133440e-01      
H    4.74353911e-01      7.59209423e-01      -5.01692265e-01     
C    4.12342645e-02      -1.21448277e+00     -9.31203673e-01     
H    1.07540784e+00      -1.49369511e+00     -1.11463130e+00     
H    -4.69122460e-01     -2.05122617e+00     -4.60709413e-01     
C    -6.39652528e-01     -8.58619667e-01     -2.23698303e+00     
O    -1.16765662e+00     2.17502753e-01      -2.44944955e+00     
O    -5.67864451e-01     -1.87749552e+00     -3.07138803e+00     
H    -9.96211648e-01     -1.62452241e+00     -3.94266177e+00     
O    1.25014505e+00      1.82102509e+00      -1.63980536e+00     
H    1.83703863e+00      2.57696703e+00      -1.55373293e+00     
H    6.59390855e-01      2.02606153e+00      -2.37066191e+00     
O    1.32828801e+00      -9.99630376e-01     2.23069537e+00      
H    9.23947274e-01      -1.34996530e+00     3.02778605e+00      
H    2.25168523e+00      -8.63069699e-01     2.45495774e+00      
O    -2.71805155e+00     4.13557533e-01      1.05073910e-01      
H    -3.36209522e+00     7.65758015e-01      7.25208125e-01      
H    -2.98587210e+00     7.27130743e-01      -7.63992936e-01     
O    -1.62109980e+00     -1.28506624e+00     -5.41490021e+00     
H    -1.75228209e+00     -1.94417833e+00     -6.10522426e+00     
H    -2.33765636e+00     -6.54191558e-01     -5.51949001e+00     
23
53.343171
N    -1.92976952e-03     -4.47593205e-02     -3.67936213e-02     
H    4.70867077e-01      -2.84826248e-01     8.56340967e-01      
H    -9.95255241e-01     2.25798528e-01      1.32176218e-01      
H    4.74137861e-01      7.57296452e-01      -5.02418836e-01     
C    4.18725855e-02      -1.21690803e+00     -9.31234539e-01     
H    1.07612866e+00      -1.49606866e+00     -1.11423806e+00     
H    -4.68453439e-01     -2.05359414e+00     -4.60614488e-01     
C    -6.38700436e-01     -8.61637698e-01     -2.23731295e+00     
O    -1.16734362e+00     2.14149187e-01      -2.45005726e+00     
O    -5.66063508e-01     -1.88034688e+00     -3.07181661e+00     
H    -9.94601665e-01     -1.62682095e+00     -3.94287713e+00     
O    1.24591156e+00      1.82302833e+00      -1.63922734e+00     
H    1.83107145e+00      2.58032573e+00      -1.55309928e+00     
H    6.54574513e-01      2.02674018e+00      -2.36997808e+00     
O    1.32860680e+00      -9.99218170e-01     2.23110701e+00      
H    9.24372756e-01      -1.34993370e+00     3.02808573e+00      
H    2.25168203e+00      -8.61158715e-01     2.45582732e+00      
O    -2.71690298e+00     4.18379972e-01      1.03651484e-01      
H    -3.36036285e+00     7.73399829e-01      7.22833694e-01      
H    -2.98358659e+00     7.30727162e-01      -7.66210408e-01     
O    -1.62131012e+00     -1.28159165e+00     -5.41290199e+00     
H    -1.76189002e+00     -1.93858043e+00     -6.10402139e+00     
H    -2.33213119e+00     -6.42874709e-01     -5.51357930e+00     
23
53.343171
N    -1.77049839e-03     -4.68306939e-02     -3.73277828e-02     
H    4.70907233e-01      -2.86262833e-01     8.56062714e-01      
H    -9.95114317e-01     2.24109911e-01      1.31218997e-01      
H    4.73921811e-01      7.55383482e-01      -5.03145406e-01     
C    4.25109065e-02      -1.21933329e+00     -9.31265405e-01     
H    1.07684948e+00      -1.49844221e+00     -1.11384481e+00     
H    -4.67784417e-01     -2.05596210e+00     -4.60519562e-01     
C    -6.37748344e-01     -8.64655730e-01     -2.23764287e+00     
O    -1.16703062e+00     2.10795622e-01      -2.45066496e+00     
O    -5.64262564e-01     -1.88319824e+00     -3.07224519e+00     
H    -9.92991682e-01     -1.62911948e+00     -3.94309248e+00     
O    1.24167807e+00      1.82503157e+00      -1.63864932e+00     
H    1.82510426e+00      2.58368442e+00      -1.55246563e+00     
H    6.49758171e-01      2.02741883e+00      -2.36929424e+00     
O    1.32892559e+00      -9.98805963e-01     2.23151865e+00      
H    9.24798238e-01      -1.34990209e+00     3.02838541e+00      
H    2.25167884e+00      -8.59247732e-01     2.45669689e+00      
O    -2.71575440e+00     4.23202410e-01      1.02229058e-01      
H    -3.35863049e+00     7.81041644e-01      7.20459264e-01      
H    -2.98130107e+00     7.34323581e-01      -7.68427879e-01     
O    -1.62152044e+00     -1.27811706e+00     -5.41090376e+00     
H    -1.77149794e+00     -1.93298253e+00     -6.10281852e+00     
H    -2.32660602e+00     -6.31557861e-01     -5.50766859e+00     
23
53.343171
N    -1.45195614e-03     -5.09734408e-02     -3.83961059e-02     
H    4.70987546e-01      -2.89136004e-01     8.55506209e-01      
H    -9.94832470e-01     2.20732677e-01      1.29304554e-01      
H    4.73489710e-01      7.51557541e-01      -5.04598548e-01     
C    4.37875486e-02      -1.22418380e+00     -9.31327137e-01     
H    1.07829112e+00      -1.50318930e+00     -1.11305831e+00     
H    -4.66446374e-01     -2.06069804e+00     -4.60329711e-01     
C    -6.35844159e-01     -8.70691792e-01     -2.23830271e+00     
O    -1.16640462e+00     2.04088490e-01      -2.45188037e+00     
O    -5.60660677e-01     -1.88890095e+00     -3.07310234e+00     
H    -9.89771716e-01     -1.63371656e+00     -3.94352319e+00     
O    1.23321108e+00      1.82903804e+00      -1.63749328e+00     
H    1.81316990e+00      2.59040182e+00      -1.55119834e+00     
H    6.40125488e-01      2.02877613e+00      -2.36792657e+00     
O    1.32956317e+00      -9.97981551e-01     2.23234193e+00      
H    9.25649203e-01      -1.34983888e+00     3.02898477e+00      
H    2.25167245e+00      -8.55425766e-01     2.45843604e+00      
O    -2.71345725e+00     4.32847287e-01      9.93842057e-02      
H    -3.35516576e+00     7.96325274e-01      7.15710402e-01      
H    -2.97673005e+00     7.41516419e-01      -7.72862822e-01     
O    -1.62194107e+00     -1.27116789e+00     -5.40690731e+00     
H    -1.79071378e+00     -1.92178673e+00     -6.10041279e+00     
H    -2.31555567e+00     -6.08924164e-01     -5.49584716e+00     
