17
250.642886
N    2.03441397e-02      4.60338406e-02      -4.14024622e-02     
H    -5.69442847e-01     -8.11063562e-01     4.59444286e-02      
H    -5.43697769e-01     7.20889062e-01      -5.60721322e-01     
H    2.79911683e-01      4.35497774e-01      8.90047715e-01      
C    1.23975120e+00      -2.86400270e-01     -8.19690092e-01     
H    1.92115763e+00      5.61899481e-01      -8.26904598e-01     
H    1.73843305e+00      -1.13603132e+00     -3.58473305e-01     
C    7.78658994e-01      -6.27743643e-01     -2.21780634e+00     
O    -3.89745737e-01     -5.93566577e-01     -2.54066368e+00     
O    1.80341466e+00      -9.50153236e-01     -3.00115390e+00     
H    1.44707309e+00      -1.14414225e+00     -3.88827082e+00     
O    -1.31452406e+00     -2.42740582e+00     -1.96587798e-01     
H    -1.78853295e+00     -3.00228644e+00     4.11130680e-01      
H    -1.72428579e+00     -2.56477139e+00     -1.05730900e+00     
O    1.02044592e+00      1.12355101e+00      2.31066630e+00      
H    1.34444760e+00      6.05147286e-01      3.05491370e+00      
H    8.31172872e-01      1.99304183e+00      2.67852809e+00      
17
250.642886
N    1.95190145e-02      3.57152874e-02      -3.53272517e-02     
H    -5.65443871e-01     -8.25168555e-01     5.31988404e-02      
H    -5.51377150e-01     7.08700128e-01      -5.48735835e-01     
H    2.82500287e-01      4.25083540e-01      8.95190642e-01      
C    1.23568817e+00      -2.86755203e-01     -8.20918241e-01     
H    1.91120486e+00      5.66095260e-01      -8.29017351e-01     
H    1.74280988e+00      -1.13345001e+00     -3.64426556e-01     
C    7.75830116e-01      -6.27915723e-01     -2.21965605e+00     
O    -3.90764069e-01     -5.94108667e-01     -2.54844399e+00     
O    1.80493637e+00      -9.50226142e-01     -2.99778878e+00     
H    1.45367539e+00      -1.14362807e+00     -3.88691508e+00     
O    -1.30853899e+00     -2.41624698e+00     -1.94907097e-01     
H    -1.77921923e+00     -2.99651419e+00     4.10089239e-01      
H    -1.72527399e+00     -2.54181394e+00     -1.05342155e+00     
O    1.01830370e+00      1.12162680e+00      2.30991649e+00      
H    1.35504148e+00      6.14865853e-01      3.05506083e+00      
H    8.36866639e-01      1.99685520e+00      2.66539730e+00      
17
250.642886
N    1.91064519e-02      3.05560108e-02      -3.22896465e-02     
H    -5.63444383e-01     -8.32221051e-01     5.68260463e-02      
H    -5.55216841e-01     7.02605661e-01      -5.42743091e-01     
H    2.83794589e-01      4.19876423e-01      8.97762105e-01      
C    1.23365665e+00      -2.86932670e-01     -8.21532315e-01     
H    1.90622847e+00      5.68193150e-01      -8.30073728e-01     
H    1.74499830e+00      -1.13215935e+00     -3.67403182e-01     
C    7.74415677e-01      -6.28001762e-01     -2.22058091e+00     
O    -3.91273235e-01     -5.94379712e-01     -2.55233415e+00     
O    1.80569722e+00      -9.50262595e-01     -2.99610622e+00     
H    1.45697654e+00      -1.14337098e+00     -3.88623721e+00     
O    -1.30554646e+00     -2.41066755e+00     -1.94066747e-01     
H    -1.77456237e+00     -2.99362806e+00     4.09568519e-01      
H    -1.72576809e+00     -2.53033522e+00     -1.05147782e+00     
O    1.01723259e+00      1.12066469e+00      2.30954158e+00      
H    1.36033841e+00      6.19725137e-01      3.05513439e+00      
H    8.39713522e-01      1.99876188e+00      2.65883190e+00      
17
250.642886
N    1.86938893e-02      2.53967342e-02      -2.92520413e-02     
H    -5.61444895e-01     -8.39273548e-01     6.04532523e-02      
H    -5.59056531e-01     6.96511193e-01      -5.36750347e-01     
H    2.85088891e-01      4.14669306e-01      9.00333568e-01      
C    1.23162513e+00      -2.87110136e-01     -8.22146390e-01     
H    1.90125208e+00      5.70291039e-01      -8.31130105e-01     
H    1.74718672e+00      -1.13086869e+00     -3.70379808e-01     
C    7.73001238e-01      -6.28087802e-01     -2.22150577e+00     
O    -3.91782401e-01     -5.94650757e-01     -2.55622431e+00     
O    1.80645808e+00      -9.50299048e-01     -2.99442366e+00     
H    1.46027769e+00      -1.14311390e+00     -3.88555934e+00     
O    -1.30255392e+00     -2.40508813e+00     -1.93226396e-01     
H    -1.76990551e+00     -2.99074194e+00     4.09047798e-01      
H    -1.72626218e+00     -2.51885650e+00     -1.04953409e+00     
O    1.01616147e+00      1.11970258e+00      2.30916668e+00      
H    1.36563535e+00      6.24584420e-01      3.05520795e+00      
H    8.42560406e-01      2.00066857e+00      2.65226651e+00      
17
250.642886
N    1.82813266e-02      2.02374576e-02      -2.62144360e-02     
H    -5.59445406e-01     -8.46326044e-01     6.40804582e-02      
H    -5.62896222e-01     6.90416726e-01      -5.30757604e-01     
H    2.86383193e-01      4.09462190e-01      9.02905032e-01      
C    1.22959362e+00      -2.87287603e-01     -8.22760464e-01     
H    1.89627569e+00      5.72388929e-01      -8.32186482e-01     
H    1.74937513e+00      -1.12957804e+00     -3.73356434e-01     
C    7.71586799e-01      -6.28173842e-01     -2.22243063e+00     
O    -3.92291567e-01     -5.94921802e-01     -2.56011447e+00     
O    1.80721893e+00      -9.50335501e-01     -2.99274110e+00     
H    1.46357883e+00      -1.14285681e+00     -3.88488146e+00     
O    -1.29956139e+00     -2.39950870e+00     -1.92386046e-01     
H    -1.76524865e+00     -2.98785581e+00     4.08527078e-01      
H    -1.72675628e+00     -2.50737777e+00     -1.04759036e+00     
O    1.01509036e+00      1.11874047e+00      2.30879177e+00      
H    1.37093229e+00      6.29443704e-01      3.05528151e+00      
H    8.45407289e-01      2.00257525e+00      2.64570111e+00      
17
250.642886
N    1.78687640e-02      1.50781810e-02      -2.31768308e-02     
H    -5.57445918e-01     -8.53378540e-01     6.77076641e-02      
H    -5.66735912e-01     6.84322259e-01      -5.24764860e-01     
H    2.87677495e-01      4.04255073e-01      9.05476495e-01      
C    1.22756210e+00      -2.87465069e-01     -8.23374538e-01     
H    1.89129931e+00      5.74486818e-01      -8.33242858e-01     
H    1.75156355e+00      -1.12828738e+00     -3.76333059e-01     
C    7.70172359e-01      -6.28259882e-01     -2.22335549e+00     
O    -3.92800734e-01     -5.95192846e-01     -2.56400462e+00     
O    1.80797978e+00      -9.50371955e-01     -2.99105853e+00     
H    1.46687998e+00      -1.14259972e+00     -3.88420359e+00     
O    -1.29656886e+00     -2.39392928e+00     -1.91545696e-01     
H    -1.76059180e+00     -2.98496969e+00     4.08006357e-01      
H    -1.72725038e+00     -2.49589905e+00     -1.04564663e+00     
O    1.01401925e+00      1.11777837e+00      2.30841687e+00      
H    1.37622923e+00      6.34302988e-01      3.05535508e+00      
H    8.48254173e-01      2.00448194e+00      2.63913572e+00      
17
250.642886
N    1.76624827e-02      1.24985427e-02      -2.16580282e-02     
H    -5.56446174e-01     -8.56904788e-01     6.95212671e-02      
H    -5.68655757e-01     6.81275025e-01      -5.21768488e-01     
H    2.88324646e-01      4.01651514e-01      9.06762227e-01      
C    1.22654634e+00      -2.87553802e-01     -8.23681575e-01     
H    1.88881111e+00      5.75535763e-01      -8.33771047e-01     
H    1.75265776e+00      -1.12764205e+00     -3.77821372e-01     
C    7.69465140e-01      -6.28302901e-01     -2.22381792e+00     
O    -3.93055317e-01     -5.95328369e-01     -2.56594970e+00     
O    1.80836021e+00      -9.50390181e-01     -2.99021725e+00     
H    1.46853056e+00      -1.14247118e+00     -3.88386466e+00     
O    -1.29507259e+00     -2.39113957e+00     -1.91125520e-01     
H    -1.75826337e+00     -2.98352663e+00     4.07745997e-01      
H    -1.72749742e+00     -2.49015969e+00     -1.04467476e+00     
O    1.01348370e+00      1.11729731e+00      2.30822942e+00      
H    1.37887769e+00      6.36732629e-01      3.05539186e+00      
H    8.49677615e-01      2.00543528e+00      2.63585302e+00      
17
250.642886
N    1.74562014e-02      9.91890444e-03      -2.01392255e-02     
H    -5.55446430e-01     -8.60431037e-01     7.13348701e-02      
H    -5.70575603e-01     6.78227791e-01      -5.18772117e-01     
H    2.88971797e-01      3.99047956e-01      9.08047959e-01      
C    1.22553059e+00      -2.87642536e-01     -8.23988613e-01     
H    1.88632292e+00      5.76584708e-01      -8.34299235e-01     
H    1.75375196e+00      -1.12699673e+00     -3.79309685e-01     
C    7.68757920e-01      -6.28345921e-01     -2.22428035e+00     
O    -3.93309900e-01     -5.95463891e-01     -2.56789478e+00     
O    1.80874064e+00      -9.50408408e-01     -2.98937597e+00     
H    1.47018113e+00      -1.14234264e+00     -3.88352572e+00     
O    -1.29357632e+00     -2.38834985e+00     -1.90705345e-01     
H    -1.75593494e+00     -2.98208356e+00     4.07485637e-01      
H    -1.72774447e+00     -2.48442032e+00     -1.04370290e+00     
O    1.01294814e+00      1.11681626e+00      2.30804196e+00      
H    1.38152616e+00      6.39162271e-01      3.05542864e+00      
H    8.51101056e-01      2.00638862e+00      2.63257032e+00      
17
250.642886
N    1.66310762e-02      -3.99648759e-04     -1.40640151e-02     
H    -5.51447454e-01     -8.74536029e-01     7.85892819e-02      
H    -5.78254983e-01     6.66038857e-01      -5.06786629e-01     
H    2.91560401e-01      3.88633722e-01      9.13190885e-01      
C    1.22146755e+00      -2.87997468e-01     -8.25216761e-01     
H    1.87637014e+00      5.80780486e-01      -8.36411989e-01     
H    1.75812880e+00      -1.12441541e+00     -3.85262937e-01     
C    7.65929042e-01      -6.28518001e-01     -2.22613007e+00     
O    -3.94328232e-01     -5.96005981e-01     -2.57567510e+00     
O    1.81026234e+00      -9.50481314e-01     -2.98601085e+00     
H    1.47678343e+00      -1.14182846e+00     -3.88216998e+00     
O    -1.28759126e+00     -2.37719101e+00     -1.89024645e-01     
H    -1.74662122e+00     -2.97631132e+00     4.06444195e-01      
H    -1.72873267e+00     -2.46146288e+00     -1.03981544e+00     
O    1.01080592e+00      1.11489204e+00      2.30729216e+00      
H    1.39212004e+00      6.48880839e-01      3.05557576e+00      
H    8.56794824e-01      2.01020200e+00      2.61943954e+00      
17
250.642886
N    1.64247949e-02      -2.97928706e-03     -1.25452124e-02     
H    -5.50447710e-01     -8.78062278e-01     8.04028849e-02      
H    -5.80174829e-01     6.62991623e-01      -5.03790258e-01     
H    2.92207552e-01      3.86030164e-01      9.14476617e-01      
C    1.22045180e+00      -2.88086202e-01     -8.25523799e-01     
H    1.87388195e+00      5.81829431e-01      -8.36940177e-01     
H    1.75922300e+00      -1.12377009e+00     -3.86751250e-01     
C    7.65221822e-01      -6.28561021e-01     -2.22659250e+00     
O    -3.94582815e-01     -5.96141503e-01     -2.57762018e+00     
O    1.81064277e+00      -9.50499541e-01     -2.98516957e+00     
H    1.47843400e+00      -1.14169992e+00     -3.88183104e+00     
O    -1.28609499e+00     -2.37440129e+00     -1.88604470e-01     
H    -1.74429279e+00     -2.97486825e+00     4.06183835e-01      
H    -1.72897972e+00     -2.45572351e+00     -1.03884358e+00     
O    1.01027036e+00      1.11441099e+00      2.30710470e+00      
H    1.39476851e+00      6.51310481e-01      3.05561254e+00      
H    8.58218265e-01      2.01115534e+00      2.61615684e+00      
17
250.642886
N    1.62185136e-02      -5.55892536e-03     -1.10264098e-02     
H    -5.49447966e-01     -8.81588526e-01     8.22164879e-02      
H    -5.82094674e-01     6.59944389e-01      -5.00793886e-01     
H    2.92854703e-01      3.83426605e-01      9.15762349e-01      
C    1.21943604e+00      -2.88174935e-01     -8.25830836e-01     
H    1.87139375e+00      5.82878376e-01      -8.37468366e-01     
H    1.76031721e+00      -1.12312476e+00     -3.88239563e-01     
C    7.64514603e-01      -6.28604040e-01     -2.22705493e+00     
O    -3.94837398e-01     -5.96277026e-01     -2.57956526e+00     
O    1.81102320e+00      -9.50517767e-01     -2.98432829e+00     
H    1.48008458e+00      -1.14157138e+00     -3.88149211e+00     
O    -1.28459872e+00     -2.37161158e+00     -1.88184294e-01     
H    -1.74196436e+00     -2.97342519e+00     4.05923475e-01      
H    -1.72922676e+00     -2.44998415e+00     -1.03787171e+00     
O    1.00973481e+00      1.11392993e+00      2.30691725e+00      
H    1.39741697e+00      6.53740122e-01      3.05564932e+00      
H    8.59641707e-01      2.01210868e+00      2.61287414e+00      
17
250.642886
N    1.58059510e-02      -1.07182020e-02     -7.98880458e-03     
H    -5.47448478e-01     -8.88641022e-01     8.58436938e-02      
H    -5.85934364e-01     6.53849922e-01      -4.94801142e-01     
H    2.94149005e-01      3.78219488e-01      9.18333812e-01      
C    1.21740452e+00      -2.88352401e-01     -8.26444910e-01     
H    1.86641737e+00      5.84976265e-01      -8.38524742e-01     
H    1.76250563e+00      -1.12183410e+00     -3.91216188e-01     
C    7.63100163e-01      -6.28690080e-01     -2.22797979e+00     
O    -3.95346565e-01     -5.96548070e-01     -2.58345541e+00     
O    1.81178405e+00      -9.50554221e-01     -2.98264572e+00     
H    1.48338573e+00      -1.14131429e+00     -3.88081424e+00     
O    -1.28160619e+00     -2.36603216e+00     -1.87343944e-01     
H    -1.73730751e+00     -2.97053907e+00     4.05402754e-01      
H    -1.72972086e+00     -2.43850543e+00     -1.03592798e+00     
O    1.00866370e+00      1.11296783e+00      2.30654235e+00      
H    1.40271391e+00      6.58599406e-01      3.05572289e+00      
H    8.62488591e-01      2.01401537e+00      2.60630875e+00      
17
250.642886
N    1.53933883e-02      -1.58774786e-02     -4.95119933e-03     
H    -5.45448989e-01     -8.95693518e-01     8.94708997e-02      
H    -5.89774055e-01     6.47755455e-01      -4.88808399e-01     
H    2.95443307e-01      3.73012372e-01      9.20905276e-01      
C    1.21537301e+00      -2.88529868e-01     -8.27058984e-01     
H    1.86144098e+00      5.87074155e-01      -8.39581119e-01     
H    1.76469404e+00      -1.12054345e+00     -3.94192814e-01     
C    7.61685724e-01      -6.28776120e-01     -2.22890465e+00     
O    -3.95855731e-01     -5.96819115e-01     -2.58734557e+00     
O    1.81254490e+00      -9.50590674e-01     -2.98096316e+00     
H    1.48668687e+00      -1.14105720e+00     -3.88013636e+00     
O    -1.27861366e+00     -2.36045273e+00     -1.86503594e-01     
H    -1.73265065e+00     -2.96765294e+00     4.04882034e-01      
H    -1.73021496e+00     -2.42702670e+00     -1.03398425e+00     
O    1.00759259e+00      1.11200572e+00      2.30616744e+00      
H    1.40801085e+00      6.63458690e-01      3.05579645e+00      
H    8.65335474e-01      2.01592205e+00      2.59974335e+00      
17
250.642886
N    1.49808257e-02      -2.10367552e-02     -1.91359409e-03     
H    -5.43449501e-01     -9.02746015e-01     9.30981057e-02      
H    -5.93613745e-01     6.41660987e-01      -4.82815655e-01     
H    2.96737609e-01      3.67805255e-01      9.23476739e-01      
C    1.21334149e+00      -2.88707334e-01     -8.27673059e-01     
H    1.85646459e+00      5.89172044e-01      -8.40637496e-01     
H    1.76688246e+00      -1.11925279e+00     -3.97169440e-01     
C    7.60271285e-01      -6.28862160e-01     -2.22982951e+00     
O    -3.96364897e-01     -5.97090160e-01     -2.59123573e+00     
O    1.81330576e+00      -9.50627127e-01     -2.97928060e+00     
H    1.48998802e+00      -1.14080012e+00     -3.87945849e+00     
O    -1.27562112e+00     -2.35487331e+00     -1.85663243e-01     
H    -1.72799379e+00     -2.96476682e+00     4.04361313e-01      
H    -1.73070905e+00     -2.41554798e+00     -1.03204052e+00     
O    1.00652147e+00      1.11104361e+00      2.30579254e+00      
H    1.41330779e+00      6.68317973e-01      3.05587001e+00      
H    8.68182358e-01      2.01782874e+00      2.59317796e+00      
17
250.642886
N    1.45682631e-02      -2.61960318e-02     1.12401115e-03      
H    -5.41450013e-01     -9.09798511e-01     9.67253116e-02      
H    -5.97453436e-01     6.35566520e-01      -4.76822911e-01     
H    2.98031911e-01      3.62598138e-01      9.26048202e-01      
C    1.21130997e+00      -2.88884801e-01     -8.28287133e-01     
H    1.85148820e+00      5.91269934e-01      -8.41693873e-01     
H    1.76907088e+00      -1.11796213e+00     -4.00146066e-01     
C    7.58856846e-01      -6.28948199e-01     -2.23075437e+00     
O    -3.96874063e-01     -5.97361205e-01     -2.59512589e+00     
O    1.81406661e+00      -9.50663580e-01     -2.97759804e+00     
H    1.49328917e+00      -1.14054303e+00     -3.87878062e+00     
O    -1.27262859e+00     -2.34929388e+00     -1.84822893e-01     
H    -1.72333693e+00     -2.96188069e+00     4.03840593e-01      
H    -1.73120315e+00     -2.40406926e+00     -1.03009679e+00     
O    1.00545036e+00      1.11008150e+00      2.30541763e+00      
H    1.41860472e+00      6.73177257e-01      3.05594357e+00      
H    8.71029241e-01      2.01973542e+00      2.58661256e+00      
17
250.642886
N    1.37431379e-02      -3.65145849e-02     7.19922163e-03      
H    -5.37451037e-01     -9.23903504e-01     1.03979723e-01      
H    -6.05132817e-01     6.23377586e-01      -4.64837424e-01     
H    3.00620515e-01      3.52183904e-01      9.31191129e-01      
C    1.20724694e+00      -2.89239734e-01     -8.29515282e-01     
H    1.84153543e+00      5.95465713e-01      -8.43806626e-01     
H    1.77344771e+00      -1.11538082e+00     -4.06099317e-01     
C    7.56027968e-01      -6.29120279e-01     -2.23260408e+00     
O    -3.97892395e-01     -5.97903295e-01     -2.60290620e+00     
O    1.81558832e+00      -9.50736486e-01     -2.97423292e+00     
H    1.49989147e+00      -1.14002885e+00     -3.87742488e+00     
O    -1.26664352e+00     -2.33813504e+00     -1.83142192e-01     
H    -1.71402321e+00     -2.95610844e+00     4.02799152e-01      
H    -1.73219135e+00     -2.38111181e+00     -1.02620934e+00     
O    1.00330814e+00      1.10815729e+00      2.30466782e+00      
H    1.42919860e+00      6.82895824e-01      3.05609070e+00      
H    8.76723008e-01      2.02354879e+00      2.57348177e+00      
