17
263.156289
N    1.68056485e-02      1.12107379e-03      -1.24796296e-02     
H    -5.51732511e-01     -8.72090129e-01     8.37327113e-02      
H    -5.79339840e-01     6.67391168e-01      -5.04198133e-01     
H    2.94284399e-01      3.91588726e-01      9.14485229e-01      
C    1.21910827e+00      -2.88807096e-01     -8.26754192e-01     
H    1.87607159e+00      5.78165662e-01      -8.37493144e-01     
H    1.75437733e+00      -1.12646846e+00     -3.87497232e-01     
C    7.64070623e-01      -6.28436250e-01     -2.22838784e+00     
O    -3.95094817e-01     -5.96520077e-01     -2.58168799e+00     
O    1.81073780e+00      -9.50861540e-01     -2.98514135e+00     
H    1.48042880e+00      -1.14137504e+00     -3.88259285e+00     
O    -1.29012362e+00     -2.37944026e+00     -1.86568049e-01     
H    -1.75224669e+00     -2.99102273e+00     3.93912061e-01      
H    -1.70679584e+00     -2.46947709e+00     -1.04929132e+00     
O    1.03190603e+00      1.12314948e+00      2.30625049e+00      
H    1.26353419e+00      6.12470743e-01      3.10224501e+00      
H    7.25850552e-01      1.97317541e+00      2.67183848e+00      
17
263.156289
N    1.68651461e-02      2.03071230e-03      -1.36351273e-02     
H    -5.52161119e-01     -8.70938480e-01     8.15400525e-02      
H    -5.78108703e-01     6.68576707e-01      -5.06343443e-01     
H    2.93279824e-01      3.92151754e-01      9.13518777e-01      
C    1.22020597e+00      -2.88560322e-01     -8.26216316e-01     
H    1.87739032e+00      5.78294896e-01      -8.36958761e-01     
H    1.75476809e+00      -1.12627786e+00     -3.86194502e-01     
C    7.64888837e-01      -6.28435178e-01     -2.22759218e+00     
O    -3.94775879e-01     -5.96323792e-01     -2.57921223e+00     
O    1.81042872e+00      -9.50757370e-01     -2.98577936e+00     
H    1.47869217e+00      -1.14155267e+00     -3.88265660e+00     
O    -1.29023866e+00     -2.38027280e+00     -1.87392286e-01     
H    -1.75200454e+00     -2.98806641e+00     3.97175275e-01      
H    -1.71215652e+00     -2.47034321e+00     -1.04740828e+00     
O    1.02689878e+00      1.12132565e+00      2.30660463e+00      
H    1.29435642e+00      6.20358446e-01      3.09055931e+00      
H    7.57874899e-01      1.98195539e+00      2.66038009e+00      
17
263.156289
N    1.68948948e-02      2.48553156e-03      -1.42128761e-02     
H    -5.52375423e-01     -8.70362656e-01     8.04437231e-02      
H    -5.77493135e-01     6.69169477e-01      -5.07416098e-01     
H    2.92777537e-01      3.92433268e-01      9.13035552e-01      
C    1.22075482e+00      -2.88436935e-01     -8.25947378e-01     
H    1.87804969e+00      5.78359513e-01      -8.36691569e-01     
H    1.75496347e+00      -1.12618257e+00     -3.85543137e-01     
C    7.65297945e-01      -6.28434642e-01     -2.22719435e+00     
O    -3.94616410e-01     -5.96225649e-01     -2.57797435e+00     
O    1.81027418e+00      -9.50705285e-01     -2.98609837e+00     
H    1.47782386e+00      -1.14164148e+00     -3.88268847e+00     
O    -1.29029618e+00     -2.38068907e+00     -1.87804404e-01     
H    -1.75188346e+00     -2.98658825e+00     3.98806882e-01      
H    -1.71483686e+00     -2.47077628e+00     -1.04646676e+00     
O    1.02439516e+00      1.12041373e+00      2.30678170e+00      
H    1.30976753e+00      6.24302297e-01      3.08471646e+00      
H    7.73887073e-01      1.98634537e+00      2.65465090e+00      
17
263.156289
N    1.69246436e-02      2.94035082e-03      -1.47906249e-02     
H    -5.52589727e-01     -8.69786831e-01     7.93473937e-02      
H    -5.76877567e-01     6.69762246e-01      -5.08488753e-01     
H    2.92275249e-01      3.92714782e-01      9.12552326e-01      
C    1.22130367e+00      -2.88313549e-01     -8.25678440e-01     
H    1.87870906e+00      5.78424130e-01      -8.36424378e-01     
H    1.75515886e+00      -1.12608727e+00     -3.84891772e-01     
C    7.65707052e-01      -6.28434106e-01     -2.22679652e+00     
O    -3.94456941e-01     -5.96127507e-01     -2.57673646e+00     
O    1.81011964e+00      -9.50653200e-01     -2.98641738e+00     
H    1.47695554e+00      -1.14173030e+00     -3.88272035e+00     
O    -1.29035370e+00     -2.38110534e+00     -1.88216522e-01     
H    -1.75176238e+00     -2.98511009e+00     4.00438489e-01      
H    -1.71751720e+00     -2.47120934e+00     -1.04552524e+00     
O    1.02189153e+00      1.11950182e+00      2.30695878e+00      
H    1.32517865e+00      6.28246149e-01      3.07887361e+00      
H    7.89899246e-01      1.99073536e+00      2.64892170e+00      
17
263.156289
N    1.69543924e-02      3.39517007e-03      -1.53683738e-02     
H    -5.52804031e-01     -8.69211007e-01     7.82510642e-02      
H    -5.76261998e-01     6.70355016e-01      -5.09561408e-01     
H    2.91772962e-01      3.92996297e-01      9.12069100e-01      
C    1.22185252e+00      -2.88190162e-01     -8.25409501e-01     
H    1.87936843e+00      5.78488747e-01      -8.36157186e-01     
H    1.75535424e+00      -1.12599197e+00     -3.84240407e-01     
C    7.66116159e-01      -6.28433569e-01     -2.22639869e+00     
O    -3.94297472e-01     -5.96029364e-01     -2.57549858e+00     
O    1.80996510e+00      -9.50601115e-01     -2.98673639e+00     
H    1.47608723e+00      -1.14181911e+00     -3.88275222e+00     
O    -1.29041123e+00     -2.38152161e+00     -1.88628640e-01     
H    -1.75164131e+00     -2.98363193e+00     4.02070096e-01      
H    -1.72019755e+00     -2.47164241e+00     -1.04458373e+00     
O    1.01938791e+00      1.11858990e+00      2.30713585e+00      
H    1.34058976e+00      6.32190000e-01      3.07303075e+00      
H    8.05911420e-01      1.99512535e+00      2.64319251e+00      
17
263.156289
N    1.69841412e-02      3.84998933e-03      -1.59461226e-02     
H    -5.53018334e-01     -8.68635182e-01     7.71547348e-02      
H    -5.75646430e-01     6.70947785e-01      -5.10634063e-01     
H    2.91270674e-01      3.93277811e-01      9.11585874e-01      
C    1.22240137e+00      -2.88066775e-01     -8.25140563e-01     
H    1.88002779e+00      5.78553363e-01      -8.35889995e-01     
H    1.75554962e+00      -1.12589667e+00     -3.83589041e-01     
C    7.66525266e-01      -6.28433033e-01     -2.22600087e+00     
O    -3.94138004e-01     -5.95931221e-01     -2.57426070e+00     
O    1.80981057e+00      -9.50549031e-01     -2.98705539e+00     
H    1.47521891e+00      -1.14190792e+00     -3.88278410e+00     
O    -1.29046875e+00     -2.38193789e+00     -1.89040759e-01     
H    -1.75152023e+00     -2.98215376e+00     4.03701702e-01      
H    -1.72287789e+00     -2.47207547e+00     -1.04364221e+00     
O    1.01688428e+00      1.11767798e+00      2.30731292e+00      
H    1.35600087e+00      6.36133852e-01      3.06718790e+00      
H    8.21923593e-01      1.99951534e+00      2.63746332e+00      
17
263.156289
N    1.69990156e-02      4.07739896e-03      -1.62349970e-02     
H    -5.53125486e-01     -8.68347270e-01     7.66065701e-02      
H    -5.75338646e-01     6.71244170e-01      -5.11170391e-01     
H    2.91019530e-01      3.93418568e-01      9.11344261e-01      
C    1.22267579e+00      -2.88005082e-01     -8.25006094e-01     
H    1.88035748e+00      5.78585672e-01      -8.35756399e-01     
H    1.75564731e+00      -1.12584902e+00     -3.83263359e-01     
C    7.66729820e-01      -6.28432765e-01     -2.22580195e+00     
O    -3.94058269e-01     -5.95882150e-01     -2.57364176e+00     
O    1.80973330e+00      -9.50522988e-01     -2.98721490e+00     
H    1.47478475e+00      -1.14195233e+00     -3.88280004e+00     
O    -1.29049751e+00     -2.38214602e+00     -1.89246818e-01     
H    -1.75145969e+00     -2.98141468e+00     4.04517506e-01      
H    -1.72421806e+00     -2.47229200e+00     -1.04317145e+00     
O    1.01563247e+00      1.11722202e+00      2.30740145e+00      
H    1.36370643e+00      6.38105778e-01      3.06426648e+00      
H    8.29929680e-01      2.00171033e+00      2.63459872e+00      
17
263.156289
N    1.70138900e-02      4.30480858e-03      -1.65238715e-02     
H    -5.53232638e-01     -8.68059358e-01     7.60584054e-02      
H    -5.75030861e-01     6.71540555e-01      -5.11706718e-01     
H    2.90768387e-01      3.93559325e-01      9.11102648e-01      
C    1.22295022e+00      -2.87943389e-01     -8.24871625e-01     
H    1.88068716e+00      5.78617980e-01      -8.35622803e-01     
H    1.75574500e+00      -1.12580137e+00     -3.82937676e-01     
C    7.66934374e-01      -6.28432497e-01     -2.22560304e+00     
O    -3.93978535e-01     -5.95833079e-01     -2.57302282e+00     
O    1.80965603e+00      -9.50496946e-01     -2.98737440e+00     
H    1.47435060e+00      -1.14199674e+00     -3.88281597e+00     
O    -1.29052627e+00     -2.38235416e+00     -1.89452877e-01     
H    -1.75139916e+00     -2.98067560e+00     4.05333309e-01      
H    -1.72555823e+00     -2.47250854e+00     -1.04270069e+00     
O    1.01438066e+00      1.11676607e+00      2.30748999e+00      
H    1.37141199e+00      6.40077703e-01      3.06134505e+00      
H    8.37935767e-01      2.00390532e+00      2.63173412e+00      
17
263.156289
N    1.70733876e-02      5.21444710e-03      -1.76793691e-02     
H    -5.53661246e-01     -8.66907708e-01     7.38657466e-02      
H    -5.73799725e-01     6.72726093e-01      -5.13852028e-01     
H    2.89763811e-01      3.94122353e-01      9.10136196e-01      
C    1.22404792e+00      -2.87696615e-01     -8.24333749e-01     
H    1.88200590e+00      5.78747214e-01      -8.35088421e-01     
H    1.75613576e+00      -1.12561077e+00     -3.81634946e-01     
C    7.67752588e-01      -6.28431425e-01     -2.22480738e+00     
O    -3.93659597e-01     -5.95636793e-01     -2.57054706e+00     
O    1.80934695e+00      -9.50392776e-01     -2.98801242e+00     
H    1.47261396e+00      -1.14217436e+00     -3.88287973e+00     
O    -1.29064131e+00     -2.38318670e+00     -1.90277113e-01     
H    -1.75115700e+00     -2.97771928e+00     4.08596523e-01      
H    -1.73091891e+00     -2.47337466e+00     -1.04081765e+00     
O    1.00937340e+00      1.11494223e+00      2.30784413e+00      
H    1.40223421e+00      6.47965407e-01      3.04965935e+00      
H    8.69960113e-01      2.01268530e+00      2.62027574e+00      
17
263.156289
N    1.70882620e-02      5.44185672e-03      -1.79682436e-02     
H    -5.53768398e-01     -8.66619796e-01     7.33175819e-02      
H    -5.73491940e-01     6.73022478e-01      -5.14388355e-01     
H    2.89512668e-01      3.94263110e-01      9.09894583e-01      
C    1.22432235e+00      -2.87634922e-01     -8.24199280e-01     
H    1.88233558e+00      5.78779522e-01      -8.34954825e-01     
H    1.75623345e+00      -1.12556312e+00     -3.81309263e-01     
C    7.67957142e-01      -6.28431157e-01     -2.22460847e+00     
O    -3.93579863e-01     -5.95587722e-01     -2.56992812e+00     
O    1.80926968e+00      -9.50366734e-01     -2.98817192e+00     
H    1.47217981e+00      -1.14221877e+00     -3.88289566e+00     
O    -1.29067007e+00     -2.38339484e+00     -1.90483172e-01     
H    -1.75109647e+00     -2.97698020e+00     4.09412326e-01      
H    -1.73225908e+00     -2.47359120e+00     -1.04034689e+00     
O    1.00812159e+00      1.11448628e+00      2.30793267e+00      
H    1.40993977e+00      6.49937332e-01      3.04673792e+00      
H    8.77966200e-01      2.01488029e+00      2.61741114e+00      
17
263.156289
N    1.71031364e-02      5.66926635e-03      -1.82571180e-02     
H    -5.53875550e-01     -8.66331884e-01     7.27694172e-02      
H    -5.73184156e-01     6.73318863e-01      -5.14924683e-01     
H    2.89261524e-01      3.94403867e-01      9.09652970e-01      
C    1.22459677e+00      -2.87573229e-01     -8.24064811e-01     
H    1.88266527e+00      5.78811831e-01      -8.34821229e-01     
H    1.75633114e+00      -1.12551547e+00     -3.80983581e-01     
C    7.68161696e-01      -6.28430889e-01     -2.22440955e+00     
O    -3.93500128e-01     -5.95538651e-01     -2.56930918e+00     
O    1.80919241e+00      -9.50340691e-01     -2.98833143e+00     
H    1.47174565e+00      -1.14226318e+00     -3.88291160e+00     
O    -1.29069883e+00     -2.38360297e+00     -1.90689231e-01     
H    -1.75103593e+00     -2.97624112e+00     4.10228130e-01      
H    -1.73359925e+00     -2.47380773e+00     -1.03987613e+00     
O    1.00686978e+00      1.11403032e+00      2.30802120e+00      
H    1.41764533e+00      6.51909258e-01      3.04381650e+00      
H    8.85972287e-01      2.01707528e+00      2.61454654e+00      
17
263.156289
N    1.71328852e-02      6.12408561e-03      -1.88348668e-02     
H    -5.54089853e-01     -8.65756059e-01     7.16730878e-02      
H    -5.72568588e-01     6.73911632e-01      -5.15997338e-01     
H    2.88759236e-01      3.94685381e-01      9.09169744e-01      
C    1.22514562e+00      -2.87449842e-01     -8.23795873e-01     
H    1.88332463e+00      5.78876447e-01      -8.34554038e-01     
H    1.75652652e+00      -1.12542017e+00     -3.80332215e-01     
C    7.68570803e-01      -6.28430353e-01     -2.22401173e+00     
O    -3.93340660e-01     -5.95440508e-01     -2.56807130e+00     
O    1.80903788e+00      -9.50288607e-01     -2.98865043e+00     
H    1.47087733e+00      -1.14235199e+00     -3.88294348e+00     
O    -1.29075635e+00     -2.38401925e+00     -1.91101350e-01     
H    -1.75091485e+00     -2.97476295e+00     4.11859736e-01      
H    -1.73627959e+00     -2.47424079e+00     -1.03893461e+00     
O    1.00436615e+00      1.11311840e+00      2.30819827e+00      
H    1.43305644e+00      6.55853110e-01      3.03797365e+00      
H    9.01984460e-01      2.02146527e+00      2.60881735e+00      
17
263.156289
N    1.71626340e-02      6.57890486e-03      -1.94126157e-02     
H    -5.54304157e-01     -8.65180235e-01     7.05767583e-02      
H    -5.71953019e-01     6.74504402e-01      -5.17069993e-01     
H    2.88256949e-01      3.94966896e-01      9.08686518e-01      
C    1.22569447e+00      -2.87326455e-01     -8.23526934e-01     
H    1.88398400e+00      5.78941064e-01      -8.34286846e-01     
H    1.75672190e+00      -1.12532487e+00     -3.79680850e-01     
C    7.68979910e-01      -6.28429816e-01     -2.22361390e+00     
O    -3.93181191e-01     -5.95342365e-01     -2.56683342e+00     
O    1.80888334e+00      -9.50236522e-01     -2.98896944e+00     
H    1.47000902e+00      -1.14244080e+00     -3.88297535e+00     
O    -1.29081388e+00     -2.38443552e+00     -1.91513468e-01     
H    -1.75079378e+00     -2.97328479e+00     4.13491343e-01      
H    -1.73895994e+00     -2.47467386e+00     -1.03799310e+00     
O    1.00186253e+00      1.11220648e+00      2.30837534e+00      
H    1.44846755e+00      6.59796961e-01      3.03213079e+00      
H    9.17996634e-01      2.02585526e+00      2.60308816e+00      
17
263.156289
N    1.71923828e-02      7.03372412e-03      -1.99903645e-02     
H    -5.54518461e-01     -8.64604410e-01     6.94804289e-02      
H    -5.71337451e-01     6.75097171e-01      -5.18142648e-01     
H    2.87754661e-01      3.95248410e-01      9.08203292e-01      
C    1.22624332e+00      -2.87203069e-01     -8.23257996e-01     
H    1.88464337e+00      5.79005681e-01      -8.34019655e-01     
H    1.75691729e+00      -1.12522957e+00     -3.79029485e-01     
C    7.69389017e-01      -6.28429280e-01     -2.22321607e+00     
O    -3.93021722e-01     -5.95244223e-01     -2.56559553e+00     
O    1.80872880e+00      -9.50184437e-01     -2.98928845e+00     
H    1.46914070e+00      -1.14252962e+00     -3.88300723e+00     
O    -1.29087140e+00     -2.38485179e+00     -1.91925586e-01     
H    -1.75067270e+00     -2.97180663e+00     4.15122950e-01      
H    -1.74164028e+00     -2.47510692e+00     -1.03705158e+00     
O    9.99358903e-01      1.11129457e+00      2.30855242e+00      
H    1.46387867e+00      6.63740813e-01      3.02628794e+00      
H    9.34008807e-01      2.03024525e+00      2.59735896e+00      
17
263.156289
N    1.72221315e-02      7.48854338e-03      -2.05681133e-02     
H    -5.54732765e-01     -8.64028586e-01     6.83840995e-02      
H    -5.70721883e-01     6.75689941e-01      -5.19215303e-01     
H    2.87252374e-01      3.95529924e-01      9.07720067e-01      
C    1.22679217e+00      -2.87079682e-01     -8.22989058e-01     
H    1.88530274e+00      5.79070298e-01      -8.33752463e-01     
H    1.75711267e+00      -1.12513428e+00     -3.78378120e-01     
C    7.69798125e-01      -6.28428744e-01     -2.22281824e+00     
O    -3.92862253e-01     -5.95146080e-01     -2.56435765e+00     
O    1.80857426e+00      -9.50132352e-01     -2.98960746e+00     
H    1.46827239e+00      -1.14261843e+00     -3.88303910e+00     
O    -1.29092892e+00     -2.38526806e+00     -1.92337704e-01     
H    -1.75055162e+00     -2.97032847e+00     4.16754557e-01      
H    -1.74432062e+00     -2.47553999e+00     -1.03611006e+00     
O    9.96855277e-01      1.11038265e+00      2.30872949e+00      
H    1.47928978e+00      6.67684664e-01      3.02044509e+00      
H    9.50020981e-01      2.03463523e+00      2.59162977e+00      
17
263.156289
N    1.72816291e-02      8.39818189e-03      -2.17236110e-02     
H    -5.55161373e-01     -8.62876937e-01     6.61914407e-02      
H    -5.69490746e-01     6.76875480e-01      -5.21360613e-01     
H    2.86247799e-01      3.96092952e-01      9.06753615e-01      
C    1.22788987e+00      -2.86832908e-01     -8.22451182e-01     
H    1.88662147e+00      5.79199532e-01      -8.33218080e-01     
H    1.75750343e+00      -1.12494368e+00     -3.77075390e-01     
C    7.70616339e-01      -6.28427672e-01     -2.22202258e+00     
O    -3.92543315e-01     -5.94949795e-01     -2.56188189e+00     
O    1.80826518e+00      -9.50028182e-01     -2.99024547e+00     
H    1.46653576e+00      -1.14279606e+00     -3.88310285e+00     
O    -1.29104396e+00     -2.38610060e+00     -1.93161941e-01     
H    -1.75030947e+00     -2.96737215e+00     4.20017771e-01      
H    -1.74968130e+00     -2.47640611e+00     -1.03422702e+00     
O    9.91848027e-01      1.10855882e+00      2.30908363e+00      
H    1.51011201e+00      6.75572367e-01      3.00875939e+00      
H    9.82045328e-01      2.04341521e+00      2.58017138e+00      
