17
396.011794
N    6.57259484e-03      1.08656265e-02      -2.68622616e-02     
H    -5.57520313e-01     -8.63642590e-01     8.04735901e-02      
H    -5.86150816e-01     6.71553178e-01      -5.29994018e-01     
H    2.79820053e-01      3.98585556e-01      9.01119458e-01      
C    1.22139834e+00      -2.86127822e-01     -8.23239166e-01     
H    1.88037527e+00      5.79529421e-01      -8.28669234e-01     
H    1.74641471e+00      -1.12310442e+00     -3.70782230e-01     
C    7.73941991e-01      -6.28975358e-01     -2.22594553e+00     
O    -3.89348707e-01     -5.93688392e-01     -2.56649356e+00     
O    1.80992114e+00      -9.52461558e-01     -2.99552744e+00     
H    1.46574508e+00      -1.14520500e+00     -3.88746984e+00     
O    -1.28822173e+00     -2.38870484e+00     -1.79340757e-01     
H    -1.78510845e+00     -3.02545421e+00     3.49432614e-01      
H    -1.72581739e+00     -2.36531373e+00     -1.04405623e+00     
O    1.01720649e+00      1.10533803e+00      2.31350408e+00      
H    1.41065400e+00      7.27188725e-01      3.11090248e+00      
H    7.98271466e-01      2.01751337e+00      2.54695478e+00      
17
396.011794
N    9.19035583e-03      9.33912686e-03      -2.44221013e-02     
H    -5.56501971e-01     -8.64602826e-01     7.90957116e-02      
H    -5.83216935e-01     6.71698215e-01      -5.25690357e-01     
H    2.82431564e-01      3.97399377e-01      9.03494449e-01      
C    1.22192352e+00      -2.86550867e-01     -8.23580046e-01     
H    1.88061808e+00      5.79317715e-01      -8.30340828e-01     
H    1.74879613e+00      -1.12375484e+00     -3.73658250e-01     
C    7.72292364e-01      -6.28839509e-01     -2.22576045e+00     
O    -3.90466296e-01     -5.94200028e-01     -2.56781641e+00     
O    1.80981623e+00      -9.51957384e-01     -2.99356893e+00     
H    1.46767938e+00      -1.14442514e+00     -3.88631434e+00     
O    -1.28881225e+00     -2.38722123e+00     -1.81971817e-01     
H    -1.77665086e+00     -3.01389002e+00     3.63815690e-01      
H    -1.72642268e+00     -2.39222070e+00     -1.04348196e+00     
O    1.01587412e+00      1.10796706e+00      2.31204482e+00      
H    1.40469627e+00      7.06396933e-01      3.09705241e+00      
H    8.12190585e-01      2.01520885e+00      2.56671732e+00      
17
396.011794
N    1.04992363e-02      8.57587703e-03      -2.32020211e-02     
H    -5.55992799e-01     -8.65082944e-01     7.84067723e-02      
H    -5.81749995e-01     6.71770733e-01      -5.23538526e-01     
H    2.83737320e-01      3.96806287e-01      9.04681945e-01      
C    1.22218611e+00      -2.86762390e-01     -8.23750486e-01     
H    1.88073949e+00      5.79211862e-01      -8.31176626e-01     
H    1.74998684e+00      -1.12408004e+00     -3.75096260e-01     
C    7.71467550e-01      -6.28771584e-01     -2.22566791e+00     
O    -3.91025091e-01     -5.94455846e-01     -2.56847783e+00     
O    1.80976377e+00      -9.51705297e-01     -2.99258968e+00     
H    1.46864653e+00      -1.14403520e+00     -3.88573659e+00     
O    -1.28910750e+00     -2.38647943e+00     -1.83287347e-01     
H    -1.77242206e+00     -3.00810792e+00     3.71007227e-01      
H    -1.72672533e+00     -2.40567418e+00     -1.04319483e+00     
O    1.01520794e+00      1.10928157e+00      2.31131520e+00      
H    1.40171741e+00      6.96001036e-01      3.09012738e+00      
H    8.19150144e-01      2.01405660e+00      2.57659858e+00      
17
396.011794
N    1.18081168e-02      7.81262719e-03      -2.19819410e-02     
H    -5.55483628e-01     -8.65563062e-01     7.77178331e-02      
H    -5.80283054e-01     6.71843251e-01      -5.21386695e-01     
H    2.85043076e-01      3.96213198e-01      9.05869440e-01      
C    1.22244870e+00      -2.86973912e-01     -8.23920927e-01     
H    1.88086090e+00      5.79106009e-01      -8.32012423e-01     
H    1.75117755e+00      -1.12440525e+00     -3.76534271e-01     
C    7.70642736e-01      -6.28703659e-01     -2.22557537e+00     
O    -3.91583886e-01     -5.94711664e-01     -2.56913925e+00     
O    1.80971131e+00      -9.51453209e-01     -2.99161042e+00     
H    1.46961368e+00      -1.14364527e+00     -3.88515884e+00     
O    -1.28940276e+00     -2.38573763e+00     -1.84602876e-01     
H    -1.76819326e+00     -3.00232583e+00     3.78198765e-01      
H    -1.72702798e+00     -2.41912766e+00     -1.04290770e+00     
O    1.01454176e+00      1.11059609e+00      2.31058557e+00      
H    1.39873855e+00      6.85605140e-01      3.08320234e+00      
H    8.26109703e-01      2.01290434e+00      2.58647985e+00      
17
396.011794
N    1.31169973e-02      7.04937735e-03      -2.07618608e-02     
H    -5.54974456e-01     -8.66043180e-01     7.70288938e-02      
H    -5.78816114e-01     6.71915769e-01      -5.19234865e-01     
H    2.86348832e-01      3.95620108e-01      9.07056936e-01      
C    1.22271129e+00      -2.87185435e-01     -8.24091367e-01     
H    1.88098231e+00      5.79000156e-01      -8.32848220e-01     
H    1.75236826e+00      -1.12473045e+00     -3.77972281e-01     
C    7.69817922e-01      -6.28635735e-01     -2.22548283e+00     
O    -3.92142681e-01     -5.94967482e-01     -2.56980067e+00     
O    1.80965886e+00      -9.51201122e-01     -2.99063117e+00     
H    1.47058083e+00      -1.14325534e+00     -3.88458110e+00     
O    -1.28969802e+00     -2.38499583e+00     -1.85918406e-01     
H    -1.76396447e+00     -2.99654373e+00     3.85390303e-01      
H    -1.72733063e+00     -2.43258115e+00     -1.04262057e+00     
O    1.01387558e+00      1.11191060e+00      2.30985594e+00      
H    1.39575969e+00      6.75209244e-01      3.07627731e+00      
H    8.33069262e-01      2.01175208e+00      2.59636112e+00      
17
396.011794
N    1.44258778e-02      6.28612751e-03      -1.95417806e-02     
H    -5.54465285e-01     -8.66523297e-01     7.63399545e-02      
H    -5.77349174e-01     6.71988288e-01      -5.17083034e-01     
H    2.87654587e-01      3.95027018e-01      9.08244431e-01      
C    1.22297389e+00      -2.87396957e-01     -8.24261807e-01     
H    1.88110371e+00      5.78894303e-01      -8.33684017e-01     
H    1.75355896e+00      -1.12505566e+00     -3.79410291e-01     
C    7.68993109e-01      -6.28567810e-01     -2.22539029e+00     
O    -3.92701476e-01     -5.95223300e-01     -2.57046210e+00     
O    1.80960640e+00      -9.50949035e-01     -2.98965192e+00     
H    1.47154798e+00      -1.14286541e+00     -3.88400335e+00     
O    -1.28999328e+00     -2.38425403e+00     -1.87233936e-01     
H    -1.75973567e+00     -2.99076163e+00     3.92581841e-01      
H    -1.72763327e+00     -2.44603463e+00     -1.04233343e+00     
O    1.01320939e+00      1.11322512e+00      2.30912631e+00      
H    1.39278082e+00      6.64813348e-01      3.06935227e+00      
H    8.40028822e-01      2.01059982e+00      2.60624239e+00      
17
396.011794
N    1.50803181e-02      5.90450260e-03      -1.89317405e-02     
H    -5.54210699e-01     -8.66763356e-01     7.59954849e-02      
H    -5.76615704e-01     6.72024547e-01      -5.16007119e-01     
H    2.88307465e-01      3.94730474e-01      9.08838179e-01      
C    1.22310518e+00      -2.87502718e-01     -8.24347027e-01     
H    1.88116442e+00      5.78841377e-01      -8.34101916e-01     
H    1.75415432e+00      -1.12521826e+00     -3.80129296e-01     
C    7.68580702e-01      -6.28533848e-01     -2.22534402e+00     
O    -3.92980874e-01     -5.95351209e-01     -2.57079281e+00     
O    1.80958017e+00      -9.50822992e-01     -2.98916229e+00     
H    1.47203155e+00      -1.14267045e+00     -3.88371447e+00     
O    -1.29014090e+00     -2.38388313e+00     -1.87891700e-01     
H    -1.75762127e+00     -2.98787058e+00     3.96177609e-01      
H    -1.72778460e+00     -2.45276137e+00     -1.04218987e+00     
O    1.01287630e+00      1.11388238e+00      2.30876150e+00      
H    1.39129139e+00      6.59615399e-01      3.06588975e+00      
H    8.43508601e-01      2.01002370e+00      2.61118303e+00      
17
396.011794
N    1.57347583e-02      5.52287768e-03      -1.83217005e-02     
H    -5.53956113e-01     -8.67003415e-01     7.56510153e-02      
H    -5.75882233e-01     6.72060806e-01      -5.14931204e-01     
H    2.88960343e-01      3.94433929e-01      9.09431927e-01      
C    1.22323648e+00      -2.87608480e-01     -8.24432247e-01     
H    1.88122512e+00      5.78788450e-01      -8.34519815e-01     
H    1.75474967e+00      -1.12538086e+00     -3.80848301e-01     
C    7.68168295e-01      -6.28499886e-01     -2.22529775e+00     
O    -3.93260271e-01     -5.95479118e-01     -2.57112352e+00     
O    1.80955395e+00      -9.50696948e-01     -2.98867266e+00     
H    1.47251513e+00      -1.14247548e+00     -3.88342560e+00     
O    -1.29028853e+00     -2.38351223e+00     -1.88549465e-01     
H    -1.75550688e+00     -2.98497954e+00     3.99773378e-01      
H    -1.72793592e+00     -2.45948812e+00     -1.04204630e+00     
O    1.01254321e+00      1.11453963e+00      2.30839669e+00      
H    1.38980196e+00      6.54417451e-01      3.06242724e+00      
H    8.46988381e-01      2.00944757e+00      2.61612366e+00      
17
396.011794
N    1.83525193e-02      3.99637800e-03      -1.58815401e-02     
H    -5.52937771e-01     -8.67963651e-01     7.42731367e-02      
H    -5.72948353e-01     6.72205842e-01      -5.10627542e-01     
H    2.91571855e-01      3.93247749e-01      9.11806917e-01      
C    1.22376166e+00      -2.88031524e-01     -8.24773127e-01     
H    1.88146794e+00      5.78576744e-01      -8.36191409e-01     
H    1.75713109e+00      -1.12603128e+00     -3.83724321e-01     
C    7.66518667e-01      -6.28364036e-01     -2.22511267e+00     
O    -3.94377861e-01     -5.95990754e-01     -2.57244636e+00     
O    1.80944903e+00      -9.50192774e-01     -2.98671416e+00     
H    1.47444943e+00      -1.14169562e+00     -3.88227010e+00     
O    -1.29087905e+00     -2.38202863e+00     -1.91180525e-01     
H    -1.74704928e+00     -2.97341534e+00     4.14156454e-01      
H    -1.72854122e+00     -2.48639508e+00     -1.04147204e+00     
O    1.01121085e+00      1.11716867e+00      2.30693743e+00      
H    1.38384424e+00      6.33625659e-01      3.04857716e+00      
H    8.60907499e-01      2.00714305e+00      2.63588620e+00      
17
396.011794
N    1.90069595e-02      3.61475308e-03      -1.52715001e-02     
H    -5.52683185e-01     -8.68203710e-01     7.39286671e-02      
H    -5.72214882e-01     6.72242101e-01      -5.09551627e-01     
H    2.92224733e-01      3.92951204e-01      9.12400665e-01      
C    1.22389296e+00      -2.88137286e-01     -8.24858347e-01     
H    1.88152864e+00      5.78523817e-01      -8.36609308e-01     
H    1.75772644e+00      -1.12619388e+00     -3.84443326e-01     
C    7.66106260e-01      -6.28330074e-01     -2.22506640e+00     
O    -3.94657258e-01     -5.96118663e-01     -2.57277707e+00     
O    1.80942281e+00      -9.50066730e-01     -2.98622453e+00     
H    1.47493301e+00      -1.14150065e+00     -3.88198123e+00     
O    -1.29102668e+00     -2.38165773e+00     -1.91838290e-01     
H    -1.74493489e+00     -2.97052430e+00     4.17752223e-01      
H    -1.72869254e+00     -2.49312183e+00     -1.04132847e+00     
O    1.01087776e+00      1.11782592e+00      2.30657262e+00      
H    1.38235481e+00      6.28427711e-01      3.04511465e+00      
H    8.64387279e-01      2.00656692e+00      2.64082683e+00      
17
396.011794
N    1.96613998e-02      3.23312817e-03      -1.46614600e-02     
H    -5.52428599e-01     -8.68443769e-01     7.35841975e-02      
H    -5.71481412e-01     6.72278360e-01      -5.08475712e-01     
H    2.92877611e-01      3.92654660e-01      9.12994413e-01      
C    1.22402425e+00      -2.88243047e-01     -8.24943567e-01     
H    1.88158935e+00      5.78470891e-01      -8.37027207e-01     
H    1.75832180e+00      -1.12635648e+00     -3.85162331e-01     
C    7.65693853e-01      -6.28296112e-01     -2.22502013e+00     
O    -3.94936656e-01     -5.96246572e-01     -2.57310778e+00     
O    1.80939658e+00      -9.49940687e-01     -2.98573490e+00     
H    1.47541658e+00      -1.14130569e+00     -3.88169235e+00     
O    -1.29117430e+00     -2.38128683e+00     -1.92496054e-01     
H    -1.74282049e+00     -2.96763325e+00     4.21347991e-01      
H    -1.72884387e+00     -2.49984857e+00     -1.04118491e+00     
O    1.01054467e+00      1.11848318e+00      2.30620781e+00      
H    1.38086538e+00      6.23229762e-01      3.04165213e+00      
H    8.67867058e-01      2.00599080e+00      2.64576747e+00      
17
396.011794
N    2.09702803e-02      2.46987833e-03      -1.34413798e-02     
H    -5.51919428e-01     -8.68923886e-01     7.28952582e-02      
H    -5.70014472e-01     6.72350879e-01      -5.06323881e-01     
H    2.94183366e-01      3.92061570e-01      9.14181908e-01      
C    1.22428685e+00      -2.88454569e-01     -8.25114007e-01     
H    1.88171075e+00      5.78365038e-01      -8.37863004e-01     
H    1.75951250e+00      -1.12668169e+00     -3.86600341e-01     
C    7.64869040e-01      -6.28228187e-01     -2.22492759e+00     
O    -3.95495451e-01     -5.96502390e-01     -2.57376921e+00     
O    1.80934412e+00      -9.49688600e-01     -2.98475565e+00     
H    1.47638373e+00      -1.14091576e+00     -3.88111460e+00     
O    -1.29146956e+00     -2.38054503e+00     -1.93811584e-01     
H    -1.73859169e+00     -2.96185115e+00     4.28539529e-01      
H    -1.72914651e+00     -2.51330205e+00     -1.04089777e+00     
O    1.00987848e+00      1.11979770e+00      2.30547818e+00      
H    1.37788651e+00      6.12833866e-01      3.03472709e+00      
H    8.74826618e-01      2.00483854e+00      2.65564874e+00      
17
396.011794
N    2.22791608e-02      1.70662849e-03      -1.22212996e-02     
H    -5.51410256e-01     -8.69404004e-01     7.22063189e-02      
H    -5.68547532e-01     6.72423397e-01      -5.04172051e-01     
H    2.95489122e-01      3.91468480e-01      9.15369404e-01      
C    1.22454944e+00      -2.88666092e-01     -8.25284447e-01     
H    1.88183216e+00      5.78259185e-01      -8.38698801e-01     
H    1.76070321e+00      -1.12700689e+00     -3.88038351e-01     
C    7.64044226e-01      -6.28160263e-01     -2.22483505e+00     
O    -3.96054246e-01     -5.96758208e-01     -2.57443063e+00     
O    1.80929167e+00      -9.49436513e-01     -2.98377640e+00     
H    1.47735088e+00      -1.14052583e+00     -3.88053686e+00     
O    -1.29176482e+00     -2.37980323e+00     -1.95127114e-01     
H    -1.73436290e+00     -2.95606905e+00     4.35731067e-01      
H    -1.72944916e+00     -2.52675554e+00     -1.04061064e+00     
O    1.00921230e+00      1.12111221e+00      2.30474855e+00      
H    1.37490765e+00      6.02437970e-01      3.02780206e+00      
H    8.81786177e-01      2.00368628e+00      2.66553001e+00      
17
396.011794
N    2.35880413e-02      9.43378655e-04      -1.10012195e-02     
H    -5.50901085e-01     -8.69884122e-01     7.15173797e-02      
H    -5.67080591e-01     6.72495915e-01      -5.02020220e-01     
H    2.96794878e-01      3.90875391e-01      9.16556899e-01      
C    1.22481203e+00      -2.88877614e-01     -8.25454888e-01     
H    1.88195357e+00      5.78153332e-01      -8.39534598e-01     
H    1.76189392e+00      -1.12733210e+00     -3.89476362e-01     
C    7.63219412e-01      -6.28092338e-01     -2.22474251e+00     
O    -3.96613041e-01     -5.97014026e-01     -2.57509205e+00     
O    1.80923921e+00      -9.49184425e-01     -2.98279714e+00     
H    1.47831803e+00      -1.14013590e+00     -3.87995911e+00     
O    -1.29206008e+00     -2.37906143e+00     -1.96442643e-01     
H    -1.73013410e+00     -2.95028696e+00     4.42922605e-01      
H    -1.72975181e+00     -2.54020902e+00     -1.04032351e+00     
O    1.00854612e+00      1.12242673e+00      2.30401892e+00      
H    1.37192879e+00      5.92042074e-01      3.02087702e+00      
H    8.88745736e-01      2.00253402e+00      2.67541128e+00      
17
396.011794
N    2.48969218e-02      1.80128817e-04      -9.78113932e-03     
H    -5.50391913e-01     -8.70364240e-01     7.08284404e-02      
H    -5.65613651e-01     6.72568433e-01      -4.99868389e-01     
H    2.98100634e-01      3.90282301e-01      9.17744395e-01      
C    1.22507462e+00      -2.89089137e-01     -8.25625328e-01     
H    1.88207498e+00      5.78047479e-01      -8.40370396e-01     
H    1.76308463e+00      -1.12765730e+00     -3.90914372e-01     
C    7.62394598e-01      -6.28024413e-01     -2.22464997e+00     
O    -3.97171836e-01     -5.97269844e-01     -2.57575347e+00     
O    1.80918675e+00      -9.48932338e-01     -2.98181789e+00     
H    1.47928518e+00      -1.13974596e+00     -3.87938136e+00     
O    -1.29235533e+00     -2.37831963e+00     -1.97758173e-01     
H    -1.72590530e+00     -2.94450486e+00     4.50114142e-01      
H    -1.73005446e+00     -2.55366250e+00     -1.04003638e+00     
O    1.00787994e+00      1.12374124e+00      2.30328930e+00      
H    1.36894993e+00      5.81646177e-01      3.01395199e+00      
H    8.95705295e-01      2.00138177e+00      2.68529254e+00      
17
396.011794
N    2.75146828e-02      -1.34637086e-03     -7.34097900e-03     
H    -5.49373571e-01     -8.71324476e-01     6.94505619e-02      
H    -5.62679770e-01     6.72713470e-01      -4.95564728e-01     
H    3.00712145e-01      3.89096122e-01      9.20119386e-01      
C    1.22559980e+00      -2.89512182e-01     -8.25966208e-01     
H    1.88231779e+00      5.77835773e-01      -8.42041990e-01     
H    1.76546605e+00      -1.12830772e+00     -3.93790392e-01     
C    7.60744971e-01      -6.27888564e-01     -2.22446489e+00     
O    -3.98289425e-01     -5.97781480e-01     -2.57707632e+00     
O    1.80908184e+00      -9.48428164e-01     -2.97985938e+00     
H    1.48121948e+00      -1.13896610e+00     -3.87822586e+00     
O    -1.29294585e+00     -2.37683602e+00     -2.00389233e-01     
H    -1.71744771e+00     -2.93294067e+00     4.64497218e-01      
H    -1.73065975e+00     -2.58056947e+00     -1.03946211e+00     
O    1.00654757e+00      1.12637027e+00      2.30183004e+00      
H    1.36299220e+00      5.60854385e-01      3.00010192e+00      
H    9.09624414e-01      1.99907725e+00      2.70505508e+00      
