17
348.978857
N    -9.91001950e-03     -1.88325202e-02     -3.81151328e-02     
H    -5.73848503e-01     -9.00674507e-01     2.68286108e-02      
H    -5.95738114e-01     6.42978126e-01      -5.48273907e-01     
H    2.36377190e-01      3.64617899e-01      8.97387958e-01      
C    1.22428153e+00      -2.86936635e-01     -8.17151691e-01     
H    1.86310721e+00      5.94438126e-01      -8.12809495e-01     
H    1.76380513e+00      -1.11423128e+00     -3.63504170e-01     
C    7.81513358e-01      -6.29472225e-01     -2.22122540e+00     
O    -3.85080520e-01     -5.91794402e-01     -2.55031823e+00     
O    1.80446899e+00      -9.55861926e-01     -3.00612173e+00     
H    1.44365084e+00      -1.13523285e+00     -3.89472944e+00     
O    -1.28880330e+00     -2.35590672e+00     -1.92740725e-01     
H    -1.69144127e+00     -2.96321079e+00     4.37440097e-01      
H    -1.66792490e+00     -2.58466382e+00     -1.05924723e+00     
O    1.02057889e+00      1.11891336e+00      2.31932573e+00      
H    1.38969655e+00      6.70181850e-01      3.08462861e+00      
H    8.38031972e-01      2.01355758e+00      2.61955544e+00      
17
348.978857
N    -3.17160492e-03     -1.29344832e-02     -3.28617547e-02     
H    -5.68748113e-01     -8.92376764e-01     3.88619771e-02      
H    -5.90407409e-01     6.50266925e-01      -5.39400274e-01     
H    2.49849417e-01      3.71923634e-01      9.00695824e-01      
C    1.22408592e+00      -2.87157477e-01     -8.19014440e-01     
H    1.86766704e+00      5.90499244e-01      -8.18446024e-01     
H    1.76183894e+00      -1.11709998e+00     -3.68199705e-01     
C    7.77970889e-01      -6.29212159e-01     -2.22222035e+00     
O    -3.87265156e-01     -5.92779535e-01     -2.55568490e+00     
O    1.80572711e+00      -9.54507660e-01     -3.00151465e+00     
H    1.45110870e+00      -1.13694602e+00     -3.89175904e+00     
O    -1.28924842e+00     -2.36262265e+00     -1.92021792e-01     
H    -1.70640047e+00     -2.96720745e+00     4.29821302e-01      
H    -1.68300332e+00     -2.55673327e+00     -1.05487521e+00     
O    1.01840342e+00      1.11814856e+00      2.31641106e+00      
H    1.38897819e+00      6.63641776e-01      3.07734701e+00      
H    8.42010964e-01      2.01224201e+00      2.62116782e+00      
17
348.978857
N    1.97602363e-04      -9.98546470e-03     -3.02350656e-02     
H    -5.66197918e-01     -8.88227892e-01     4.48786602e-02      
H    -5.87742056e-01     6.53911325e-01      -5.34963457e-01     
H    2.56585531e-01      3.75576501e-01      9.02349757e-01      
C    1.22398811e+00      -2.87267898e-01     -8.19945814e-01     
H    1.86994695e+00      5.88529803e-01      -8.21264289e-01     
H    1.76085585e+00      -1.11853433e+00     -3.70547473e-01     
C    7.76199654e-01      -6.29082126e-01     -2.22271783e+00     
O    -3.88357474e-01     -5.93272102e-01     -2.55836824e+00     
O    1.80635617e+00      -9.53830527e-01     -2.99921111e+00     
H    1.45483763e+00      -1.13780261e+00     -3.89027384e+00     
O    -1.28947098e+00     -2.36598061e+00     -1.91662326e-01     
H    -1.71388007e+00     -2.96920578e+00     4.26011904e-01      
H    -1.69054253e+00     -2.54276799e+00     -1.05268921e+00     
O    1.01731569e+00      1.11776616e+00      2.31495373e+00      
H    1.38861901e+00      6.60371739e-01      3.07370621e+00      
H    8.44000460e-01      2.01158423e+00      2.62197400e+00      
17
348.978857
N    3.56680965e-03      -7.03644619e-03     -2.76083765e-02     
H    -5.63647723e-01     -8.84079020e-01     5.08953434e-02      
H    -5.85076704e-01     6.57555725e-01      -5.30526640e-01     
H    2.63321644e-01      3.79229369e-01      9.04003690e-01      
C    1.22389030e+00      -2.87378319e-01     -8.20877189e-01     
H    1.87222687e+00      5.86560361e-01      -8.24082553e-01     
H    1.75987276e+00      -1.11996867e+00     -3.72895240e-01     
C    7.74428419e-01      -6.28952093e-01     -2.22321531e+00     
O    -3.89449793e-01     -5.93764669e-01     -2.56105158e+00     
O    1.80698524e+00      -9.53153393e-01     -2.99690757e+00     
H    1.45856656e+00      -1.13865920e+00     -3.88878864e+00     
O    -1.28969355e+00     -2.36933858e+00     -1.91302860e-01     
H    -1.72135967e+00     -2.97120411e+00     4.22202506e-01      
H    -1.69808174e+00     -2.52880271e+00     -1.05050320e+00     
O    1.01622796e+00      1.11738376e+00      2.31349640e+00      
H    1.38825983e+00      6.57101702e-01      3.07006541e+00      
H    8.45989956e-01      2.01092645e+00      2.62278019e+00      
17
348.978857
N    6.93601694e-03      -4.08742769e-03     -2.49816875e-02     
H    -5.61097527e-01     -8.79930148e-01     5.69120265e-02      
H    -5.82411351e-01     6.61200125e-01      -5.26089823e-01     
H    2.70057758e-01      3.82882236e-01      9.05657623e-01      
C    1.22379249e+00      -2.87488739e-01     -8.21808563e-01     
H    1.87450678e+00      5.84590920e-01      -8.26900818e-01     
H    1.75888966e+00      -1.12140302e+00     -3.75243008e-01     
C    7.72657185e-01      -6.28822060e-01     -2.22371278e+00     
O    -3.90542111e-01     -5.94257236e-01     -2.56373492e+00     
O    1.80761430e+00      -9.52476260e-01     -2.99460403e+00     
H    1.46229549e+00      -1.13951579e+00     -3.88730345e+00     
O    -1.28991611e+00     -2.37269654e+00     -1.90943394e-01     
H    -1.72883928e+00     -2.97320245e+00     4.18393109e-01      
H    -1.70562094e+00     -2.51483743e+00     -1.04831719e+00     
O    1.01514023e+00      1.11700135e+00      2.31203906e+00      
H    1.38790064e+00      6.53831665e-01      3.06642461e+00      
H    8.47979452e-01      2.01026866e+00      2.62358637e+00      
17
348.978857
N    1.03052242e-02      -1.13840918e-03     -2.23549984e-02     
H    -5.58547332e-01     -8.75781277e-01     6.29287097e-02      
H    -5.79745998e-01     6.64844524e-01      -5.21653007e-01     
H    2.76793872e-01      3.86535104e-01      9.07311556e-01      
C    1.22369469e+00      -2.87599160e-01     -8.22739938e-01     
H    1.87678670e+00      5.82621479e-01      -8.29719083e-01     
H    1.75790657e+00      -1.12283737e+00     -3.77590776e-01     
C    7.70885950e-01      -6.28692027e-01     -2.22421026e+00     
O    -3.91634429e-01     -5.94749802e-01     -2.56641826e+00     
O    1.80824336e+00      -9.51799127e-01     -2.99230049e+00     
H    1.46602442e+00      -1.14037237e+00     -3.88581825e+00     
O    -1.29013867e+00     -2.37605450e+00     -1.90583927e-01     
H    -1.73631888e+00     -2.97520078e+00     4.14583711e-01      
H    -1.71316015e+00     -2.50087216e+00     -1.04613118e+00     
O    1.01405249e+00      1.11661895e+00      2.31058173e+00      
H    1.38754146e+00      6.50561629e-01      3.06278380e+00      
H    8.49968948e-01      2.00961088e+00      2.62439256e+00      
17
348.978857
N    1.19898279e-02      3.36100077e-04      -2.10416539e-02     
H    -5.57272235e-01     -8.73706841e-01     6.59370513e-02      
H    -5.78413322e-01     6.66666724e-01      -5.19434598e-01     
H    2.80161929e-01      3.88361538e-01      9.08138523e-01      
C    1.22364578e+00      -2.87654371e-01     -8.23205625e-01     
H    1.87792666e+00      5.81636759e-01      -8.31128215e-01     
H    1.75741502e+00      -1.12355455e+00     -3.78764660e-01     
C    7.70000333e-01      -6.28627011e-01     -2.22445900e+00     
O    -3.92180589e-01     -5.94996086e-01     -2.56775993e+00     
O    1.80855790e+00      -9.51460561e-01     -2.99114872e+00     
H    1.46788889e+00      -1.14080067e+00     -3.88507565e+00     
O    -1.29024995e+00     -2.37773348e+00     -1.90404194e-01     
H    -1.74005868e+00     -2.97619994e+00     4.12679012e-01      
H    -1.71692976e+00     -2.49388952e+00     -1.04503818e+00     
O    1.01350863e+00      1.11642775e+00      2.30985306e+00      
H    1.38736187e+00      6.48926610e-01      3.06096340e+00      
H    8.50963696e-01      2.00928199e+00      2.62479565e+00      
17
348.978857
N    1.36744315e-02      1.81060933e-03      -1.97283094e-02     
H    -5.55997137e-01     -8.71632405e-01     6.89453928e-02      
H    -5.77080646e-01     6.68488924e-01      -5.17216190e-01     
H    2.83529985e-01      3.90187971e-01      9.08965489e-01      
C    1.22359688e+00      -2.87709581e-01     -8.23671312e-01     
H    1.87906661e+00      5.80652038e-01      -8.32537347e-01     
H    1.75692347e+00      -1.12427172e+00     -3.79938543e-01     
C    7.69114716e-01      -6.28561994e-01     -2.22470773e+00     
O    -3.92726748e-01     -5.95242369e-01     -2.56910160e+00     
O    1.80887243e+00      -9.51121994e-01     -2.98999695e+00     
H    1.46975335e+00      -1.14122896e+00     -3.88433305e+00     
O    -1.29036123e+00     -2.37941247e+00     -1.90224461e-01     
H    -1.74379848e+00     -2.97719911e+00     4.10774314e-01      
H    -1.72069936e+00     -2.48690688e+00     -1.04394518e+00     
O    1.01296476e+00      1.11623655e+00      2.30912439e+00      
H    1.38718228e+00      6.47291592e-01      3.05914300e+00      
H    8.51958444e-01      2.00895309e+00      2.62519874e+00      
17
348.978857
N    2.04128461e-02      7.70864635e-03      -1.44749312e-02     
H    -5.50896747e-01     -8.63334661e-01     8.09787592e-02      
H    -5.71749940e-01     6.75777724e-01      -5.08342556e-01     
H    2.97002213e-01      3.97493707e-01      9.12273355e-01      
C    1.22340126e+00      -2.87930423e-01     -8.25534062e-01     
H    1.88362645e+00      5.76713156e-01      -8.38173877e-01     
H    1.75495729e+00      -1.12714042e+00     -3.84634079e-01     
C    7.65572246e-01      -6.28301928e-01     -2.22570269e+00     
O    -3.94911384e-01     -5.96227503e-01     -2.57446828e+00     
O    1.81013055e+00      -9.49767728e-01     -2.98538987e+00     
H    1.47721121e+00      -1.14294214e+00     -3.88136265e+00     
O    -1.29080635e+00     -2.38612839e+00     -1.89505529e-01     
H    -1.75875768e+00     -2.98119577e+00     4.03155518e-01      
H    -1.73577778e+00     -2.45897632e+00     -1.03957316e+00     
O    1.01078930e+00      1.11547175e+00      2.30620973e+00      
H    1.38646392e+00      6.40751518e-01      3.05186140e+00      
H    8.55937436e-01      2.00763753e+00      2.62681112e+00      
17
348.978857
N    2.20974497e-02      9.18315560e-03      -1.31615867e-02     
H    -5.49621649e-01     -8.61260225e-01     8.39871007e-02      
H    -5.70417264e-01     6.77599924e-01      -5.06124148e-01     
H    3.00370269e-01      3.99320140e-01      9.13100321e-01      
C    1.22335236e+00      -2.87985633e-01     -8.25999749e-01     
H    1.88476640e+00      5.75728435e-01      -8.39583009e-01     
H    1.75446574e+00      -1.12785759e+00     -3.85807962e-01     
C    7.64686629e-01      -6.28236911e-01     -2.22595142e+00     
O    -3.95457543e-01     -5.96473786e-01     -2.57580995e+00     
O    1.81044508e+00      -9.49429161e-01     -2.98423810e+00     
H    1.47907567e+00      -1.14337043e+00     -3.88062005e+00     
O    -1.29091763e+00     -2.38780738e+00     -1.89325796e-01     
H    -1.76249748e+00     -2.98219494e+00     4.01250820e-01      
H    -1.73954738e+00     -2.45199368e+00     -1.03848016e+00     
O    1.01024543e+00      1.11528055e+00      2.30548106e+00      
H    1.38628433e+00      6.39116500e-01      3.05004100e+00      
H    8.56932184e-01      2.00730863e+00      2.62721421e+00      
17
348.978857
N    2.37820534e-02      1.06576649e-02      -1.18482422e-02     
H    -5.48346552e-01     -8.59185789e-01     8.69954423e-02      
H    -5.69084588e-01     6.79422124e-01      -5.03905739e-01     
H    3.03738326e-01      4.01146574e-01      9.13927288e-01      
C    1.22330345e+00      -2.88040844e-01     -8.26465436e-01     
H    1.88590636e+00      5.74743715e-01      -8.40992141e-01     
H    1.75397419e+00      -1.12857477e+00     -3.86981846e-01     
C    7.63801012e-01      -6.28171895e-01     -2.22620016e+00     
O    -3.96003703e-01     -5.96720070e-01     -2.57715162e+00     
O    1.81075962e+00      -9.49090595e-01     -2.98308633e+00     
H    1.48094014e+00      -1.14379873e+00     -3.87987745e+00     
O    -1.29102891e+00     -2.38948636e+00     -1.89146063e-01     
H    -1.76623728e+00     -2.98319410e+00     3.99346121e-01      
H    -1.74331699e+00     -2.44501104e+00     -1.03738716e+00     
O    1.00970157e+00      1.11508935e+00      2.30475239e+00      
H    1.38610474e+00      6.37481481e-01      3.04822060e+00      
H    8.57926932e-01      2.00697974e+00      2.62761730e+00      
17
348.978857
N    2.71512607e-02      1.36066834e-02      -9.22155311e-03     
H    -5.45796357e-01     -8.55036918e-01     9.30121255e-02      
H    -5.66419235e-01     6.83066523e-01      -4.99468923e-01     
H    3.10474440e-01      4.04799442e-01      9.15581221e-01      
C    1.22320565e+00      -2.88151265e-01     -8.27396811e-01     
H    1.88818628e+00      5.72774274e-01      -8.43810406e-01     
H    1.75299110e+00      -1.13000912e+00     -3.89329614e-01     
C    7.62029777e-01      -6.28041862e-01     -2.22669764e+00     
O    -3.97096021e-01     -5.97212636e-01     -2.57983496e+00     
O    1.81138868e+00      -9.48413462e-01     -2.98078279e+00     
H    1.48466907e+00      -1.14465531e+00     -3.87839225e+00     
O    -1.29125147e+00     -2.39284432e+00     -1.88786596e-01     
H    -1.77371688e+00     -2.98519243e+00     3.95536723e-01      
H    -1.75085620e+00     -2.43104577e+00     -1.03520115e+00     
O    1.00861383e+00      1.11470695e+00      2.30329506e+00      
H    1.38574556e+00      6.34211445e-01      3.04457979e+00      
H    8.59916428e-01      2.00632196e+00      2.62842349e+00      
17
348.978857
N    3.05204679e-02      1.65557019e-02      -6.59486405e-03     
H    -5.43246161e-01     -8.50888046e-01     9.90288086e-02      
H    -5.63753882e-01     6.86710923e-01      -4.95032106e-01     
H    3.17210554e-01      4.08452309e-01      9.17235154e-01      
C    1.22310784e+00      -2.88261685e-01     -8.28328185e-01     
H    1.89046619e+00      5.70804833e-01      -8.46628671e-01     
H    1.75200800e+00      -1.13144347e+00     -3.91677382e-01     
C    7.60258543e-01      -6.27911829e-01     -2.22719511e+00     
O    -3.98188339e-01     -5.97705203e-01     -2.58251830e+00     
O    1.81201774e+00      -9.47736329e-01     -2.97847925e+00     
H    1.48839800e+00      -1.14551190e+00     -3.87690706e+00     
O    -1.29147403e+00     -2.39620228e+00     -1.88427130e-01     
H    -1.78119649e+00     -2.98719077e+00     3.91727326e-01      
H    -1.75839540e+00     -2.41708049e+00     -1.03301514e+00     
O    1.00752610e+00      1.11432454e+00      2.30183772e+00      
H    1.38538637e+00      6.30941408e-01      3.04093899e+00      
H    8.61905924e-01      2.00566417e+00      2.62922967e+00      
17
348.978857
N    3.38896752e-02      1.95047204e-02      -3.96817499e-03     
H    -5.40695966e-01     -8.46739174e-01     1.05045492e-01      
H    -5.61088530e-01     6.90355323e-01      -4.90595289e-01     
H    3.23946667e-01      4.12105177e-01      9.18889087e-01      
C    1.22301003e+00      -2.88372106e-01     -8.29259560e-01     
H    1.89274611e+00      5.68835391e-01      -8.49446935e-01     
H    1.75102491e+00      -1.13287781e+00     -3.94025149e-01     
C    7.58487308e-01      -6.27781796e-01     -2.22769259e+00     
O    -3.99280658e-01     -5.98197770e-01     -2.58520164e+00     
O    1.81264681e+00      -9.47059195e-01     -2.97617571e+00     
H    1.49212693e+00      -1.14636849e+00     -3.87542186e+00     
O    -1.29169660e+00     -2.39956025e+00     -1.88067664e-01     
H    -1.78867609e+00     -2.98918910e+00     3.87917928e-01      
H    -1.76593461e+00     -2.40311521e+00     -1.03082913e+00     
O    1.00643837e+00      1.11394214e+00      2.30038039e+00      
H    1.38502719e+00      6.27671371e-01      3.03729819e+00      
H    8.63895420e-01      2.00500639e+00      2.63003586e+00      
17
348.978857
N    3.72588825e-02      2.24537389e-02      -1.34148593e-03     
H    -5.38145771e-01     -8.42590302e-01     1.11062175e-01      
H    -5.58423177e-01     6.93999723e-01      -4.86158472e-01     
H    3.30682781e-01      4.15758044e-01      9.20543020e-01      
C    1.22291222e+00      -2.88482527e-01     -8.30190934e-01     
H    1.89502602e+00      5.66865950e-01      -8.52265200e-01     
H    1.75004182e+00      -1.13431216e+00     -3.96372917e-01     
C    7.56716073e-01      -6.27651763e-01     -2.22819007e+00     
O    -4.00372976e-01     -5.98690337e-01     -2.58788498e+00     
O    1.81327587e+00      -9.46382062e-01     -2.97387217e+00     
H    1.49585586e+00      -1.14722508e+00     -3.87393666e+00     
O    -1.29191916e+00     -2.40291821e+00     -1.87708198e-01     
H    -1.79615569e+00     -2.99118743e+00     3.84108530e-01      
H    -1.77347382e+00     -2.38914993e+00     -1.02864313e+00     
O    1.00535064e+00      1.11355974e+00      2.29892306e+00      
H    1.38466801e+00      6.24401334e-01      3.03365739e+00      
H    8.65884916e-01      2.00434861e+00      2.63084204e+00      
17
348.978857
N    4.39972971e-02      2.83517759e-02      3.91189219e-03      
H    -5.33045381e-01     -8.34292559e-01     1.23095541e-01      
H    -5.53092472e-01     7.01288522e-01      -4.77284839e-01     
H    3.44155008e-01      4.23063779e-01      9.23850886e-01      
C    1.22271661e+00      -2.88703369e-01     -8.32053683e-01     
H    1.89958585e+00      5.62927068e-01      -8.57901729e-01     
H    1.74807563e+00      -1.13718086e+00     -4.01068452e-01     
C    7.53173604e-01      -6.27391697e-01     -2.22918502e+00     
O    -4.02557612e-01     -5.99675470e-01     -2.59325165e+00     
O    1.81453399e+00      -9.45027796e-01     -2.96926509e+00     
H    1.50331372e+00      -1.14893825e+00     -3.87096626e+00     
O    -1.29236428e+00     -2.40963414e+00     -1.86989265e-01     
H    -1.81111489e+00     -2.99518409e+00     3.76489735e-01      
H    -1.78855224e+00     -2.36121938e+00     -1.02427111e+00     
O    1.00317517e+00      1.11279494e+00      2.29600839e+00      
H    1.38394965e+00      6.17861260e-01      3.02637579e+00      
H    8.69863908e-01      2.00303304e+00      2.63245442e+00      
