17
326.274069
N    6.71551517e-03      -3.90000439e-03     -2.68807509e-02     
H    -5.38879202e-01     -8.89896640e-01     9.53728149e-02      
H    -6.05950486e-01     6.19897556e-01      -5.57507106e-01     
H    2.62961277e-01      4.29293767e-01      8.86854499e-01      
C    1.22376610e+00      -2.89411193e-01     -8.22388714e-01     
H    1.87308994e+00      5.83611901e-01      -8.31443183e-01     
H    1.76063626e+00      -1.12133466e+00     -3.74535022e-01     
C    7.72603753e-01      -6.31749033e-01     -2.22417355e+00     
O    -3.90773111e-01     -5.93838020e-01     -2.56483275e+00     
O    1.80934703e+00      -9.50319576e-01     -2.99382325e+00     
H    1.46734223e+00      -1.13885932e+00     -3.88742752e+00     
O    -1.28218683e+00     -2.38517638e+00     -1.90168451e-01     
H    -1.78186996e+00     -2.95436843e+00     4.04655683e-01      
H    -1.79027105e+00     -2.37153169e+00     -1.01761220e+00     
O    1.01347855e+00      1.12600454e+00      2.31173793e+00      
H    1.36898297e+00      5.77986671e-01      3.02127419e+00      
H    8.91502232e-01      1.99851839e+00      2.70377944e+00      
17
326.274069
N    9.29754608e-03      -1.73509633e-03     -2.44359682e-02     
H    -5.42521137e-01     -8.84293363e-01     9.02701302e-02      
H    -5.98066688e-01     6.32956498e-01      -5.46325173e-01     
H    2.69787482e-01      4.20430535e-01      8.92795729e-01      
C    1.22369934e+00      -2.89013395e-01     -8.22942207e-01     
H    1.87515409e+00      5.82379575e-01      -8.32421290e-01     
H    1.75946229e+00      -1.12242751e+00     -3.76472844e-01     
C    7.71288685e-01      -6.30919765e-01     -2.22443146e+00     
O    -3.91534600e-01     -5.94312249e-01     -2.56657079e+00     
O    1.80938565e+00      -9.50350897e-01     -2.99229079e+00     
H    1.46887724e+00      -1.13966588e+00     -3.88628260e+00     
O    -1.28428607e+00     -2.38457489e+00     -1.90092587e-01     
H    -1.77422199e+00     -2.96057568e+00     4.05232991e-01      
H    -1.77476293e+00     -2.39688417e+00     -1.02364894e+00     
O    1.01307817e+00      1.12346695e+00      2.31072021e+00      
H    1.37344300e+00      5.94495392e-01      3.02983120e+00      
H    8.82113659e-01      2.00096262e+00      2.68433581e+00      
17
326.274069
N    1.05885615e-02      -6.52642304e-04     -2.32135769e-02     
H    -5.44342105e-01     -8.81491725e-01     8.77187878e-02      
H    -5.94124789e-01     6.39485969e-01      -5.40734206e-01     
H    2.73200585e-01      4.15998919e-01      8.95766345e-01      
C    1.22366596e+00      -2.88814496e-01     -8.23218954e-01     
H    1.87618616e+00      5.81763412e-01      -8.32910344e-01     
H    1.75887531e+00      -1.12297394e+00     -3.77441755e-01     
C    7.70631151e-01      -6.30505131e-01     -2.22456042e+00     
O    -3.91915344e-01     -5.94549364e-01     -2.56743982e+00     
O    1.80940495e+00      -9.50366558e-01     -2.99152456e+00     
H    1.46964475e+00      -1.14006916e+00     -3.88571014e+00     
O    -1.28533569e+00     -2.38427415e+00     -1.90054655e-01     
H    -1.77039801e+00     -2.96367931e+00     4.05521645e-01      
H    -1.76700887e+00     -2.40956041e+00     -1.02666731e+00     
O    1.01287798e+00      1.12219815e+00      2.31021136e+00      
H    1.37567302e+00      6.02749753e-01      3.03410970e+00      
H    8.77419373e-01      2.00218473e+00      2.67461400e+00      
17
326.274069
N    1.18795770e-02      4.29811725e-04      -2.19911856e-02     
H    -5.46163072e-01     -8.78690086e-01     8.51674454e-02      
H    -5.90182890e-01     6.46015440e-01      -5.35143240e-01     
H    2.76613688e-01      4.11567303e-01      8.98736960e-01      
C    1.22363258e+00      -2.88615597e-01     -8.23495700e-01     
H    1.87721824e+00      5.81147249e-01      -8.33399397e-01     
H    1.75828832e+00      -1.12352036e+00     -3.78410667e-01     
C    7.69973617e-01      -6.30090497e-01     -2.22468938e+00     
O    -3.92296089e-01     -5.94786478e-01     -2.56830884e+00     
O    1.80942426e+00      -9.50382218e-01     -2.99075833e+00     
H    1.47041225e+00      -1.14047244e+00     -3.88513768e+00     
O    -1.28638531e+00     -2.38397341e+00     -1.90016723e-01     
H    -1.76657402e+00     -2.96678293e+00     4.05810300e-01      
H    -1.75925481e+00     -2.42223664e+00     -1.02968568e+00     
O    1.01267779e+00      1.12092935e+00      2.30970250e+00      
H    1.37790303e+00      6.11004113e-01      3.03838820e+00      
H    8.72725086e-01      2.00340685e+00      2.66489218e+00      
17
326.274069
N    1.31705924e-02      1.51226575e-03      -2.07687943e-02     
H    -5.47984040e-01     -8.75888448e-01     8.26161031e-02      
H    -5.86240990e-01     6.52544911e-01      -5.29552273e-01     
H    2.80026791e-01      4.07135687e-01      9.01707576e-01      
C    1.22359921e+00      -2.88416699e-01     -8.23772447e-01     
H    1.87825031e+00      5.80531086e-01      -8.33888451e-01     
H    1.75770134e+00      -1.12406679e+00     -3.79379578e-01     
C    7.69316083e-01      -6.29675863e-01     -2.22481834e+00     
O    -3.92676833e-01     -5.95023593e-01     -2.56917787e+00     
O    1.80944357e+00      -9.50397879e-01     -2.98999210e+00     
H    1.47117976e+00      -1.14087571e+00     -3.88456522e+00     
O    -1.28743493e+00     -2.38367266e+00     -1.89978791e-01     
H    -1.76275004e+00     -2.96988656e+00     4.06098954e-01      
H    -1.75150075e+00     -2.43491288e+00     -1.03270406e+00     
O    1.01247760e+00      1.11966055e+00      2.30919364e+00      
H    1.38013305e+00      6.19258474e-01      3.04266670e+00      
H    8.68030800e-01      2.00462896e+00      2.65517037e+00      
17
326.274069
N    1.44616079e-02      2.59471978e-03      -1.95464029e-02     
H    -5.49805007e-01     -8.73086810e-01     8.00647607e-02      
H    -5.82299091e-01     6.59074382e-01      -5.23961306e-01     
H    2.83439893e-01      4.02704071e-01      9.04678191e-01      
C    1.22356583e+00      -2.88217800e-01     -8.24049194e-01     
H    1.87928238e+00      5.79914923e-01      -8.34377505e-01     
H    1.75711435e+00      -1.12461322e+00     -3.80348489e-01     
C    7.68658549e-01      -6.29261229e-01     -2.22494729e+00     
O    -3.93057577e-01     -5.95260707e-01     -2.57004689e+00     
O    1.80946288e+00      -9.50413540e-01     -2.98922587e+00     
H    1.47194727e+00      -1.14127899e+00     -3.88399277e+00     
O    -1.28848455e+00     -2.38337192e+00     -1.89940859e-01     
H    -1.75892605e+00     -2.97299019e+00     4.06387608e-01      
H    -1.74374669e+00     -2.44758912e+00     -1.03572243e+00     
O    1.01227741e+00      1.11839175e+00      2.30868478e+00      
H    1.38236307e+00      6.27512834e-01      3.04694520e+00      
H    8.63336513e-01      2.00585108e+00      2.64544856e+00      
17
326.274069
N    1.51071156e-02      3.13594680e-03      -1.89352073e-02     
H    -5.50715491e-01     -8.71685991e-01     7.87890895e-02      
H    -5.80328142e-01     6.62339117e-01      -5.21165823e-01     
H    2.85146445e-01      4.00488263e-01      9.06163499e-01      
C    1.22354914e+00      -2.88118350e-01     -8.24187567e-01     
H    1.87979842e+00      5.79606842e-01      -8.34622032e-01     
H    1.75682086e+00      -1.12488643e+00     -3.80832944e-01     
C    7.68329782e-01      -6.29053912e-01     -2.22501177e+00     
O    -3.93247949e-01     -5.95379264e-01     -2.57048140e+00     
O    1.80947253e+00      -9.50421370e-01     -2.98884275e+00     
H    1.47233102e+00      -1.14148063e+00     -3.88370654e+00     
O    -1.28900936e+00     -2.38322155e+00     -1.89921893e-01     
H    -1.75701406e+00     -2.97454200e+00     4.06531935e-01      
H    -1.73986966e+00     -2.45392724e+00     -1.03723161e+00     
O    1.01217731e+00      1.11775735e+00      2.30843035e+00      
H    1.38347808e+00      6.31640014e-01      3.04908445e+00      
H    8.60989370e-01      2.00646214e+00      2.64058765e+00      
17
326.274069
N    1.57526233e-02      3.67717381e-03      -1.83240116e-02     
H    -5.51625975e-01     -8.70285171e-01     7.75134184e-02      
H    -5.78357192e-01     6.65603853e-01      -5.18370340e-01     
H    2.86852996e-01      3.98272455e-01      9.07648807e-01      
C    1.22353245e+00      -2.88018901e-01     -8.24325940e-01     
H    1.88031446e+00      5.79298760e-01      -8.34866558e-01     
H    1.75652737e+00      -1.12515964e+00     -3.81317400e-01     
C    7.68001015e-01      -6.28846595e-01     -2.22507625e+00     
O    -3.93438322e-01     -5.95497822e-01     -2.57091592e+00     
O    1.80948218e+00      -9.50429200e-01     -2.98845964e+00     
H    1.47271477e+00      -1.14168227e+00     -3.88342031e+00     
O    -1.28953417e+00     -2.38307117e+00     -1.89902927e-01     
H    -1.75510207e+00     -2.97609381e+00     4.06676262e-01      
H    -1.73599263e+00     -2.46026536e+00     -1.03874080e+00     
O    1.01207722e+00      1.11712295e+00      2.30817592e+00      
H    1.38459308e+00      6.35767195e-01      3.05122370e+00      
H    8.58642227e-01      2.00707319e+00      2.63572674e+00      
17
326.274069
N    1.83346543e-02      5.84208187e-03      -1.58792290e-02     
H    -5.55267909e-01     -8.64681895e-01     7.24107336e-02      
H    -5.70473394e-01     6.78662795e-01      -5.07188406e-01     
H    2.93679202e-01      3.89409223e-01      9.13590037e-01      
C    1.22346569e+00      -2.87621103e-01     -8.24879434e-01     
H    1.88237860e+00      5.78066434e-01      -8.35844666e-01     
H    1.75535339e+00      -1.12625250e+00     -3.83255222e-01     
C    7.66685947e-01      -6.28017327e-01     -2.22533417e+00     
O    -3.94199810e-01     -5.95972050e-01     -2.57265396e+00     
O    1.80952080e+00      -9.50460522e-01     -2.98692718e+00     
H    1.47424979e+00      -1.14248883e+00     -3.88227539e+00     
O    -1.29163341e+00     -2.38246969e+00     -1.89827063e-01     
H    -1.74745409e+00     -2.98230107e+00     4.07253570e-01      
H    -1.72048451e+00     -2.48561784e+00     -1.04477754e+00     
O    1.01167684e+00      1.11458535e+00      2.30715820e+00      
H    1.38905312e+00      6.52275915e-01      3.05978070e+00      
H    8.49253653e-01      2.00951743e+00      2.61628312e+00      
17
326.274069
N    1.89801620e-02      6.38330888e-03      -1.52680333e-02     
H    -5.56178393e-01     -8.63281075e-01     7.11350625e-02      
H    -5.68502444e-01     6.81927531e-01      -5.04392923e-01     
H    2.95385753e-01      3.87193415e-01      9.15075345e-01      
C    1.22344900e+00      -2.87521654e-01     -8.25017807e-01     
H    1.88289464e+00      5.77758352e-01      -8.36089192e-01     
H    1.75505990e+00      -1.12652571e+00     -3.83739678e-01     
C    7.66357180e-01      -6.27810010e-01     -2.22539865e+00     
O    -3.94390183e-01     -5.96090608e-01     -2.57308848e+00     
O    1.80953045e+00      -9.50468352e-01     -2.98654407e+00     
H    1.47463354e+00      -1.14269047e+00     -3.88198916e+00     
O    -1.29215822e+00     -2.38231931e+00     -1.89808097e-01     
H    -1.74554210e+00     -2.98385288e+00     4.07397897e-01      
H    -1.71660748e+00     -2.49195596e+00     -1.04628673e+00     
O    1.01157675e+00      1.11395095e+00      2.30690377e+00      
H    1.39016812e+00      6.56403096e-01      3.06191995e+00      
H    8.46906510e-01      2.01012848e+00      2.61142221e+00      
17
326.274069
N    1.96256697e-02      6.92453590e-03      -1.46568377e-02     
H    -5.57088877e-01     -8.61880256e-01     6.98593913e-02      
H    -5.66531495e-01     6.85192266e-01      -5.01597440e-01     
H    2.97092305e-01      3.84977607e-01      9.16560653e-01      
C    1.22343231e+00      -2.87422204e-01     -8.25156180e-01     
H    1.88341068e+00      5.77450271e-01      -8.36333719e-01     
H    1.75476641e+00      -1.12679892e+00     -3.84224133e-01     
C    7.66028413e-01      -6.27602693e-01     -2.22546313e+00     
O    -3.94580555e-01     -5.96209165e-01     -2.57352299e+00     
O    1.80954010e+00      -9.50476182e-01     -2.98616095e+00     
H    1.47501729e+00      -1.14289211e+00     -3.88170293e+00     
O    -1.29268303e+00     -2.38216894e+00     -1.89789131e-01     
H    -1.74363011e+00     -2.98540469e+00     4.07542224e-01      
H    -1.71273045e+00     -2.49829408e+00     -1.04779591e+00     
O    1.01147665e+00      1.11331655e+00      2.30664934e+00      
H    1.39128313e+00      6.60530276e-01      3.06405920e+00      
H    8.44559367e-01      2.01073954e+00      2.60656130e+00      
17
326.274069
N    2.09166852e-02      8.00698993e-03      -1.34344463e-02     
H    -5.58909844e-01     -8.59078618e-01     6.73080489e-02      
H    -5.62589596e-01     6.91721737e-01      -4.96006473e-01     
H    3.00505407e-01      3.80545991e-01      9.19531268e-01      
C    1.22339893e+00      -2.87223305e-01     -8.25432927e-01     
H    1.88444275e+00      5.76834108e-01      -8.36822773e-01     
H    1.75417942e+00      -1.12734535e+00     -3.85193044e-01     
C    7.65370879e-01      -6.27188059e-01     -2.22559208e+00     
O    -3.94961299e-01     -5.96446279e-01     -2.57439201e+00     
O    1.80955941e+00      -9.50491843e-01     -2.98539472e+00     
H    1.47578480e+00      -1.14329539e+00     -3.88113048e+00     
O    -1.29373265e+00     -2.38186820e+00     -1.89751199e-01     
H    -1.73980612e+00     -2.98850832e+00     4.07830878e-01      
H    -1.70497639e+00     -2.51097032e+00     -1.05081428e+00     
O    1.01127646e+00      1.11204775e+00      2.30614048e+00      
H    1.39351315e+00      6.68784636e-01      3.06833770e+00      
H    8.39865080e-01      2.01196166e+00      2.59683949e+00      
17
326.274069
N    2.22077006e-02      9.08944396e-03      -1.22120550e-02     
H    -5.60730812e-01     -8.56276980e-01     6.47567066e-02      
H    -5.58647696e-01     6.98251208e-01      -4.90415506e-01     
H    3.03918510e-01      3.76114375e-01      9.22501884e-01      
C    1.22336556e+00      -2.87024407e-01     -8.25709674e-01     
H    1.88547482e+00      5.76217945e-01      -8.37311827e-01     
H    1.75359244e+00      -1.12789178e+00     -3.86161955e-01     
C    7.64713345e-01      -6.26773425e-01     -2.22572104e+00     
O    -3.95342043e-01     -5.96683394e-01     -2.57526104e+00     
O    1.80957872e+00      -9.50507504e-01     -2.98462849e+00     
H    1.47655231e+00      -1.14369866e+00     -3.88055802e+00     
O    -1.29478227e+00     -2.38156745e+00     -1.89713267e-01     
H    -1.73598214e+00     -2.99161195e+00     4.08119532e-01      
H    -1.69722233e+00     -2.52364656e+00     -1.05383266e+00     
O    1.01107627e+00      1.11077895e+00      2.30563162e+00      
H    1.39574317e+00      6.77038997e-01      3.07261620e+00      
H    8.35170794e-01      2.01318377e+00      2.58711768e+00      
17
326.274069
N    2.34987161e-02      1.01718980e-02      -1.09896637e-02     
H    -5.62551779e-01     -8.53475341e-01     6.22053642e-02      
H    -5.54705797e-01     7.04780679e-01      -4.84824540e-01     
H    3.07331613e-01      3.71682759e-01      9.25472499e-01      
C    1.22333218e+00      -2.86825508e-01     -8.25986420e-01     
H    1.88650690e+00      5.75601782e-01      -8.37800880e-01     
H    1.75300545e+00      -1.12843820e+00     -3.87130867e-01     
C    7.64055811e-01      -6.26358791e-01     -2.22585000e+00     
O    -3.95722788e-01     -5.96920508e-01     -2.57613006e+00     
O    1.80959803e+00      -9.50523164e-01     -2.98386226e+00     
H    1.47731981e+00      -1.14410194e+00     -3.87998556e+00     
O    -1.29583189e+00     -2.38126671e+00     -1.89675335e-01     
H    -1.73215815e+00     -2.99471557e+00     4.08408187e-01      
H    -1.68946827e+00     -2.53632279e+00     -1.05685103e+00     
O    1.01087608e+00      1.10951015e+00      2.30512276e+00      
H    1.39797318e+00      6.85293357e-01      3.07689470e+00      
H    8.30476507e-01      2.01440589e+00      2.57739586e+00      
17
326.274069
N    2.47897315e-02      1.12543520e-02      -9.76727238e-03     
H    -5.64372747e-01     -8.50673703e-01     5.96540218e-02      
H    -5.50763898e-01     7.11310150e-01      -4.79233573e-01     
H    3.10744716e-01      3.67251143e-01      9.28443115e-01      
C    1.22329880e+00      -2.86626609e-01     -8.26263167e-01     
H    1.88753897e+00      5.74985619e-01      -8.38289934e-01     
H    1.75241847e+00      -1.12898463e+00     -3.88099778e-01     
C    7.63398277e-01      -6.25944157e-01     -2.22597896e+00     
O    -3.96103532e-01     -5.97157623e-01     -2.57699909e+00     
O    1.80961733e+00      -9.50538825e-01     -2.98309603e+00     
H    1.47808732e+00      -1.14450522e+00     -3.87941310e+00     
O    -1.29688151e+00     -2.38096597e+00     -1.89637403e-01     
H    -1.72833417e+00     -2.99781920e+00     4.08696841e-01      
H    -1.68171421e+00     -2.54899903e+00     -1.05986940e+00     
O    1.01067589e+00      1.10824135e+00      2.30461391e+00      
H    1.40020320e+00      6.93547718e-01      3.08117320e+00      
H    8.25782221e-01      2.01562800e+00      2.56767405e+00      
17
326.274069
N    2.73717624e-02      1.34192601e-02      -7.32248974e-03     
H    -5.68014682e-01     -8.45070426e-01     5.45513371e-02      
H    -5.42880100e-01     7.24369092e-01      -4.68051640e-01     
H    3.17570921e-01      3.58387911e-01      9.34384345e-01      
C    1.22323204e+00      -2.86228811e-01     -8.26816660e-01     
H    1.88960312e+00      5.73753293e-01      -8.39268041e-01     
H    1.75124450e+00      -1.13007748e+00     -3.90037600e-01     
C    7.62083209e-01      -6.25114889e-01     -2.22623687e+00     
O    -3.96865021e-01     -5.97631852e-01     -2.57873713e+00     
O    1.80965595e+00      -9.50570146e-01     -2.98156357e+00     
H    1.47962233e+00      -1.14531178e+00     -3.87826818e+00     
O    -1.29898075e+00     -2.38036448e+00     -1.89561539e-01     
H    -1.72068620e+00     -3.00402645e+00     4.09274149e-01      
H    -1.66620609e+00     -2.57435151e+00     -1.06590614e+00     
O    1.01027551e+00      1.10570376e+00      2.30359619e+00      
H    1.40466323e+00      7.10056439e-01      3.08973021e+00      
H    8.16393648e-01      2.01807223e+00      2.54823042e+00      
