17
1124.755931
N    4.45201211e-03      1.03357441e-02      -2.62536088e-02     
H    -5.22296986e-01     -8.83240558e-01     1.15219750e-01      
H    -6.54387560e-01     6.87377837e-01      -4.22474673e-01     
H    3.47297350e-01      3.65436853e-01      8.95717182e-01      
C    1.24342155e+00      -3.05596076e-01     -8.26155116e-01     
H    1.87886906e+00      5.79043877e-01      -8.66849166e-01     
H    1.76509461e+00      -1.09216369e+00     -2.73722680e-01     
C    7.70642646e-01      -6.15584250e-01     -2.23595469e+00     
O    -3.90309234e-01     -5.98603342e-01     -2.57114202e+00     
O    1.79641412e+00      -9.49147812e-01     -2.98164475e+00     
H    1.52057557e+00      -1.15429264e+00     -3.89490349e+00     
O    -1.29084389e+00     -2.38242538e+00     -1.90814619e-01     
H    -1.74892652e+00     -2.97464485e+00     4.11621843e-01      
H    -1.72906162e+00     -2.47573162e+00     -1.04187058e+00     
O    1.01135450e+00      1.11644908e+00      2.30750648e+00      
H    1.38528903e+00      6.40848958e-01      3.05329328e+00      
H    8.54854219e-01      2.00815029e+00      2.62805093e+00      
17
1124.755931
N    7.59991879e-03      8.94171503e-03      -2.39656117e-02     
H    -5.30084475e-01     -8.79301302e-01     1.05155332e-01      
H    -6.34394493e-01     6.83566709e-01      -4.45050848e-01     
H    3.33039537e-01      3.72537850e-01      8.99442742e-01      
C    1.23844093e+00      -3.01152058e-01     -8.25767009e-01     
H    1.87948843e+00      5.78953557e-01      -8.58975777e-01     
H    1.76280605e+00      -1.10054929e+00     -3.00863587e-01     
C    7.69817854e-01      -6.18796178e-01     -2.23326732e+00     
O    -3.91186692e-01     -5.97886240e-01     -2.57130275e+00     
O    1.79968596e+00      -9.49472075e-01     -2.98315691e+00     
H    1.50880225e+00      -1.15124087e+00     -3.89188958e+00     
O    -1.29077886e+00     -2.38251164e+00     -1.90577213e-01     
H    -1.74951441e+00     -2.97578300e+00     4.10457611e-01      
H    -1.72885585e+00     -2.47503411e+00     -1.04184273e+00     
O    1.01148513e+00      1.11630035e+00      2.30754662e+00      
H    1.38567255e+00      6.41642107e-01      3.05384551e+00      
H    8.54627649e-01      2.00818654e+00      2.62753943e+00      
17
1124.755931
N    9.17387212e-03      8.24470050e-03      -2.28216131e-02     
H    -5.33978219e-01     -8.77331673e-01     1.00123123e-01      
H    -6.24397960e-01     6.81661145e-01      -4.56338935e-01     
H    3.25910631e-01      3.76088348e-01      9.01305522e-01      
C    1.23595062e+00      -2.98930048e-01     -8.25572955e-01     
H    1.87979811e+00      5.78908397e-01      -8.55039083e-01     
H    1.76166177e+00      -1.10474209e+00     -3.14434041e-01     
C    7.69405459e-01      -6.20402141e-01     -2.23192364e+00     
O    -3.91625421e-01     -5.97527690e-01     -2.57138312e+00     
O    1.80132188e+00      -9.49634206e-01     -2.98391299e+00     
H    1.50291558e+00      -1.14971498e+00     -3.89038263e+00     
O    -1.29074635e+00     -2.38255477e+00     -1.90458510e-01     
H    -1.74980835e+00     -2.97635207e+00     4.09875495e-01      
H    -1.72875297e+00     -2.47468536e+00     -1.04182880e+00     
O    1.01155045e+00      1.11622598e+00      2.30756670e+00      
H    1.38586431e+00      6.42038682e-01      3.05412163e+00      
H    8.54514364e-01      2.00820467e+00      2.62728368e+00      
17
1124.755931
N    1.07478255e-02      7.54768597e-03      -2.16776146e-02     
H    -5.37871964e-01     -8.75362045e-01     9.50909132e-02      
H    -6.14401426e-01     6.79755581e-01      -4.67627023e-01     
H    3.18781724e-01      3.79638846e-01      9.03168302e-01      
C    1.23346031e+00      -2.96708039e-01     -8.25378902e-01     
H    1.88010779e+00      5.78863237e-01      -8.51102389e-01     
H    1.76051749e+00      -1.10893488e+00     -3.28004495e-01     
C    7.68993063e-01      -6.22008105e-01     -2.23057995e+00     
O    -3.92064150e-01     -5.97169139e-01     -2.57146348e+00     
O    1.80295781e+00      -9.49796337e-01     -2.98466908e+00     
H    1.49702892e+00      -1.14818910e+00     -3.88887567e+00     
O    -1.29071384e+00     -2.38259790e+00     -1.90339807e-01     
H    -1.75010230e+00     -2.97692115e+00     4.09293379e-01      
H    -1.72865009e+00     -2.47433661e+00     -1.04181488e+00     
O    1.01161576e+00      1.11615162e+00      2.30758677e+00      
H    1.38605606e+00      6.42435257e-01      3.05439774e+00      
H    8.54401079e-01      2.00822280e+00      2.62702793e+00      
17
1124.755931
N    1.23217788e-02      6.85067143e-03      -2.05336160e-02     
H    -5.41765708e-01     -8.73392417e-01     9.00587039e-02      
H    -6.04404893e-01     6.77850017e-01      -4.78915110e-01     
H    3.11652818e-01      3.83189344e-01      9.05031082e-01      
C    1.23097000e+00      -2.94486030e-01     -8.25184848e-01     
H    1.88041748e+00      5.78818077e-01      -8.47165695e-01     
H    1.75937321e+00      -1.11312768e+00     -3.41574949e-01     
C    7.68580668e-01      -6.23614069e-01     -2.22923627e+00     
O    -3.92502879e-01     -5.96810588e-01     -2.57154385e+00     
O    1.80459373e+00      -9.49958468e-01     -2.98542516e+00     
H    1.49114226e+00      -1.14666321e+00     -3.88736872e+00     
O    -1.29068133e+00     -2.38264104e+00     -1.90221104e-01     
H    -1.75039624e+00     -2.97749022e+00     4.08711263e-01      
H    -1.72854721e+00     -2.47398786e+00     -1.04180095e+00     
O    1.01168108e+00      1.11607725e+00      2.30760684e+00      
H    1.38624782e+00      6.42831831e-01      3.05467386e+00      
H    8.54287795e-01      2.00824093e+00      2.62677218e+00      
17
1124.755931
N    1.38957321e-02      6.15365690e-03      -1.93896174e-02     
H    -5.45659453e-01     -8.71422789e-01     8.50264946e-02      
H    -5.94408360e-01     6.75944452e-01      -4.90203198e-01     
H    3.04523912e-01      3.86739843e-01      9.06893862e-01      
C    1.22847969e+00      -2.92264021e-01     -8.24990794e-01     
H    1.88072716e+00      5.78772917e-01      -8.43229000e-01     
H    1.75822894e+00      -1.11732048e+00     -3.55145403e-01     
C    7.68168272e-01      -6.25220033e-01     -2.22789258e+00     
O    -3.92941608e-01     -5.96452037e-01     -2.57162421e+00     
O    1.80622965e+00      -9.50120599e-01     -2.98618124e+00     
H    1.48525560e+00      -1.14513732e+00     -3.88586176e+00     
O    -1.29064881e+00     -2.38268417e+00     -1.90102401e-01     
H    -1.75069019e+00     -2.97805929e+00     4.08129148e-01      
H    -1.72844433e+00     -2.47363910e+00     -1.04178702e+00     
O    1.01174640e+00      1.11600288e+00      2.30762691e+00      
H    1.38643958e+00      6.43228406e-01      3.05494997e+00      
H    8.54174510e-01      2.00825905e+00      2.62651643e+00      
17
1124.755931
N    1.46827088e-02      5.80514964e-03      -1.88176181e-02     
H    -5.47606325e-01     -8.70437975e-01     8.25103900e-02      
H    -5.89410093e-01     6.74991670e-01      -4.95847242e-01     
H    3.00959458e-01      3.88515092e-01      9.07825252e-01      
C    1.22723454e+00      -2.91153016e-01     -8.24893767e-01     
H    1.88088200e+00      5.78750337e-01      -8.41260653e-01     
H    1.75765680e+00      -1.11941687e+00     -3.61930630e-01     
C    7.67962074e-01      -6.26023015e-01     -2.22722074e+00     
O    -3.93160972e-01     -5.96272762e-01     -2.57166439e+00     
O    1.80704761e+00      -9.50201664e-01     -2.98655929e+00     
H    1.48231227e+00      -1.14437438e+00     -3.88510828e+00     
O    -1.29063256e+00     -2.38270573e+00     -1.90043049e-01     
H    -1.75083716e+00     -2.97834383e+00     4.07838090e-01      
H    -1.72839289e+00     -2.47346473e+00     -1.04178006e+00     
O    1.01177906e+00      1.11596570e+00      2.30763695e+00      
H    1.38653546e+00      6.43426693e-01      3.05508803e+00      
H    8.54117867e-01      2.00826812e+00      2.62638856e+00      
17
1124.755931
N    1.54696855e-02      5.45664237e-03      -1.82456189e-02     
H    -5.49553197e-01     -8.69453161e-01     7.99942853e-02      
H    -5.84411826e-01     6.74038888e-01      -5.01491285e-01     
H    2.97395005e-01      3.90290341e-01      9.08756642e-01      
C    1.22598938e+00      -2.90042011e-01     -8.24796741e-01     
H    1.88103685e+00      5.78727757e-01      -8.39292306e-01     
H    1.75708466e+00      -1.12151327e+00     -3.68715857e-01     
C    7.67755877e-01      -6.26825997e-01     -2.22654890e+00     
O    -3.93380337e-01     -5.96093487e-01     -2.57170458e+00     
O    1.80786557e+00      -9.50282730e-01     -2.98693733e+00     
H    1.47936894e+00      -1.14361144e+00     -3.88435481e+00     
O    -1.29061630e+00     -2.38272730e+00     -1.89983698e-01     
H    -1.75098413e+00     -2.97862837e+00     4.07547032e-01      
H    -1.72834145e+00     -2.47329035e+00     -1.04177310e+00     
O    1.01181171e+00      1.11592852e+00      2.30764699e+00      
H    1.38663134e+00      6.43624980e-01      3.05522609e+00      
H    8.54061225e-01      2.00827718e+00      2.62626068e+00      
17
1124.755931
N    1.86175921e-02      4.06261331e-03      -1.59576217e-02     
H    -5.57340687e-01     -8.65513905e-01     6.99298667e-02      
H    -5.64418760e-01     6.70227760e-01      -5.24067461e-01     
H    2.83137193e-01      3.97391337e-01      9.12482202e-01      
C    1.22100876e+00      -2.85597993e-01     -8.24408633e-01     
H    1.88165621e+00      5.78637437e-01      -8.31418918e-01     
H    1.75479610e+00      -1.12989887e+00     -3.95856765e-01     
C    7.66931085e-01      -6.30037925e-01     -2.22386152e+00     
O    -3.94257795e-01     -5.95376385e-01     -2.57186530e+00     
O    1.81113741e+00      -9.50606992e-01     -2.98844949e+00     
H    1.46759562e+00      -1.14055966e+00     -3.88134089e+00     
O    -1.29055128e+00     -2.38281356e+00     -1.89746292e-01     
H    -1.75157203e+00     -2.97976651e+00     4.06382800e-01      
H    -1.72813569e+00     -2.47259285e+00     -1.04174524e+00     
O    1.01194235e+00      1.11577978e+00      2.30768713e+00      
H    1.38701486e+00      6.44418130e-01      3.05577831e+00      
H    8.53834655e-01      2.00831344e+00      2.62574918e+00      
17
1124.755931
N    1.94045688e-02      3.71410604e-03      -1.53856225e-02     
H    -5.59287559e-01     -8.64529091e-01     6.74137620e-02      
H    -5.59420493e-01     6.69274978e-01      -5.29711504e-01     
H    2.79572740e-01      3.99166586e-01      9.13413592e-01      
C    1.21976360e+00      -2.84486988e-01     -8.24311607e-01     
H    1.88181106e+00      5.78614857e-01      -8.29450571e-01     
H    1.75422396e+00      -1.13199527e+00     -4.02641992e-01     
C    7.66724888e-01      -6.30840907e-01     -2.22318968e+00     
O    -3.94477160e-01     -5.95197110e-01     -2.57190549e+00     
O    1.81195537e+00      -9.50688058e-01     -2.98882753e+00     
H    1.46465229e+00      -1.13979672e+00     -3.88058742e+00     
O    -1.29053502e+00     -2.38283513e+00     -1.89686941e-01     
H    -1.75171900e+00     -2.98005105e+00     4.06091742e-01      
H    -1.72808425e+00     -2.47241847e+00     -1.04173828e+00     
O    1.01197500e+00      1.11574260e+00      2.30769717e+00      
H    1.38711074e+00      6.44616417e-01      3.05591637e+00      
H    8.53778013e-01      2.00832250e+00      2.62562130e+00      
17
1124.755931
N    2.01915455e-02      3.36559878e-03      -1.48136232e-02     
H    -5.61234431e-01     -8.63544277e-01     6.48976574e-02      
H    -5.54422226e-01     6.68322196e-01      -5.35355548e-01     
H    2.76008286e-01      4.00941835e-01      9.14344982e-01      
C    1.21851845e+00      -2.83375983e-01     -8.24214580e-01     
H    1.88196590e+00      5.78592277e-01      -8.27482224e-01     
H    1.75365182e+00      -1.13409166e+00     -4.09427219e-01     
C    7.66518690e-01      -6.31643889e-01     -2.22251784e+00     
O    -3.94696524e-01     -5.95017835e-01     -2.57194567e+00     
O    1.81277333e+00      -9.50769123e-01     -2.98920558e+00     
H    1.46170896e+00      -1.13903378e+00     -3.87983394e+00     
O    -1.29051877e+00     -2.38285669e+00     -1.89627589e-01     
H    -1.75186597e+00     -2.98033559e+00     4.05800684e-01      
H    -1.72803281e+00     -2.47224410e+00     -1.04173132e+00     
O    1.01200766e+00      1.11570542e+00      2.30770721e+00      
H    1.38720662e+00      6.44814704e-01      3.05605443e+00      
H    8.53721370e-01      2.00833157e+00      2.62549343e+00      
17
1124.755931
N    2.17654988e-02      2.66858425e-03      -1.36696246e-02     
H    -5.65128176e-01     -8.61574649e-01     5.98654481e-02      
H    -5.44425693e-01     6.66416631e-01      -5.46643636e-01     
H    2.68879380e-01      4.04492334e-01      9.16207762e-01      
C    1.21602814e+00      -2.81153974e-01     -8.24020526e-01     
H    1.88227558e+00      5.78547117e-01      -8.23545529e-01     
H    1.75250755e+00      -1.13828446e+00     -4.22997673e-01     
C    7.66106294e-01      -6.33249853e-01     -2.22117415e+00     
O    -3.95135253e-01     -5.94659284e-01     -2.57202603e+00     
O    1.81440925e+00      -9.50931254e-01     -2.98996166e+00     
H    1.45582230e+00      -1.13750789e+00     -3.87832698e+00     
O    -1.29048625e+00     -2.38289982e+00     -1.89508886e-01     
H    -1.75215992e+00     -2.98090466e+00     4.05218569e-01      
H    -1.72792993e+00     -2.47189534e+00     -1.04171739e+00     
O    1.01207298e+00      1.11563105e+00      2.30772728e+00      
H    1.38739838e+00      6.45211279e-01      3.05633054e+00      
H    8.53608085e-01      2.00834969e+00      2.62523768e+00      
17
1124.755931
N    2.33394521e-02      1.97156971e-03      -1.25256260e-02     
H    -5.69021920e-01     -8.59605021e-01     5.48332388e-02      
H    -5.34429160e-01     6.64511067e-01      -5.57931723e-01     
H    2.61750474e-01      4.08042832e-01      9.18070542e-01      
C    1.21353783e+00      -2.78931965e-01     -8.23826472e-01     
H    1.88258527e+00      5.78501957e-01      -8.19608835e-01     
H    1.75136327e+00      -1.14247726e+00     -4.36568127e-01     
C    7.65693899e-01      -6.34855817e-01     -2.21983047e+00     
O    -3.95573982e-01     -5.94300733e-01     -2.57210640e+00     
O    1.81604517e+00      -9.51093385e-01     -2.99071774e+00     
H    1.44993564e+00      -1.13598200e+00     -3.87682003e+00     
O    -1.29045374e+00     -2.38294296e+00     -1.89390183e-01     
H    -1.75245386e+00     -2.98147373e+00     4.04636453e-01      
H    -1.72782705e+00     -2.47154659e+00     -1.04170346e+00     
O    1.01213830e+00      1.11555668e+00      2.30774735e+00      
H    1.38759014e+00      6.45607853e-01      3.05660666e+00      
H    8.53494801e-01      2.00836782e+00      2.62498193e+00      
17
1124.755931
N    2.49134055e-02      1.27455518e-03      -1.13816275e-02     
H    -5.72915665e-01     -8.57635393e-01     4.98010295e-02      
H    -5.24432626e-01     6.62605503e-01      -5.69219811e-01     
H    2.54621567e-01      4.11593330e-01      9.19933322e-01      
C    1.21104752e+00      -2.76709956e-01     -8.23632419e-01     
H    1.88289495e+00      5.78456797e-01      -8.15672141e-01     
H    1.75021899e+00      -1.14667005e+00     -4.50138581e-01     
C    7.65281503e-01      -6.36461781e-01     -2.21848678e+00     
O    -3.96012711e-01     -5.93942182e-01     -2.57218676e+00     
O    1.81768110e+00      -9.51255516e-01     -2.99147383e+00     
H    1.44404898e+00      -1.13445612e+00     -3.87531307e+00     
O    -1.29042123e+00     -2.38298609e+00     -1.89271480e-01     
H    -1.75274781e+00     -2.98204281e+00     4.04054337e-01      
H    -1.72772417e+00     -2.47119784e+00     -1.04168954e+00     
O    1.01220361e+00      1.11548232e+00      2.30776742e+00      
H    1.38778189e+00      6.46004428e-01      3.05688277e+00      
H    8.53381516e-01      2.00838595e+00      2.62472618e+00      
17
1124.755931
N    2.64873588e-02      5.77540651e-04      -1.02376289e-02     
H    -5.76809409e-01     -8.55665764e-01     4.47688201e-02      
H    -5.14436093e-01     6.60699939e-01      -5.80507898e-01     
H    2.47492661e-01      4.15143828e-01      9.21796102e-01      
C    1.20855721e+00      -2.74487946e-01     -8.23438365e-01     
H    1.88320463e+00      5.78411637e-01      -8.11735447e-01     
H    1.74907471e+00      -1.15086285e+00     -4.63709035e-01     
C    7.64869108e-01      -6.38067744e-01     -2.21714310e+00     
O    -3.96451440e-01     -5.93583632e-01     -2.57226713e+00     
O    1.81931702e+00      -9.51417647e-01     -2.99222991e+00     
H    1.43816231e+00      -1.13293023e+00     -3.87380612e+00     
O    -1.29038872e+00     -2.38302922e+00     -1.89152777e-01     
H    -1.75304175e+00     -2.98261188e+00     4.03472221e-01      
H    -1.72762129e+00     -2.47084909e+00     -1.04167561e+00     
O    1.01226893e+00      1.11540795e+00      2.30778750e+00      
H    1.38797365e+00      6.46401003e-01      3.05715889e+00      
H    8.53268231e-01      2.00840408e+00      2.62447043e+00      
17
1124.755931
N    2.96352655e-02      -8.16488412e-04     -7.94963180e-03     
H    -5.84596898e-01     -8.51726508e-01     3.47044015e-02      
H    -4.94443026e-01     6.56888811e-01      -6.03084073e-01     
H    2.33234848e-01      4.22244825e-01      9.25521662e-01      
C    1.20357659e+00      -2.70043928e-01     -8.23050258e-01     
H    1.88382400e+00      5.78321317e-01      -8.03862058e-01     
H    1.74678615e+00      -1.15924845e+00     -4.90849942e-01     
C    7.64044316e-01      -6.41279672e-01     -2.21445573e+00     
O    -3.97328898e-01     -5.92866530e-01     -2.57242786e+00     
O    1.82258886e+00      -9.51741910e-01     -2.99374207e+00     
H    1.42638899e+00      -1.12987846e+00     -3.87079221e+00     
O    -1.29032369e+00     -2.38311548e+00     -1.88915371e-01     
H    -1.75362964e+00     -2.98375003e+00     4.02307989e-01      
H    -1.72741552e+00     -2.47015158e+00     -1.04164776e+00     
O    1.01239956e+00      1.11525922e+00      2.30782764e+00      
H    1.38835717e+00      6.47194152e-01      3.05771112e+00      
H    8.53041661e-01      2.00844033e+00      2.62395893e+00      
