17
1154.936987
N    2.44840712e-02      1.28875491e-02      -1.48144313e-02     
H    -5.09019636e-01     -8.97040186e-01     1.02323268e-02      
H    -6.03065516e-01     6.43103509e-01      -5.18273571e-01     
H    2.30201561e-01      3.61397986e-01      9.48484641e-01      
C    1.21359154e+00      -2.98473656e-01     -8.17540643e-01     
H    1.89611111e+00      5.48469540e-01      -9.59470622e-01     
H    1.75655867e+00      -1.10843039e+00     -3.36886684e-01     
C    7.65320077e-01      -6.09729651e-01     -2.22039806e+00     
O    -4.01498327e-01     -5.98012885e-01     -2.57252689e+00     
O    1.82572398e+00      -9.55665007e-01     -2.99255665e+00     
H    1.40615399e+00      -1.13041100e+00     -3.86270286e+00     
O    -1.29103879e+00     -2.38314242e+00     -1.88914738e-01     
H    -1.75254848e+00     -2.98193019e+00     4.04367322e-01      
H    -1.72641677e+00     -2.46766644e+00     -1.04250629e+00     
O    1.01211943e+00      1.11621633e+00      2.30719899e+00      
H    1.38699197e+00      6.44358228e-01      3.05531994e+00      
H    8.55927072e-01      2.00809821e+00      2.62866328e+00      
17
1154.936987
N    2.26239631e-02      1.08555688e-02      -1.53862285e-02     
H    -5.20126462e-01     -8.89651023e-01     2.64147641e-02      
H    -5.95902960e-01     6.50360963e-01      -5.16900021e-01     
H    2.45217696e-01      3.69508699e-01      9.39018336e-01      
C    1.21606842e+00      -2.95810243e-01     -8.19306154e-01     
H    1.89241997e+00      5.56022804e-01      -9.28441870e-01     
H    1.75640410e+00      -1.11274931e+00     -3.48236591e-01     
C    7.65825928e-01      -6.14405228e-01     -2.22159985e+00     
O    -3.99578512e-01     -5.97443398e-01     -2.57234140e+00     
O    1.82166836e+00      -9.54359970e-01     -2.99134084e+00     
H    1.42298606e+00      -1.13332964e+00     -3.86773911e+00     
O    -1.29092504e+00     -2.38304942e+00     -1.89152302e-01     
H    -1.75223088e+00     -2.98124700e+00     4.05016720e-01      
H    -1.72687222e+00     -2.46898523e+00     -1.04231951e+00     
O    1.01205883e+00      1.11612578e+00      2.30731601e+00      
H    1.38694975e+00      6.44274060e-01      3.05536550e+00      
H    8.55432289e-01      2.00814749e+00      2.62799869e+00      
17
1154.936987
N    2.16939090e-02      9.83957864e-03      -1.56721271e-02     
H    -5.25679876e-01     -8.85956441e-01     3.45059827e-02      
H    -5.92321682e-01     6.53989690e-01      -5.16213247e-01     
H    2.52725763e-01      3.73564056e-01      9.34285184e-01      
C    1.21730686e+00      -2.94478536e-01     -8.20188909e-01     
H    1.89057439e+00      5.59799437e-01      -9.12927493e-01     
H    1.75632681e+00      -1.11490877e+00     -3.53911544e-01     
C    7.66078854e-01      -6.16743017e-01     -2.22220074e+00     
O    -3.98618604e-01     -5.97158654e-01     -2.57224866e+00     
O    1.81964055e+00      -9.53707452e-01     -2.99073293e+00     
H    1.43140210e+00      -1.13478895e+00     -3.87025723e+00     
O    -1.29086817e+00     -2.38300292e+00     -1.89271084e-01     
H    -1.75207208e+00     -2.98090541e+00     4.05341420e-01      
H    -1.72709994e+00     -2.46964463e+00     -1.04222612e+00     
O    1.01202853e+00      1.11608051e+00      2.30737452e+00      
H    1.38692864e+00      6.44231976e-01      3.05538828e+00      
H    8.55184898e-01      2.00817212e+00      2.62766640e+00      
17
1154.936987
N    2.07638550e-02      8.82358848e-03      -1.59580258e-02     
H    -5.31233289e-01     -8.82261859e-01     4.25972014e-02      
H    -5.88740404e-01     6.57618416e-01      -5.15526472e-01     
H    2.60233830e-01      3.77619412e-01      9.29552031e-01      
C    1.21854530e+00      -2.93146829e-01     -8.21071665e-01     
H    1.88872882e+00      5.63576069e-01      -8.97413117e-01     
H    1.75624953e+00      -1.11706823e+00     -3.59586497e-01     
C    7.66331779e-01      -6.19080806e-01     -2.22280163e+00     
O    -3.97658697e-01     -5.96873910e-01     -2.57215592e+00     
O    1.81761274e+00      -9.53054934e-01     -2.99012503e+00     
H    1.43981814e+00      -1.13624827e+00     -3.87277536e+00     
O    -1.29081129e+00     -2.38295643e+00     -1.89389866e-01     
H    -1.75191328e+00     -2.98056382e+00     4.05666119e-01      
H    -1.72732767e+00     -2.47030402e+00     -1.04213273e+00     
O    1.01199823e+00      1.11603524e+00      2.30743303e+00      
H    1.38690753e+00      6.44189892e-01      3.05541107e+00      
H    8.54937506e-01      2.00819676e+00      2.62733410e+00      
17
1154.936987
N    1.98338009e-02      7.80759832e-03      -1.62439244e-02     
H    -5.36786702e-01     -8.78567278e-01     5.06884200e-02      
H    -5.85159126e-01     6.61247143e-01      -5.14839697e-01     
H    2.67741897e-01      3.81674769e-01      9.24818879e-01      
C    1.21978374e+00      -2.91815122e-01     -8.21954420e-01     
H    1.88688325e+00      5.67352701e-01      -8.81898741e-01     
H    1.75617224e+00      -1.11922769e+00     -3.65261451e-01     
C    7.66584705e-01      -6.21418595e-01     -2.22340253e+00     
O    -3.96698789e-01     -5.96589167e-01     -2.57206317e+00     
O    1.81558492e+00      -9.52402416e-01     -2.98951712e+00     
H    1.44823417e+00      -1.13770759e+00     -3.87529348e+00     
O    -1.29075442e+00     -2.38290993e+00     -1.89508649e-01     
H    -1.75175448e+00     -2.98022222e+00     4.05990818e-01      
H    -1.72755539e+00     -2.47096342e+00     -1.04203934e+00     
O    1.01196793e+00      1.11598997e+00      2.30749153e+00      
H    1.38688643e+00      6.44147807e-01      3.05543385e+00      
H    8.54690115e-01      2.00822140e+00      2.62700181e+00      
17
1154.936987
N    1.89037469e-02      6.79160816e-03      -1.65298230e-02     
H    -5.42340115e-01     -8.74872696e-01     5.87796387e-02      
H    -5.81577849e-01     6.64875870e-01      -5.14152922e-01     
H    2.75249965e-01      3.85730126e-01      9.20085727e-01      
C    1.22102219e+00      -2.90483416e-01     -8.22837176e-01     
H    1.88503768e+00      5.71129333e-01      -8.66384365e-01     
H    1.75609495e+00      -1.12138715e+00     -3.70936404e-01     
C    7.66837630e-01      -6.23756383e-01     -2.22400342e+00     
O    -3.95738881e-01     -5.96304423e-01     -2.57197043e+00     
O    1.81355711e+00      -9.51749897e-01     -2.98890922e+00     
H    1.45665021e+00      -1.13916691e+00     -3.87781160e+00     
O    -1.29069754e+00     -2.38286343e+00     -1.89627431e-01     
H    -1.75159568e+00     -2.97988063e+00     4.06315517e-01      
H    -1.72778312e+00     -2.47162281e+00     -1.04194595e+00     
O    1.01193763e+00      1.11594469e+00      2.30755004e+00      
H    1.38686532e+00      6.44105723e-01      3.05545663e+00      
H    8.54442723e-01      2.00824604e+00      2.62666952e+00      
17
1154.936987
N    1.84387199e-02      6.28361308e-03      -1.66727724e-02     
H    -5.45116822e-01     -8.73025405e-01     6.28252480e-02      
H    -5.79787210e-01     6.66690234e-01      -5.13809535e-01     
H    2.79003998e-01      3.87757804e-01      9.17719151e-01      
C    1.22164141e+00      -2.89817562e-01     -8.23278554e-01     
H    1.88411489e+00      5.73017649e-01      -8.58627176e-01     
H    1.75605631e+00      -1.12246688e+00     -3.73773881e-01     
C    7.66964093e-01      -6.24925278e-01     -2.22430387e+00     
O    -3.95258927e-01     -5.96162051e-01     -2.57192406e+00     
O    1.81254321e+00      -9.51423638e-01     -2.98860527e+00     
H    1.46085823e+00      -1.13989657e+00     -3.87907066e+00     
O    -1.29066910e+00     -2.38284018e+00     -1.89686822e-01     
H    -1.75151628e+00     -2.97970983e+00     4.06477867e-01      
H    -1.72789698e+00     -2.47195251e+00     -1.04189926e+00     
O    1.01192248e+00      1.11592206e+00      2.30757930e+00      
H    1.38685476e+00      6.44084681e-01      3.05546803e+00      
H    8.54319027e-01      2.00825835e+00      2.62650337e+00      
17
1154.936987
N    1.79736928e-02      5.77561800e-03      -1.68157217e-02     
H    -5.47893529e-01     -8.71178115e-01     6.68708573e-02      
H    -5.77996571e-01     6.68504597e-01      -5.13466148e-01     
H    2.82758032e-01      3.89785482e-01      9.15352574e-01      
C    1.22226063e+00      -2.89151709e-01     -8.23719931e-01     
H    1.88319210e+00      5.74905965e-01      -8.50869988e-01     
H    1.75601767e+00      -1.12354661e+00     -3.76611358e-01     
C    7.67090556e-01      -6.26094172e-01     -2.22460432e+00     
O    -3.94778974e-01     -5.96019680e-01     -2.57187768e+00     
O    1.81152930e+00      -9.51097379e-01     -2.98830131e+00     
H    1.46506624e+00      -1.14062623e+00     -3.88032973e+00     
O    -1.29064067e+00     -2.38281693e+00     -1.89746213e-01     
H    -1.75143688e+00     -2.97953903e+00     4.06640217e-01      
H    -1.72801084e+00     -2.47228221e+00     -1.04185256e+00     
O    1.01190733e+00      1.11589942e+00      2.30760855e+00      
H    1.38684421e+00      6.44063639e-01      3.05547942e+00      
H    8.54195332e-01      2.00827067e+00      2.62633722e+00      
17
1154.936987
N    1.61135848e-02      3.74363768e-03      -1.73875189e-02     
H    -5.59000355e-01     -8.63788951e-01     8.30532947e-02      
H    -5.70834015e-01     6.75762051e-01      -5.12092598e-01     
H    2.97774166e-01      3.97896196e-01      9.05886270e-01      
C    1.22473751e+00      -2.86488295e-01     -8.25485443e-01     
H    1.87950096e+00      5.82459229e-01      -8.19841236e-01     
H    1.75586309e+00      -1.12786553e+00     -3.87961264e-01     
C    7.67596406e-01      -6.30769750e-01     -2.22580610e+00     
O    -3.92859158e-01     -5.95450192e-01     -2.57169220e+00     
O    1.80747368e+00      -9.49792343e-01     -2.98708551e+00     
H    1.48189832e+00      -1.14354487e+00     -3.88536597e+00     
O    -1.29052691e+00     -2.38272393e+00     -1.89983777e-01     
H    -1.75111928e+00     -2.97885585e+00     4.07289615e-01      
H    -1.72846630e+00     -2.47360099e+00     -1.04166578e+00     
O    1.01184673e+00      1.11580888e+00      2.30772557e+00      
H    1.38680199e+00      6.43979471e-01      3.05552498e+00      
H    8.53700548e-01      2.00831995e+00      2.62567264e+00      
17
1154.936987
N    1.56485577e-02      3.23564260e-03      -1.75304682e-02     
H    -5.61777062e-01     -8.61941661e-01     8.70989040e-02      
H    -5.69043376e-01     6.77576414e-01      -5.11749211e-01     
H    3.01528200e-01      3.99923874e-01      9.03519693e-01      
C    1.22535673e+00      -2.85822442e-01     -8.25926820e-01     
H    1.87857817e+00      5.84347545e-01      -8.12084048e-01     
H    1.75582445e+00      -1.12894526e+00     -3.90798741e-01     
C    7.67722869e-01      -6.31938644e-01     -2.22610655e+00     
O    -3.92379205e-01     -5.95307821e-01     -2.57164582e+00     
O    1.80645977e+00      -9.49466084e-01     -2.98678155e+00     
H    1.48610633e+00      -1.14427453e+00     -3.88662504e+00     
O    -1.29049848e+00     -2.38270068e+00     -1.90043168e-01     
H    -1.75103988e+00     -2.97868505e+00     4.07451965e-01      
H    -1.72858016e+00     -2.47393069e+00     -1.04161908e+00     
O    1.01183158e+00      1.11578624e+00      2.30775482e+00      
H    1.38679144e+00      6.43958429e-01      3.05553637e+00      
H    8.53576853e-01      2.00833227e+00      2.62550649e+00      
17
1154.936987
N    1.51835307e-02      2.72764752e-03      -1.76734176e-02     
H    -5.64553769e-01     -8.60094370e-01     9.11445133e-02      
H    -5.67252737e-01     6.79390778e-01      -5.11405824e-01     
H    3.05282233e-01      4.01951552e-01      9.01153117e-01      
C    1.22597595e+00      -2.85156588e-01     -8.26368198e-01     
H    1.87765538e+00      5.86235861e-01      -8.04326859e-01     
H    1.75578581e+00      -1.13002499e+00     -3.93636218e-01     
C    7.67849332e-01      -6.33107539e-01     -2.22640700e+00     
O    -3.91899251e-01     -5.95165449e-01     -2.57159945e+00     
O    1.80544587e+00      -9.49139825e-01     -2.98647760e+00     
H    1.49031435e+00      -1.14500419e+00     -3.88788410e+00     
O    -1.29047004e+00     -2.38267743e+00     -1.90102559e-01     
H    -1.75096048e+00     -2.97851425e+00     4.07614315e-01      
H    -1.72869402e+00     -2.47426039e+00     -1.04157239e+00     
O    1.01181643e+00      1.11576361e+00      2.30778408e+00      
H    1.38678088e+00      6.43937387e-01      3.05554777e+00      
H    8.53453157e-01      2.00834458e+00      2.62534034e+00      
17
1154.936987
N    1.42534767e-02      1.71165736e-03      -1.79593162e-02     
H    -5.70107182e-01     -8.56399788e-01     9.92357320e-02      
H    -5.63671460e-01     6.83019505e-01      -5.10719049e-01     
H    3.12790301e-01      4.06006909e-01      8.96419965e-01      
C    1.22721440e+00      -2.83824882e-01     -8.27250954e-01     
H    1.87580981e+00      5.90012493e-01      -7.88812483e-01     
H    1.75570852e+00      -1.13218445e+00     -3.99311171e-01     
C    7.68102257e-01      -6.35445327e-01     -2.22700789e+00     
O    -3.90939343e-01     -5.94880705e-01     -2.57150671e+00     
O    1.80341806e+00      -9.48487306e-01     -2.98586970e+00     
H    1.49873039e+00      -1.14646351e+00     -3.89040222e+00     
O    -1.29041316e+00     -2.38263093e+00     -1.90221341e-01     
H    -1.75080168e+00     -2.97817266e+00     4.07939014e-01      
H    -1.72892175e+00     -2.47491978e+00     -1.04147900e+00     
O    1.01178613e+00      1.11571833e+00      2.30784259e+00      
H    1.38675977e+00      6.43895303e-01      3.05557055e+00      
H    8.53205765e-01      2.00836922e+00      2.62500805e+00      
17
1154.936987
N    1.33234226e-02      6.95667203e-04      -1.82452148e-02     
H    -5.75660595e-01     -8.52705207e-01     1.07326951e-01      
H    -5.60090182e-01     6.86648232e-01      -5.10032274e-01     
H    3.20298368e-01      4.10062266e-01      8.91686813e-01      
C    1.22845284e+00      -2.82493175e-01     -8.28133709e-01     
H    1.87396424e+00      5.93789125e-01      -7.73298107e-01     
H    1.75563123e+00      -1.13434391e+00     -4.04986125e-01     
C    7.68355183e-01      -6.37783116e-01     -2.22760879e+00     
O    -3.89979435e-01     -5.94595962e-01     -2.57141396e+00     
O    1.80139024e+00      -9.47834788e-01     -2.98526179e+00     
H    1.50714642e+00      -1.14792283e+00     -3.89292034e+00     
O    -1.29035629e+00     -2.38258443e+00     -1.90340124e-01     
H    -1.75064288e+00     -2.97783106e+00     4.08263713e-01      
H    -1.72914947e+00     -2.47557918e+00     -1.04138561e+00     
O    1.01175583e+00      1.11567306e+00      2.30790109e+00      
H    1.38673867e+00      6.43853218e-01      3.05559333e+00      
H    8.52958374e-01      2.00839386e+00      2.62467576e+00      
17
1154.936987
N    1.23933686e-02      -3.20322956e-04     -1.85311135e-02     
H    -5.81214008e-01     -8.49010625e-01     1.15418169e-01      
H    -5.56508904e-01     6.90276958e-01      -5.09345499e-01     
H    3.27806435e-01      4.14117622e-01      8.86953660e-01      
C    1.22969128e+00      -2.81161468e-01     -8.29016465e-01     
H    1.87211867e+00      5.97565757e-01      -7.57783731e-01     
H    1.75555395e+00      -1.13650337e+00     -4.10661078e-01     
C    7.68608108e-01      -6.40120905e-01     -2.22820968e+00     
O    -3.89019528e-01     -5.94311218e-01     -2.57132122e+00     
O    1.79936243e+00      -9.47182270e-01     -2.98465389e+00     
H    1.51556246e+00      -1.14938215e+00     -3.89543847e+00     
O    -1.29029941e+00     -2.38253794e+00     -1.90458906e-01     
H    -1.75048408e+00     -2.97748947e+00     4.08588412e-01      
H    -1.72937720e+00     -2.47623857e+00     -1.04129222e+00     
O    1.01172553e+00      1.11562779e+00      2.30795960e+00      
H    1.38671756e+00      6.43811134e-01      3.05561612e+00      
H    8.52710982e-01      2.00841850e+00      2.62434346e+00      
17
1154.936987
N    1.14633145e-02      -1.33631311e-03     -1.88170121e-02     
H    -5.86767422e-01     -8.45316043e-01     1.23509388e-01      
H    -5.52927626e-01     6.93905685e-01      -5.08658725e-01     
H    3.35314502e-01      4.18172979e-01      8.82220508e-01      
C    1.23092972e+00      -2.79829761e-01     -8.29899220e-01     
H    1.87027309e+00      6.01342390e-01      -7.42269354e-01     
H    1.75547666e+00      -1.13866283e+00     -4.16336031e-01     
C    7.68861034e-01      -6.42458694e-01     -2.22881057e+00     
O    -3.88059620e-01     -5.94026474e-01     -2.57122848e+00     
O    1.79733462e+00      -9.46529752e-01     -2.98404598e+00     
H    1.52397850e+00      -1.15084146e+00     -3.89795659e+00     
O    -1.29024254e+00     -2.38249144e+00     -1.90577688e-01     
H    -1.75032528e+00     -2.97714788e+00     4.08913112e-01      
H    -1.72960492e+00     -2.47689797e+00     -1.04119883e+00     
O    1.01169523e+00      1.11558252e+00      2.30801811e+00      
H    1.38669645e+00      6.43769050e-01      3.05563890e+00      
H    8.52463591e-01      2.00844313e+00      2.62401117e+00      
17
1154.936987
N    9.60320642e-03      -3.36829343e-03     -1.93888093e-02     
H    -5.97874248e-01     -8.37926880e-01     1.39691825e-01      
H    -5.45765070e-01     7.01163139e-01      -5.07285175e-01     
H    3.50330637e-01      4.26283692e-01      8.72754203e-01      
C    1.23340660e+00      -2.77166348e-01     -8.31664731e-01     
H    1.86658195e+00      6.08895654e-01      -7.11240602e-01     
H    1.75532209e+00      -1.14298175e+00     -4.27685938e-01     
C    7.69366885e-01      -6.47134271e-01     -2.23001236e+00     
O    -3.86139805e-01     -5.93456987e-01     -2.57104299e+00     
O    1.79327900e+00      -9.45224715e-01     -2.98283017e+00     
H    1.54081057e+00      -1.15376010e+00     -3.90299284e+00     
O    -1.29012879e+00     -2.38239844e+00     -1.90815252e-01     
H    -1.75000768e+00     -2.97646469e+00     4.09562510e-01      
H    -1.73006037e+00     -2.47821676e+00     -1.04101205e+00     
O    1.01163463e+00      1.11549197e+00      2.30813513e+00      
H    1.38665423e+00      6.43684882e-01      3.05568446e+00      
H    8.51968808e-01      2.00849241e+00      2.62334658e+00      
