17
637.623692
N    6.66180602e-03      1.36034714e-02      6.79302171e-03      
H    -5.48405023e-01     -8.60658352e-01     1.46120056e-01      
H    -6.22249946e-01     6.65343382e-01      -4.63892205e-01     
H    3.36001303e-01      4.20688910e-01      9.12693124e-01      
C    1.18729118e+00      -2.93260237e-01     -8.55279501e-01     
H    1.85493572e+00      5.65165042e-01      -8.56221507e-01     
H    1.71469250e+00      -1.13344110e+00     -4.12139395e-01     
C    7.74708028e-01      -6.34037161e-01     -2.25864200e+00     
O    -4.08507713e-01     -5.83101581e-01     -2.52499641e+00     
O    1.85398736e+00      -9.60669359e-01     -3.00456392e+00     
H    1.57809321e+00      -1.16679315e+00     -3.91841610e+00     
O    -1.29075393e+00     -2.38157319e+00     -1.94318028e-01     
H    -1.74561546e+00     -2.96177057e+00     4.23541955e-01      
H    -1.73235355e+00     -2.49875662e+00     -1.04076557e+00     
O    1.01081731e+00      1.11467113e+00      2.30626533e+00      
H    1.38421047e+00      6.42866417e-01      3.05476304e+00      
H    8.49415034e-01      2.00709608e+00      2.62282958e+00      
17
637.623692
N    9.25726422e-03      1.13925105e-02      8.19361207e-04      
H    -5.49665503e-01     -8.62364647e-01     1.28330561e-01      
H    -6.10291283e-01     6.67040867e-01      -4.76113997e-01     
H    3.24567502e-01      4.13976892e-01      9.12174699e-01      
C    1.19634315e+00      -2.91900178e-01     -8.47610297e-01     
H    1.86153842e+00      5.68544430e-01      -8.51005033e-01     
H    1.72500447e+00      -1.13150734e+00     -4.04676124e-01     
C    7.72866891e-01      -6.32635861e-01     -2.25028280e+00     
O    -4.04835551e-01     -5.86259920e-01     -2.53669354e+00     
O    1.84286589e+00      -9.58113235e-01     -3.00034629e+00     
H    1.55194048e+00      -1.16061625e+00     -3.90952404e+00     
O    -1.29071139e+00     -2.38187250e+00     -1.93204770e-01     
H    -1.74703111e+00     -2.96612729e+00     4.19397695e-01      
H    -1.73132480e+00     -2.49230286e+00     -1.04101397e+00     
O    1.01108224e+00      1.11496689e+00      2.30661576e+00      
H    1.38486363e+00      6.43155201e-01      3.05494783e+00      
H    8.50548261e-01      2.00739589e+00      2.62362342e+00      
17
637.623692
N    1.05549933e-02      1.02870301e-02      -2.16746904e-03     
H    -5.50295743e-01     -8.63217795e-01     1.19435814e-01      
H    -6.04311951e-01     6.67889610e-01      -4.82224893e-01     
H    3.18850602e-01      4.10620883e-01      9.11915486e-01      
C    1.20086914e+00      -2.91220149e-01     -8.43775696e-01     
H    1.86483977e+00      5.70234125e-01      -8.48396796e-01     
H    1.73016045e+00      -1.13054047e+00     -4.00944489e-01     
C    7.71946323e-01      -6.31935211e-01     -2.24610320e+00     
O    -4.02999470e-01     -5.87839089e-01     -2.54254211e+00     
O    1.83730516e+00      -9.56835172e-01     -2.99823748e+00     
H    1.53886411e+00      -1.15752780e+00     -3.90507801e+00     
O    -1.29069013e+00     -2.38202216e+00     -1.92648141e-01     
H    -1.74773894e+00     -2.96830565e+00     4.17325565e-01      
H    -1.73081043e+00     -2.48907599e+00     -1.04113817e+00     
O    1.01121470e+00      1.11511477e+00      2.30679098e+00      
H    1.38519021e+00      6.43299593e-01      3.05504023e+00      
H    8.51114874e-01      2.00754579e+00      2.62402034e+00      
17
637.623692
N    1.18527224e-02      9.18154963e-03      -5.15429930e-03     
H    -5.50925982e-01     -8.64070942e-01     1.10541066e-01      
H    -5.98332620e-01     6.68738353e-01      -4.88335789e-01     
H    3.13133701e-01      4.07264874e-01      9.11656273e-01      
C    1.20539513e+00      -2.90540120e-01     -8.39941094e-01     
H    1.86814112e+00      5.71923819e-01      -8.45788559e-01     
H    1.73531644e+00      -1.12957359e+00     -3.97212853e-01     
C    7.71025755e-01      -6.31234561e-01     -2.24192360e+00     
O    -4.01163389e-01     -5.89418259e-01     -2.54839067e+00     
O    1.83174442e+00      -9.55557110e-01     -2.99612866e+00     
H    1.52578775e+00      -1.15443935e+00     -3.90063198e+00     
O    -1.29066886e+00     -2.38217181e+00     -1.92091512e-01     
H    -1.74844677e+00     -2.97048400e+00     4.15253435e-01      
H    -1.73029606e+00     -2.48584911e+00     -1.04126237e+00     
O    1.01134717e+00      1.11526264e+00      2.30696619e+00      
H    1.38551678e+00      6.43443986e-01      3.05513262e+00      
H    8.51681487e-01      2.00769569e+00      2.62441726e+00      
17
637.623692
N    1.31504515e-02      8.07606918e-03      -8.14112955e-03     
H    -5.51556222e-01     -8.64924090e-01     1.01646319e-01      
H    -5.92353288e-01     6.69587096e-01      -4.94446685e-01     
H    3.07416801e-01      4.03908865e-01      9.11397060e-01      
C    1.20992111e+00      -2.89860090e-01     -8.36106492e-01     
H    1.87144248e+00      5.73613514e-01      -8.43180323e-01     
H    1.74047242e+00      -1.12860671e+00     -3.93481218e-01     
C    7.70105186e-01      -6.30533911e-01     -2.23774401e+00     
O    -3.99327308e-01     -5.90997428e-01     -2.55423924e+00     
O    1.82618369e+00      -9.54279048e-01     -2.99401985e+00     
H    1.51271138e+00      -1.15135090e+00     -3.89618594e+00     
O    -1.29064759e+00     -2.38232147e+00     -1.91534882e-01     
H    -1.74915460e+00     -2.97266236e+00     4.13181306e-01      
H    -1.72978169e+00     -2.48262223e+00     -1.04138657e+00     
O    1.01147963e+00      1.11541052e+00      2.30714141e+00      
H    1.38584336e+00      6.43588378e-01      3.05522502e+00      
H    8.52248100e-01      2.00784560e+00      2.62481418e+00      
17
637.623692
N    1.44481806e-02      6.97058874e-03      -1.11279598e-02     
H    -5.52186462e-01     -8.65777238e-01     9.27515711e-02      
H    -5.86373956e-01     6.70435838e-01      -5.00557581e-01     
H    3.01699900e-01      4.00552857e-01      9.11137848e-01      
C    1.21444710e+00      -2.89180061e-01     -8.32271890e-01     
H    1.87474383e+00      5.75303208e-01      -8.40572086e-01     
H    1.74562841e+00      -1.12763983e+00     -3.89749582e-01     
C    7.69184618e-01      -6.29833261e-01     -2.23356441e+00     
O    -3.97491228e-01     -5.92576597e-01     -2.56008781e+00     
O    1.82062296e+00      -9.53000986e-01     -2.99191104e+00     
H    1.49963501e+00      -1.14826245e+00     -3.89173991e+00     
O    -1.29062632e+00     -2.38247112e+00     -1.90978253e-01     
H    -1.74986242e+00     -2.97484072e+00     4.11109176e-01      
H    -1.72926731e+00     -2.47939535e+00     -1.04151077e+00     
O    1.01161210e+00      1.11555840e+00      2.30731663e+00      
H    1.38616994e+00      6.43732770e-01      3.05531741e+00      
H    8.52814714e-01      2.00799550e+00      2.62521109e+00      
17
637.623692
N    1.50970452e-02      6.41784851e-03      -1.26213749e-02     
H    -5.52501582e-01     -8.66203811e-01     8.83041973e-02      
H    -5.83384290e-01     6.70860210e-01      -5.03613029e-01     
H    2.98841450e-01      3.98874852e-01      9.11008241e-01      
C    1.21671009e+00      -2.88840046e-01     -8.30354590e-01     
H    1.87639450e+00      5.76148055e-01      -8.39267967e-01     
H    1.74820640e+00      -1.12715639e+00     -3.87883764e-01     
C    7.68724334e-01      -6.29482936e-01     -2.23147461e+00     
O    -3.96573187e-01     -5.93366182e-01     -2.56301209e+00     
O    1.81784259e+00      -9.52361954e-01     -2.99085663e+00     
H    1.49309683e+00      -1.14671823e+00     -3.88951690e+00     
O    -1.29061569e+00     -2.38254595e+00     -1.90699939e-01     
H    -1.75021634e+00     -2.97592990e+00     4.10073111e-01      
H    -1.72901013e+00     -2.47778192e+00     -1.04157287e+00     
O    1.01167833e+00      1.11563233e+00      2.30740424e+00      
H    1.38633323e+00      6.43804967e-01      3.05536361e+00      
H    8.53098020e-01      2.00807045e+00      2.62540955e+00      
17
637.623692
N    1.57459097e-02      5.86510829e-03      -1.41147900e-02     
H    -5.52816702e-01     -8.66630385e-01     8.38568236e-02      
H    -5.80394625e-01     6.71284581e-01      -5.06668477e-01     
H    2.95983000e-01      3.97196848e-01      9.10878635e-01      
C    1.21897308e+00      -2.88500031e-01     -8.28437289e-01     
H    1.87804518e+00      5.76992903e-01      -8.37963849e-01     
H    1.75078439e+00      -1.12667295e+00     -3.86017947e-01     
C    7.68264049e-01      -6.29132611e-01     -2.22938481e+00     
O    -3.95655147e-01     -5.94155767e-01     -2.56593637e+00     
O    1.81506222e+00      -9.51722923e-01     -2.98980222e+00     
H    1.48655865e+00      -1.14517400e+00     -3.88729388e+00     
O    -1.29060506e+00     -2.38262078e+00     -1.90421624e-01     
H    -1.75057025e+00     -2.97701908e+00     4.09037046e-01      
H    -1.72875294e+00     -2.47616848e+00     -1.04163497e+00     
O    1.01174456e+00      1.11570627e+00      2.30749184e+00      
H    1.38649652e+00      6.43877163e-01      3.05540981e+00      
H    8.53381327e-01      2.00814541e+00      2.62560801e+00      
17
637.623692
N    1.83413679e-02      3.65414739e-03      -2.00884506e-02     
H    -5.54077182e-01     -8.68336681e-01     6.60673284e-02      
H    -5.68435961e-01     6.72982067e-01      -5.18890269e-01     
H    2.84549198e-01      3.90484830e-01      9.10360209e-01      
C    1.22802506e+00      -2.87139973e-01     -8.20768085e-01     
H    1.88464788e+00      5.80372291e-01      -8.32747375e-01     
H    1.76109637e+00      -1.12473919e+00     -3.78554675e-01     
C    7.66422913e-01      -6.27731311e-01     -2.22102561e+00     
O    -3.91982985e-01     -5.97314105e-01     -2.57763351e+00     
O    1.80394076e+00      -9.49166799e-01     -2.98558460e+00     
H    1.46040591e+00      -1.13899710e+00     -3.87840182e+00     
O    -1.29056252e+00     -2.38292008e+00     -1.89308366e-01     
H    -1.75198591e+00     -2.98137580e+00     4.04892786e-01      
H    -1.72772420e+00     -2.46971472e+00     -1.04188337e+00     
O    1.01200950e+00      1.11600203e+00      2.30784228e+00      
H    1.38714968e+00      6.44165947e-01      3.05559459e+00      
H    8.54514553e-01      2.00844521e+00      2.62640185e+00      
17
637.623692
N    1.89902324e-02      3.10140717e-03      -2.15818657e-02     
H    -5.54392302e-01     -8.68763255e-01     6.16199547e-02      
H    -5.65446296e-01     6.73406438e-01      -5.21945717e-01     
H    2.81690748e-01      3.88806826e-01      9.10230603e-01      
C    1.23028805e+00      -2.86799958e-01     -8.18850784e-01     
H    1.88629856e+00      5.81217139e-01      -8.31443257e-01     
H    1.76367436e+00      -1.12425575e+00     -3.76688858e-01     
C    7.65962628e-01      -6.27380986e-01     -2.21893581e+00     
O    -3.91064945e-01     -5.98103690e-01     -2.58055779e+00     
O    1.80116039e+00      -9.48527768e-01     -2.98453019e+00     
H    1.45386773e+00      -1.13745287e+00     -3.87617880e+00     
O    -1.29055189e+00     -2.38299491e+00     -1.89030051e-01     
H    -1.75233982e+00     -2.98246498e+00     4.03856721e-01      
H    -1.72746701e+00     -2.46810128e+00     -1.04194547e+00     
O    1.01207573e+00      1.11607597e+00      2.30792988e+00      
H    1.38731297e+00      6.44238143e-01      3.05564079e+00      
H    8.54797860e-01      2.00852017e+00      2.62660031e+00      
17
637.623692
N    1.96390970e-02      2.54866694e-03      -2.30752808e-02     
H    -5.54707422e-01     -8.69189828e-01     5.71725809e-02      
H    -5.62456630e-01     6.73830810e-01      -5.25001165e-01     
H    2.78832298e-01      3.87128821e-01      9.10100996e-01      
C    1.23255104e+00      -2.86459943e-01     -8.16933484e-01     
H    1.88794923e+00      5.82061986e-01      -8.30139138e-01     
H    1.76625235e+00      -1.12377231e+00     -3.74823040e-01     
C    7.65502344e-01      -6.27030661e-01     -2.21684601e+00     
O    -3.90146904e-01     -5.98893275e-01     -2.58348207e+00     
O    1.79838002e+00      -9.47888736e-01     -2.98347578e+00     
H    1.44732955e+00      -1.13590865e+00     -3.87395579e+00     
O    -1.29054126e+00     -2.38306974e+00     -1.88751737e-01     
H    -1.75269374e+00     -2.98355416e+00     4.02820656e-01      
H    -1.72720983e+00     -2.46648785e+00     -1.04200757e+00     
O    1.01214196e+00      1.11614990e+00      2.30801749e+00      
H    1.38747626e+00      6.44310340e-01      3.05568699e+00      
H    8.55081166e-01      2.00859512e+00      2.62679877e+00      
17
637.623692
N    2.09368261e-02      1.44318650e-03      -2.60621111e-02     
H    -5.55337662e-01     -8.70042976e-01     4.82778333e-02      
H    -5.56477298e-01     6.74679552e-01      -5.31112061e-01     
H    2.73115397e-01      3.83772813e-01      9.09841784e-01      
C    1.23707703e+00      -2.85779914e-01     -8.13098882e-01     
H    1.89125058e+00      5.83751680e-01      -8.27530901e-01     
H    1.77140834e+00      -1.12280543e+00     -3.71091404e-01     
C    7.64581776e-01      -6.26330011e-01     -2.21266641e+00     
O    -3.88310824e-01     -6.00472444e-01     -2.58933064e+00     
O    1.79281929e+00      -9.46610674e-01     -2.98136697e+00     
H    1.43425318e+00      -1.13282020e+00     -3.86950976e+00     
O    -1.29051999e+00     -2.38321939e+00     -1.88195108e-01     
H    -1.75340156e+00     -2.98573252e+00     4.00748526e-01      
H    -1.72669545e+00     -2.46326097e+00     -1.04213177e+00     
O    1.01227443e+00      1.11629778e+00      2.30819271e+00      
H    1.38780284e+00      6.44454732e-01      3.05577938e+00      
H    8.55647780e-01      2.00874502e+00      2.62719568e+00      
17
637.623692
N    2.22345552e-02      3.37706050e-04      -2.90489413e-02     
H    -5.55967902e-01     -8.70896124e-01     3.93830858e-02      
H    -5.50497966e-01     6.75528295e-01      -5.37222957e-01     
H    2.67398497e-01      3.80416804e-01      9.09582571e-01      
C    1.24160301e+00      -2.85099884e-01     -8.09264280e-01     
H    1.89455194e+00      5.85441375e-01      -8.24922665e-01     
H    1.77656432e+00      -1.12183855e+00     -3.67359769e-01     
C    7.63661207e-01      -6.25629361e-01     -2.20848682e+00     
O    -3.86474743e-01     -6.02051613e-01     -2.59517921e+00     
O    1.78725856e+00      -9.45332612e-01     -2.97925816e+00     
H    1.42117681e+00      -1.12973175e+00     -3.86506372e+00     
O    -1.29049872e+00     -2.38336905e+00     -1.87638478e-01     
H    -1.75410939e+00     -2.98791088e+00     3.98676397e-01      
H    -1.72618108e+00     -2.46003409e+00     -1.04225597e+00     
O    1.01240689e+00      1.11644566e+00      2.30836793e+00      
H    1.38812942e+00      6.44599124e-01      3.05587178e+00      
H    8.56214393e-01      2.00889493e+00      2.62759260e+00      
17
637.623692
N    2.35322843e-02      -7.67774398e-04     -3.20357716e-02     
H    -5.56598141e-01     -8.71749271e-01     3.04883382e-02      
H    -5.44518635e-01     6.76377038e-01      -5.43333853e-01     
H    2.61681596e-01      3.77060795e-01      9.09323358e-01      
C    1.24612900e+00      -2.84419855e-01     -8.05429678e-01     
H    1.89785329e+00      5.87131069e-01      -8.22314428e-01     
H    1.78172031e+00      -1.12087167e+00     -3.63628133e-01     
C    7.62740639e-01      -6.24928711e-01     -2.20430722e+00     
O    -3.84638662e-01     -6.03630783e-01     -2.60102777e+00     
O    1.78169782e+00      -9.44054550e-01     -2.97714934e+00     
H    1.40810045e+00      -1.12664330e+00     -3.86061769e+00     
O    -1.29047745e+00     -2.38351870e+00     -1.87081849e-01     
H    -1.75481722e+00     -2.99008923e+00     3.96604267e-01      
H    -1.72566671e+00     -2.45680721e+00     -1.04238017e+00     
O    1.01253936e+00      1.11659353e+00      2.30854314e+00      
H    1.38845599e+00      6.44743517e-01      3.05596417e+00      
H    8.56781006e-01      2.00904483e+00      2.62798952e+00      
17
637.623692
N    2.48300134e-02      -1.87325485e-03     -3.50226018e-02     
H    -5.57228381e-01     -8.72602419e-01     2.15935906e-02      
H    -5.38539303e-01     6.77225781e-01      -5.49444749e-01     
H    2.55964696e-01      3.73704786e-01      9.09064145e-01      
C    1.25065499e+00      -2.83739826e-01     -8.01595077e-01     
H    1.90115464e+00      5.88820764e-01      -8.19706191e-01     
H    1.78687629e+00      -1.11990480e+00     -3.59896498e-01     
C    7.61820071e-01      -6.24228061e-01     -2.20012762e+00     
O    -3.82802581e-01     -6.05209952e-01     -2.60687634e+00     
O    1.77613709e+00      -9.42776487e-01     -2.97504053e+00     
H    1.39502408e+00      -1.12355485e+00     -3.85617166e+00     
O    -1.29045619e+00     -2.38366836e+00     -1.86525220e-01     
H    -1.75552505e+00     -2.99226759e+00     3.94532137e-01      
H    -1.72515234e+00     -2.45358034e+00     -1.04250437e+00     
O    1.01267182e+00      1.11674141e+00      2.30871836e+00      
H    1.38878257e+00      6.44887909e-01      3.05605657e+00      
H    8.57347619e-01      2.00919473e+00      2.62838644e+00      
17
637.623692
N    2.74254716e-02      -4.08421574e-03     -4.09962623e-02     
H    -5.58488861e-01     -8.74308714e-01     3.80409552e-03      
H    -5.26580640e-01     6.78923266e-01      -5.61666541e-01     
H    2.44530895e-01      3.66992768e-01      9.08545720e-01      
C    1.25970696e+00      -2.82379767e-01     -7.93925873e-01     
H    1.90775734e+00      5.92200152e-01      -8.14489717e-01     
H    1.79718826e+00      -1.11797104e+00     -3.52433227e-01     
C    7.59978934e-01      -6.22826761e-01     -2.19176842e+00     
O    -3.79130419e-01     -6.08368291e-01     -2.61857347e+00     
O    1.76501562e+00      -9.40220363e-01     -2.97082290e+00     
H    1.36887135e+00      -1.11737795e+00     -3.84727960e+00     
O    -1.29041365e+00     -2.38396767e+00     -1.85411962e-01     
H    -1.75694070e+00     -2.99662431e+00     3.90387877e-01      
H    -1.72412359e+00     -2.44712658e+00     -1.04275277e+00     
O    1.01293675e+00      1.11703717e+00      2.30906879e+00      
H    1.38943573e+00      6.45176693e-01      3.05624136e+00      
H    8.58480846e-01      2.00949454e+00      2.62918028e+00      
