17
871.177070
N    9.92039607e-03      7.31220689e-03      -5.65588907e-03     
H    -5.68816805e-01     -8.63980704e-01     4.76217782e-02      
H    -5.46133709e-01     6.65096364e-01      -5.56383784e-01     
H    2.13108806e-01      4.02579481e-01      9.38176450e-01      
C    1.26374290e+00      -2.81455933e-01     -7.82939131e-01     
H    1.90154618e+00      6.01819630e-01      -7.74528755e-01     
H    1.79716657e+00      -1.10947378e+00     -3.21410089e-01     
C    7.48971096e-01      -6.32620415e-01     -2.25247750e+00     
O    -4.29830768e-01     -5.94619913e-01     -2.58036681e+00     
O    1.82821567e+00      -9.56592304e-01     -3.00241621e+00     
H    1.57464657e+00      -1.16503498e+00     -3.92371567e+00     
O    -1.29025896e+00     -2.38253200e+00     -1.88952955e-01     
H    -1.75213122e+00     -2.98202562e+00     4.03904048e-01      
H    -1.72583008e+00     -2.46911015e+00     -1.04238822e+00     
O    1.01230175e+00      1.11517254e+00      2.30722904e+00      
H    1.38867790e+00      6.46781957e-01      3.05654693e+00      
H    8.53374802e-01      2.00843783e+00      2.62315622e+00      
17
871.177070
N    1.17012068e-02      6.67406213e-03      -8.51732188e-03     
H    -5.64974339e-01     -8.64856411e-01     5.44568527e-02      
H    -5.53204105e-01     6.66855604e-01      -5.45482681e-01     
H    2.32398130e-01      4.00394821e-01      9.31287193e-01      
C    1.25368194e+00      -2.83046950e-01     -7.93355020e-01     
H    1.89649627e+00      5.96035371e-01      -7.89735469e-01     
H    1.78686002e+00      -1.11353185e+00     -3.36629145e-01     
C    7.53564192e-01      -6.31573302e-01     -2.24565943e+00     
O    -4.20827842e-01     -5.94898669e-01     -2.57822134e+00     
O    1.82353713e+00      -9.55055443e-01     -2.99873551e+00     
H    1.54935549e+00      -1.15929762e+00     -3.91349871e+00     
O    -1.29034016e+00     -2.38259161e+00     -1.89180965e-01     
H    -1.75191793e+00     -2.98131858e+00     4.04669265e-01      
H    -1.72643221e+00     -2.47006801e+00     -1.04223096e+00     
O    1.01219557e+00      1.11534295e+00      2.30733854e+00      
H    1.38821420e+00      6.46091857e-01      3.05628574e+00      
H    8.53518087e-01      2.00840220e+00      2.62386839e+00      
17
871.177070
N    1.25916121e-02      6.35498975e-03      -9.94803828e-03     
H    -5.63053107e-01     -8.65294265e-01     5.78743899e-02      
H    -5.56739303e-01     6.67735224e-01      -5.40032130e-01     
H    2.42042791e-01      3.99302491e-01      9.27842565e-01      
C    1.24865146e+00      -2.83842459e-01     -7.98562965e-01     
H    1.89397131e+00      5.93143242e-01      -7.97338826e-01     
H    1.78170675e+00      -1.11556089e+00     -3.44238672e-01     
C    7.55860740e-01      -6.31049745e-01     -2.24225039e+00     
O    -4.16326379e-01     -5.95038047e-01     -2.57714861e+00     
O    1.82119785e+00      -9.54287013e-01     -2.99689516e+00     
H    1.53670996e+00      -1.15642894e+00     -3.90839023e+00     
O    -1.29038077e+00     -2.38262141e+00     -1.89294970e-01     
H    -1.75181129e+00     -2.98096505e+00     4.05051873e-01      
H    -1.72673327e+00     -2.47054694e+00     -1.04215233e+00     
O    1.01214248e+00      1.11542815e+00      2.30739329e+00      
H    1.38798235e+00      6.45746806e-01      3.05615515e+00      
H    8.53589729e-01      2.00838439e+00      2.62422448e+00      
17
871.177070
N    1.34820174e-02      6.03591737e-03      -1.13787547e-02     
H    -5.61131874e-01     -8.65732118e-01     6.12919271e-02      
H    -5.60274501e-01     6.68614844e-01      -5.34581579e-01     
H    2.51687453e-01      3.98210160e-01      9.24397936e-01      
C    1.24362098e+00      -2.84637968e-01     -8.03770909e-01     
H    1.89144635e+00      5.90251113e-01      -8.04942183e-01     
H    1.77655347e+00      -1.11758992e+00     -3.51848200e-01     
C    7.58157288e-01      -6.30526188e-01     -2.23884135e+00     
O    -4.11824917e-01     -5.95177425e-01     -2.57607587e+00     
O    1.81885858e+00      -9.53518583e-01     -2.99505481e+00     
H    1.52406442e+00      -1.15356026e+00     -3.90328176e+00     
O    -1.29042137e+00     -2.38265122e+00     -1.89408975e-01     
H    -1.75170465e+00     -2.98061153e+00     4.05434482e-01      
H    -1.72703433e+00     -2.47102587e+00     -1.04207370e+00     
O    1.01208939e+00      1.11551335e+00      2.30744805e+00      
H    1.38775050e+00      6.45401756e-01      3.05602456e+00      
H    8.53661371e-01      2.00836657e+00      2.62458057e+00      
17
871.177070
N    1.43724228e-02      5.71684498e-03      -1.28094711e-02     
H    -5.59210641e-01     -8.66169972e-01     6.47094643e-02      
H    -5.63809699e-01     6.69494464e-01      -5.29131027e-01     
H    2.61332114e-01      3.97117830e-01      9.20953308e-01      
C    1.23859050e+00      -2.85433476e-01     -8.08978854e-01     
H    1.88892140e+00      5.87358984e-01      -8.12545540e-01     
H    1.77140020e+00      -1.11961896e+00     -3.59457728e-01     
C    7.60453837e-01      -6.30002631e-01     -2.23543232e+00     
O    -4.07323454e-01     -5.95316803e-01     -2.57500314e+00     
O    1.81651931e+00      -9.52750152e-01     -2.99321446e+00     
H    1.51141889e+00      -1.15069159e+00     -3.89817328e+00     
O    -1.29046198e+00     -2.38268102e+00     -1.89522980e-01     
H    -1.75159801e+00     -2.98025801e+00     4.05817090e-01      
H    -1.72733539e+00     -2.47150480e+00     -1.04199506e+00     
O    1.01203630e+00      1.11559855e+00      2.30750280e+00      
H    1.38751865e+00      6.45056706e-01      3.05589397e+00      
H    8.53733013e-01      2.00834876e+00      2.62493666e+00      
17
871.177070
N    1.52628281e-02      5.39777260e-03      -1.42401875e-02     
H    -5.57289408e-01     -8.66607826e-01     6.81270016e-02      
H    -5.67344897e-01     6.70374084e-01      -5.23680476e-01     
H    2.70976776e-01      3.96025500e-01      9.17508679e-01      
C    1.23356003e+00      -2.86228985e-01     -8.14186798e-01     
H    1.88639644e+00      5.84466855e-01      -8.20148898e-01     
H    1.76624693e+00      -1.12164800e+00     -3.67067256e-01     
C    7.62750385e-01      -6.29479075e-01     -2.23202328e+00     
O    -4.02821991e-01     -5.95456180e-01     -2.57393041e+00     
O    1.81418004e+00      -9.51981722e-01     -2.99137411e+00     
H    1.49877335e+00      -1.14782291e+00     -3.89306480e+00     
O    -1.29050258e+00     -2.38271082e+00     -1.89636985e-01     
H    -1.75149136e+00     -2.97990449e+00     4.06199699e-01      
H    -1.72763645e+00     -2.47198374e+00     -1.04191643e+00     
O    1.01198321e+00      1.11568375e+00      2.30755755e+00      
H    1.38728680e+00      6.44711656e-01      3.05576338e+00      
H    8.53804656e-01      2.00833094e+00      2.62529275e+00      
17
871.177070
N    1.57080308e-02      5.23823641e-03      -1.49555457e-02     
H    -5.56328791e-01     -8.66826752e-01     6.98357702e-02      
H    -5.69112496e-01     6.70813894e-01      -5.20955200e-01     
H    2.75799107e-01      3.95479334e-01      9.15786365e-01      
C    1.23104479e+00      -2.86626739e-01     -8.16790770e-01     
H    1.88513396e+00      5.83020791e-01      -8.23950576e-01     
H    1.76367029e+00      -1.12266252e+00     -3.70872019e-01     
C    7.63898659e-01      -6.29217296e-01     -2.23031876e+00     
O    -4.00571260e-01     -5.95525869e-01     -2.57339404e+00     
O    1.81301040e+00      -9.51597507e-01     -2.99045394e+00     
H    1.49245058e+00      -1.14638857e+00     -3.89051057e+00     
O    -1.29052288e+00     -2.38272572e+00     -1.89693987e-01     
H    -1.75143804e+00     -2.97972772e+00     4.06391003e-01      
H    -1.72778698e+00     -2.47222320e+00     -1.04187712e+00     
O    1.01195667e+00      1.11572635e+00      2.30758493e+00      
H    1.38717087e+00      6.44539130e-01      3.05569809e+00      
H    8.53840477e-01      2.00832203e+00      2.62547080e+00      
17
871.177070
N    1.61532335e-02      5.07870022e-03      -1.56709039e-02     
H    -5.55368175e-01     -8.67045679e-01     7.15445388e-02      
H    -5.70880095e-01     6.71253704e-01      -5.18229924e-01     
H    2.80621437e-01      3.94933169e-01      9.14064051e-01      
C    1.22852955e+00      -2.87024493e-01     -8.19394743e-01     
H    1.88387149e+00      5.81574726e-01      -8.27752255e-01     
H    1.76109365e+00      -1.12367703e+00     -3.74676783e-01     
C    7.65046933e-01      -6.28955518e-01     -2.22861425e+00     
O    -3.98320529e-01     -5.95595558e-01     -2.57285767e+00     
O    1.81184076e+00      -9.51213291e-01     -2.98953376e+00     
H    1.48612782e+00      -1.14495423e+00     -3.88795633e+00     
O    -1.29054319e+00     -2.38274063e+00     -1.89750990e-01     
H    -1.75138472e+00     -2.97955096e+00     4.06582307e-01      
H    -1.72793751e+00     -2.47246267e+00     -1.04183780e+00     
O    1.01193012e+00      1.11576895e+00      2.30761231e+00      
H    1.38705495e+00      6.44366605e-01      3.05563279e+00      
H    8.53876298e-01      2.00831313e+00      2.62564884e+00      
17
871.177070
N    1.79340441e-02      4.44055546e-03      -1.85323367e-02     
H    -5.51525709e-01     -8.67921387e-01     7.83796132e-02      
H    -5.77950491e-01     6.73012944e-01      -5.07328822e-01     
H    2.99910761e-01      3.92748509e-01      9.07174793e-01      
C    1.21846859e+00      -2.88615511e-01     -8.29810631e-01     
H    1.87882157e+00      5.75790468e-01      -8.42958969e-01     
H    1.75078711e+00      -1.12773511e+00     -3.89895839e-01     
C    7.69640029e-01      -6.27908404e-01     -2.22179617e+00     
O    -3.89317603e-01     -5.95874314e-01     -2.57071221e+00     
O    1.80716222e+00      -9.49676431e-01     -2.98585306e+00     
H    1.46083674e+00      -1.13921687e+00     -3.87773937e+00     
O    -1.29062439e+00     -2.38280023e+00     -1.89979000e-01     
H    -1.75117144e+00     -2.97884392e+00     4.07347525e-01      
H    -1.72853963e+00     -2.47342053e+00     -1.04168054e+00     
O    1.01182394e+00      1.11593935e+00      2.30772181e+00      
H    1.38659125e+00      6.43676505e-01      3.05537161e+00      
H    8.54019582e-01      2.00827749e+00      2.62636102e+00      
17
871.177070
N    1.83792468e-02      4.28101927e-03      -1.92476949e-02     
H    -5.50565093e-01     -8.68140314e-01     8.00883818e-02      
H    -5.79718090e-01     6.73452754e-01      -5.04603546e-01     
H    3.04733091e-01      3.92202344e-01      9.05452479e-01      
C    1.21595335e+00      -2.89013265e-01     -8.32414604e-01     
H    1.87755910e+00      5.74344403e-01      -8.46760648e-01     
H    1.74821047e+00      -1.12874962e+00     -3.93700603e-01     
C    7.70788303e-01      -6.27646626e-01     -2.22009166e+00     
O    -3.87066872e-01     -5.95944003e-01     -2.57017584e+00     
O    1.80599258e+00      -9.49292215e-01     -2.98493288e+00     
H    1.45451398e+00      -1.13778253e+00     -3.87518513e+00     
O    -1.29064470e+00     -2.38281514e+00     -1.90036003e-01     
H    -1.75111812e+00     -2.97866716e+00     4.07538829e-01      
H    -1.72869016e+00     -2.47366000e+00     -1.04164122e+00     
O    1.01179739e+00      1.11598195e+00      2.30774919e+00      
H    1.38647533e+00      6.43503980e-01      3.05530631e+00      
H    8.54055403e-01      2.00826859e+00      2.62653906e+00      
17
871.177070
N    1.88244495e-02      4.12148308e-03      -1.99630531e-02     
H    -5.49604476e-01     -8.68359240e-01     8.17971504e-02      
H    -5.81485689e-01     6.73892564e-01      -5.01878270e-01     
H    3.09555422e-01      3.91656178e-01      9.03730165e-01      
C    1.21343811e+00      -2.89411019e-01     -8.35018576e-01     
H    1.87629662e+00      5.72898339e-01      -8.50562326e-01     
H    1.74563383e+00      -1.12976414e+00     -3.97505366e-01     
C    7.71936577e-01      -6.27384847e-01     -2.21838714e+00     
O    -3.84816141e-01     -5.96013692e-01     -2.56963947e+00     
O    1.80482294e+00      -9.48908000e-01     -2.98401271e+00     
H    1.44819121e+00      -1.13634819e+00     -3.87263090e+00     
O    -1.29066500e+00     -2.38283004e+00     -1.90093005e-01     
H    -1.75106480e+00     -2.97849039e+00     4.07730133e-01      
H    -1.72884069e+00     -2.47389946e+00     -1.04160191e+00     
O    1.01177085e+00      1.11602455e+00      2.30777657e+00      
H    1.38635940e+00      6.43331454e-01      3.05524102e+00      
H    8.54091224e-01      2.00825968e+00      2.62671711e+00      
17
871.177070
N    1.97148548e-02      3.80241070e-03      -2.13937695e-02     
H    -5.47683243e-01     -8.68797094e-01     8.52146877e-02      
H    -5.85020887e-01     6.74772184e-01      -4.96427719e-01     
H    3.19200084e-01      3.90563848e-01      9.00285536e-01      
C    1.20840764e+00      -2.90206528e-01     -8.40226520e-01     
H    1.87377166e+00      5.70006210e-01      -8.58165684e-01     
H    1.74048056e+00      -1.13179318e+00     -4.05114894e-01     
C    7.74233125e-01      -6.26861291e-01     -2.21497810e+00     
O    -3.80314678e-01     -5.96153069e-01     -2.56856674e+00     
O    1.80248367e+00      -9.48139570e-01     -2.98217236e+00     
H    1.43554567e+00      -1.13347951e+00     -3.86752242e+00     
O    -1.29070560e+00     -2.38285984e+00     -1.90207010e-01     
H    -1.75095815e+00     -2.97813687e+00     4.08112742e-01      
H    -1.72914175e+00     -2.47437840e+00     -1.04152328e+00     
O    1.01171776e+00      1.11610975e+00      2.30783132e+00      
H    1.38612755e+00      6.42986404e-01      3.05511043e+00      
H    8.54162867e-01      2.00824186e+00      2.62707320e+00      
17
871.177070
N    2.06052602e-02      3.48333831e-03      -2.28244859e-02     
H    -5.45762010e-01     -8.69234948e-01     8.86322249e-02      
H    -5.88556085e-01     6.75651804e-01      -4.90977167e-01     
H    3.28844745e-01      3.89471518e-01      8.96840908e-01      
C    1.20337716e+00      -2.91002036e-01     -8.45434465e-01     
H    1.87124671e+00      5.67114081e-01      -8.65769041e-01     
H    1.73532729e+00      -1.13382222e+00     -4.12724422e-01     
C    7.76529674e-01      -6.26337734e-01     -2.21156907e+00     
O    -3.75813215e-01     -5.96292447e-01     -2.56749401e+00     
O    1.80014440e+00      -9.47371139e-01     -2.98033201e+00     
H    1.42290014e+00      -1.13061084e+00     -3.86241394e+00     
O    -1.29074621e+00     -2.38288964e+00     -1.90321015e-01     
H    -1.75085151e+00     -2.97778335e+00     4.08495350e-01      
H    -1.72944281e+00     -2.47485733e+00     -1.04144464e+00     
O    1.01166467e+00      1.11619495e+00      2.30788607e+00      
H    1.38589570e+00      6.42641354e-01      3.05497984e+00      
H    8.54234509e-01      2.00822405e+00      2.62742929e+00      
17
871.177070
N    2.14956655e-02      3.16426593e-03      -2.42552023e-02     
H    -5.43840777e-01     -8.69672801e-01     9.20497621e-02      
H    -5.92091283e-01     6.76531424e-01      -4.85526616e-01     
H    3.38489407e-01      3.88379187e-01      8.93396279e-01      
C    1.19834668e+00      -2.91797545e-01     -8.50642409e-01     
H    1.86872175e+00      5.64221952e-01      -8.73372398e-01     
H    1.73017401e+00      -1.13585125e+00     -4.20333950e-01     
C    7.78826222e-01      -6.25814177e-01     -2.20816003e+00     
O    -3.71311753e-01     -5.96431825e-01     -2.56642127e+00     
O    1.79780513e+00      -9.46602709e-01     -2.97849166e+00     
H    1.41025460e+00      -1.12774216e+00     -3.85730547e+00     
O    -1.29078681e+00     -2.38291945e+00     -1.90435020e-01     
H    -1.75074487e+00     -2.97742983e+00     4.08877959e-01      
H    -1.72974387e+00     -2.47533626e+00     -1.04136601e+00     
O    1.01161158e+00      1.11628015e+00      2.30794083e+00      
H    1.38566385e+00      6.42296304e-01      3.05484925e+00      
H    8.54306151e-01      2.00820623e+00      2.62778538e+00      
17
871.177070
N    2.23860708e-02      2.84519355e-03      -2.56859187e-02     
H    -5.41919545e-01     -8.70110655e-01     9.54672993e-02      
H    -5.95626481e-01     6.77411044e-01      -4.80076065e-01     
H    3.48134068e-01      3.87286857e-01      8.89951651e-01      
C    1.19331620e+00      -2.92593054e-01     -8.55850354e-01     
H    1.86619679e+00      5.61329823e-01      -8.80975755e-01     
H    1.72502074e+00      -1.13788029e+00     -4.27943477e-01     
C    7.81122770e-01      -6.25290620e-01     -2.20475099e+00     
O    -3.66810290e-01     -5.96571203e-01     -2.56534854e+00     
O    1.79546585e+00      -9.45834279e-01     -2.97665131e+00     
H    1.39760907e+00      -1.12487348e+00     -3.85219699e+00     
O    -1.29082742e+00     -2.38294925e+00     -1.90549025e-01     
H    -1.75063823e+00     -2.97707630e+00     4.09260567e-01      
H    -1.73004493e+00     -2.47581519e+00     -1.04128738e+00     
O    1.01155849e+00      1.11636535e+00      2.30799558e+00      
H    1.38543200e+00      6.41951253e-01      3.05471866e+00      
H    8.54377793e-01      2.00818842e+00      2.62814147e+00      
17
871.177070
N    2.41668815e-02      2.20704879e-03      -2.85473515e-02     
H    -5.38077079e-01     -8.70986362e-01     1.02302374e-01      
H    -6.02696877e-01     6.79170284e-01      -4.69174962e-01     
H    3.67423392e-01      3.85102197e-01      8.83062394e-01      
C    1.18325524e+00      -2.94184071e-01     -8.66266243e-01     
H    1.86114688e+00      5.55545564e-01      -8.96182469e-01     
H    1.71471419e+00      -1.14193836e+00     -4.43162533e-01     
C    7.85715866e-01      -6.24243507e-01     -2.19793292e+00     
O    -3.57807364e-01     -5.96849959e-01     -2.56320307e+00     
O    1.79078731e+00      -9.44297418e-01     -2.97297061e+00     
H    1.37231799e+00      -1.11913612e+00     -3.84198003e+00     
O    -1.29090862e+00     -2.38300886e+00     -1.90777035e-01     
H    -1.75042494e+00     -2.97636926e+00     4.10025784e-01      
H    -1.73064706e+00     -2.47677305e+00     -1.04113012e+00     
O    1.01145231e+00      1.11653576e+00      2.30810508e+00      
H    1.38496830e+00      6.41261153e-01      3.05445747e+00      
H    8.54521078e-01      2.00815279e+00      2.62885364e+00      
