17
677.664284
N    1.66597148e-02      4.20448090e-03      -1.71363884e-02     
H    -5.64215679e-01     -8.60983779e-01     7.25425778e-02      
H    -5.62201136e-01     6.82131732e-01      -5.13638742e-01     
H    2.93501695e-01      3.88796244e-01      9.11357335e-01      
C    1.22156619e+00      -2.95439210e-01     -8.23494864e-01     
H    1.85567557e+00      5.89329777e-01      -8.72497530e-01     
H    1.78192784e+00      -1.10200072e+00     -3.56751596e-01     
C    7.65025541e-01      -6.51996026e-01     -2.21942368e+00     
O    -3.92904053e-01     -5.83435140e-01     -2.57394741e+00     
O    1.81263507e+00      -9.30955536e-01     -2.99292121e+00     
H    1.45278934e+00      -1.32002604e+00     -3.83683476e+00     
O    -1.29037407e+00     -2.38231396e+00     -1.89285467e-01     
H    -1.75220292e+00     -2.98107785e+00     4.04469817e-01      
H    -1.72219002e+00     -2.47526755e+00     -1.04393324e+00     
O    1.01183362e+00      1.11622313e+00      2.30755581e+00      
H    1.38588856e+00      6.42123454e-01      3.05444340e+00      
H    8.54508569e-01      2.00792452e+00      2.62817777e+00      
17
677.664284
N    1.67556958e-02      4.34326764e-03      -1.71276963e-02     
H    -5.61523495e-01     -8.62608717e-01     7.31474524e-02      
H    -5.65254675e-01     6.79632130e-01      -5.13423900e-01     
H    2.92692796e-01      3.90057392e-01      9.11172857e-01      
C    1.22204941e+00      -2.93534408e-01     -8.23771820e-01     
H    1.86209331e+00      5.86667982e-01      -8.63212050e-01     
H    1.77543098e+00      -1.10792706e+00     -3.63135275e-01     
C    7.65605026e-01      -6.46105010e-01     -2.22086906e+00     
O    -3.93132807e-01     -5.86510089e-01     -2.57340679e+00     
O    1.81185168e+00      -9.35827867e-01     -2.99161426e+00     
H    1.45796258e+00      -1.27554091e+00     -3.84833803e+00     
O    -1.29042650e+00     -2.38242808e+00     -1.89430349e-01     
H    -1.75197171e+00     -2.98060775e+00     4.05093592e-01      
H    -1.72370215e+00     -2.47468606e+00     -1.04338972e+00     
O    1.01184448e+00      1.11613089e+00      2.30758362e+00      
H    1.38612220e+00      6.42597979e-01      3.05470810e+00      
H    8.54368412e-01      2.00801722e+00      2.62763456e+00      
17
677.664284
N    1.68036863e-02      4.41266101e-03      -1.71233503e-02     
H    -5.60177403e-01     -8.63421187e-01     7.34498896e-02      
H    -5.66781445e-01     6.78382329e-01      -5.13316479e-01     
H    2.92288346e-01      3.90687967e-01      9.11080618e-01      
C    1.22229102e+00      -2.92582007e-01     -8.23910297e-01     
H    1.86530218e+00      5.85337084e-01      -8.58569311e-01     
H    1.77218254e+00      -1.11089023e+00     -3.66327114e-01     
C    7.65894768e-01      -6.43159502e-01     -2.22159175e+00     
O    -3.93247183e-01     -5.88047564e-01     -2.57313648e+00     
O    1.81145998e+00      -9.38264033e-01     -2.99096078e+00     
H    1.46054919e+00      -1.25329835e+00     -3.85408967e+00     
O    -1.29045271e+00     -2.38248514e+00     -1.89502790e-01     
H    -1.75185611e+00     -2.98037270e+00     4.05405479e-01      
H    -1.72445822e+00     -2.47439532e+00     -1.04311796e+00     
O    1.01184990e+00      1.11608476e+00      2.30759753e+00      
H    1.38623901e+00      6.42835242e-01      3.05484045e+00      
H    8.54298333e-01      2.00806357e+00      2.62736296e+00      
17
677.664284
N    1.68516768e-02      4.48205437e-03      -1.71190043e-02     
H    -5.58831311e-01     -8.64233656e-01     7.37523269e-02      
H    -5.68308214e-01     6.77132528e-01      -5.13209058e-01     
H    2.91883897e-01      3.91318541e-01      9.10988379e-01      
C    1.22253263e+00      -2.91629606e-01     -8.24048775e-01     
H    1.86851105e+00      5.84006187e-01      -8.53926571e-01     
H    1.76893411e+00      -1.11385340e+00     -3.69518954e-01     
C    7.66184511e-01      -6.40213994e-01     -2.22231445e+00     
O    -3.93361560e-01     -5.89585038e-01     -2.57286617e+00     
O    1.81106828e+00      -9.40700198e-01     -2.99030731e+00     
H    1.46313581e+00      -1.23105579e+00     -3.85984131e+00     
O    -1.29047893e+00     -2.38254220e+00     -1.89575231e-01     
H    -1.75174050e+00     -2.98013764e+00     4.05717367e-01      
H    -1.72521429e+00     -2.47410458e+00     -1.04284620e+00     
O    1.01185533e+00      1.11603864e+00      2.30761143e+00      
H    1.38635583e+00      6.43072504e-01      3.05497280e+00      
H    8.54228254e-01      2.00810991e+00      2.62709135e+00      
17
677.664284
N    1.68996673e-02      4.55144774e-03      -1.71146583e-02     
H    -5.57485218e-01     -8.65046125e-01     7.40547642e-02      
H    -5.69834984e-01     6.75882727e-01      -5.13101636e-01     
H    2.91479447e-01      3.91949116e-01      9.10896139e-01      
C    1.22277424e+00      -2.90677205e-01     -8.24187253e-01     
H    1.87171992e+00      5.82675289e-01      -8.49283831e-01     
H    1.76568568e+00      -1.11681656e+00     -3.72710793e-01     
C    7.66474253e-01      -6.37268485e-01     -2.22303714e+00     
O    -3.93475936e-01     -5.91122513e-01     -2.57259587e+00     
O    1.81067658e+00      -9.43136364e-01     -2.98965383e+00     
H    1.46572243e+00      -1.20881323e+00     -3.86559294e+00     
O    -1.29050514e+00     -2.38259925e+00     -1.89647672e-01     
H    -1.75162490e+00     -2.97990259e+00     4.06029254e-01      
H    -1.72597036e+00     -2.47381383e+00     -1.04257444e+00     
O    1.01186075e+00      1.11599252e+00      2.30762534e+00      
H    1.38647265e+00      6.43309767e-01      3.05510515e+00      
H    8.54158176e-01      2.00815626e+00      2.62681975e+00      
17
677.664284
N    1.69476578e-02      4.62084111e-03      -1.71103123e-02     
H    -5.56139126e-01     -8.65858594e-01     7.43572015e-02      
H    -5.71361754e-01     6.74632926e-01      -5.12994215e-01     
H    2.91074998e-01      3.92579690e-01      9.10803900e-01      
C    1.22301585e+00      -2.89724804e-01     -8.24325731e-01     
H    1.87492879e+00      5.81344392e-01      -8.44641091e-01     
H    1.76243725e+00      -1.11977973e+00     -3.75902632e-01     
C    7.66763996e-01      -6.34322977e-01     -2.22375983e+00     
O    -3.93590313e-01     -5.92659987e-01     -2.57232556e+00     
O    1.81028489e+00      -9.45572530e-01     -2.98900036e+00     
H    1.46830905e+00      -1.18657067e+00     -3.87134458e+00     
O    -1.29053136e+00     -2.38265631e+00     -1.89720113e-01     
H    -1.75150929e+00     -2.97966754e+00     4.06341141e-01      
H    -1.72672643e+00     -2.47352309e+00     -1.04230269e+00     
O    1.01186618e+00      1.11594640e+00      2.30763925e+00      
H    1.38658947e+00      6.43547030e-01      3.05523750e+00      
H    8.54088097e-01      2.00820261e+00      2.62654814e+00      
17
677.664284
N    1.69716530e-02      4.65553779e-03      -1.71081393e-02     
H    -5.55466080e-01     -8.66264829e-01     7.45084201e-02      
H    -5.72125139e-01     6.74008026e-01      -5.12940505e-01     
H    2.90872773e-01      3.92894977e-01      9.10757781e-01      
C    1.22313666e+00      -2.89248603e-01     -8.24394970e-01     
H    1.87653323e+00      5.80678943e-01      -8.42319722e-01     
H    1.76081303e+00      -1.12126132e+00     -3.77498552e-01     
C    7.66908867e-01      -6.32850223e-01     -2.22412117e+00     
O    -3.93647501e-01     -5.93428724e-01     -2.57219040e+00     
O    1.81008904e+00      -9.46790613e-01     -2.98867362e+00     
H    1.46960235e+00      -1.17544939e+00     -3.87422040e+00     
O    -1.29054447e+00     -2.38268484e+00     -1.89756334e-01     
H    -1.75145149e+00     -2.97955002e+00     4.06497085e-01      
H    -1.72710447e+00     -2.47337772e+00     -1.04216681e+00     
O    1.01186889e+00      1.11592333e+00      2.30764620e+00      
H    1.38664787e+00      6.43665661e-01      3.05530367e+00      
H    8.54053058e-01      2.00822579e+00      2.62641234e+00      
17
677.664284
N    1.69956483e-02      4.69023447e-03      -1.71059663e-02     
H    -5.54793034e-01     -8.66671064e-01     7.46596387e-02      
H    -5.72888523e-01     6.73383125e-01      -5.12886794e-01     
H    2.90670548e-01      3.93210265e-01      9.10711661e-01      
C    1.22325746e+00      -2.88772403e-01     -8.24464209e-01     
H    1.87813766e+00      5.80013494e-01      -8.39998352e-01     
H    1.75918881e+00      -1.12274290e+00     -3.79094472e-01     
C    7.67053738e-01      -6.31377469e-01     -2.22448252e+00     
O    -3.93704689e-01     -5.94197462e-01     -2.57205525e+00     
O    1.80989319e+00      -9.48008695e-01     -2.98834688e+00     
H    1.47089566e+00      -1.16432811e+00     -3.87709621e+00     
O    -1.29055757e+00     -2.38271337e+00     -1.89792554e-01     
H    -1.75139369e+00     -2.97943249e+00     4.06653029e-01      
H    -1.72748250e+00     -2.47323234e+00     -1.04203093e+00     
O    1.01187160e+00      1.11590027e+00      2.30765315e+00      
H    1.38670628e+00      6.43784292e-01      3.05536985e+00      
H    8.54018019e-01      2.00824896e+00      2.62627654e+00      
17
677.664284
N    1.70916293e-02      4.82902121e-03      -1.70972743e-02     
H    -5.52100850e-01     -8.68296002e-01     7.52645133e-02      
H    -5.75942063e-01     6.70883523e-01      -5.12671952e-01     
H    2.89861650e-01      3.94471413e-01      9.10527183e-01      
C    1.22374068e+00      -2.86867601e-01     -8.24741165e-01     
H    1.88455540e+00      5.77351700e-01      -8.30712872e-01     
H    1.75269195e+00      -1.12866924e+00     -3.85478150e-01     
C    7.67633224e-01      -6.25486453e-01     -2.22592790e+00     
O    -3.93933443e-01     -5.97272410e-01     -2.57151463e+00     
O    1.80910979e+00      -9.52881027e-01     -2.98703994e+00     
H    1.47606890e+00      -1.11984299e+00     -3.88859949e+00     
O    -1.29061001e+00     -2.38282749e+00     -1.89937436e-01     
H    -1.75116247e+00     -2.97896239e+00     4.07276803e-01      
H    -1.72899464e+00     -2.47265086e+00     -1.04148741e+00     
O    1.01188246e+00      1.11580803e+00      2.30768097e+00      
H    1.38693992e+00      6.44258818e-01      3.05563455e+00      
H    8.53877861e-01      2.00834166e+00      2.62573332e+00      
17
677.664284
N    1.71156246e-02      4.86371789e-03      -1.70951013e-02     
H    -5.51427804e-01     -8.68702237e-01     7.54157319e-02      
H    -5.76705447e-01     6.70258622e-01      -5.12618241e-01     
H    2.89659425e-01      3.94786701e-01      9.10481063e-01      
C    1.22386148e+00      -2.86391401e-01     -8.24810404e-01     
H    1.88615983e+00      5.76686251e-01      -8.28391502e-01     
H    1.75106773e+00      -1.13015082e+00     -3.87074070e-01     
C    7.67778095e-01      -6.24013699e-01     -2.22628925e+00     
O    -3.93990631e-01     -5.98041148e-01     -2.57137948e+00     
O    1.80891394e+00      -9.54099109e-01     -2.98671320e+00     
H    1.47736221e+00      -1.10872171e+00     -3.89147530e+00     
O    -1.29062311e+00     -2.38285602e+00     -1.89973656e-01     
H    -1.75110467e+00     -2.97884486e+00     4.07432747e-01      
H    -1.72937267e+00     -2.47250548e+00     -1.04135153e+00     
O    1.01188517e+00      1.11578497e+00      2.30768792e+00      
H    1.38699833e+00      6.44377449e-01      3.05570073e+00      
H    8.53842822e-01      2.00836483e+00      2.62559752e+00      
17
677.664284
N    1.71396198e-02      4.89841457e-03      -1.70929283e-02     
H    -5.50754758e-01     -8.69108472e-01     7.55669505e-02      
H    -5.77468832e-01     6.69633722e-01      -5.12564531e-01     
H    2.89457200e-01      3.95101988e-01      9.10434944e-01      
C    1.22398229e+00      -2.85915200e-01     -8.24879643e-01     
H    1.88776427e+00      5.76020802e-01      -8.26070133e-01     
H    1.74944351e+00      -1.13163241e+00     -3.88669990e-01     
C    7.67922966e-01      -6.22540945e-01     -2.22665059e+00     
O    -3.94047819e-01     -5.98809885e-01     -2.57124432e+00     
O    1.80871809e+00      -9.55317192e-01     -2.98638646e+00     
H    1.47865551e+00      -1.09760043e+00     -3.89435112e+00     
O    -1.29063622e+00     -2.38288455e+00     -1.90009877e-01     
H    -1.75104687e+00     -2.97872734e+00     4.07588691e-01      
H    -1.72975071e+00     -2.47236011e+00     -1.04121565e+00     
O    1.01188788e+00      1.11576190e+00      2.30769487e+00      
H    1.38705673e+00      6.44496080e-01      3.05576690e+00      
H    8.53807783e-01      2.00838801e+00      2.62546172e+00      
17
677.664284
N    1.71876103e-02      4.96780794e-03      -1.70885823e-02     
H    -5.49408666e-01     -8.69920941e-01     7.58693878e-02      
H    -5.78995602e-01     6.68383921e-01      -5.12457110e-01     
H    2.89052751e-01      3.95732562e-01      9.10342705e-01      
C    1.22422390e+00      -2.84962799e-01     -8.25018121e-01     
H    1.89097314e+00      5.74689905e-01      -8.21427393e-01     
H    1.74619508e+00      -1.13459558e+00     -3.91861829e-01     
C    7.68212709e-01      -6.19595437e-01     -2.22737328e+00     
O    -3.94162196e-01     -6.00347359e-01     -2.57097401e+00     
O    1.80832640e+00      -9.57753358e-01     -2.98573299e+00     
H    1.48124213e+00      -1.07535787e+00     -3.90010276e+00     
O    -1.29066244e+00     -2.38294161e+00     -1.90082318e-01     
H    -1.75093126e+00     -2.97849229e+00     4.07900578e-01      
H    -1.73050678e+00     -2.47206937e+00     -1.04094390e+00     
O    1.01189331e+00      1.11571578e+00      2.30770878e+00      
H    1.38717355e+00      6.44733343e-01      3.05589925e+00      
H    8.53737704e-01      2.00843436e+00      2.62519011e+00      
17
677.664284
N    1.72356008e-02      5.03720131e-03      -1.70842363e-02     
H    -5.48062573e-01     -8.70733410e-01     7.61718251e-02      
H    -5.80522372e-01     6.67134120e-01      -5.12349688e-01     
H    2.88648301e-01      3.96363137e-01      9.10250465e-01      
C    1.22446551e+00      -2.84010398e-01     -8.25156599e-01     
H    1.89418201e+00      5.73359007e-01      -8.16784653e-01     
H    1.74294665e+00      -1.13755874e+00     -3.95053668e-01     
C    7.68502451e-01      -6.16649928e-01     -2.22809597e+00     
O    -3.94276572e-01     -6.01884834e-01     -2.57070371e+00     
O    1.80793470e+00      -9.60189524e-01     -2.98507951e+00     
H    1.48382875e+00      -1.05311531e+00     -3.90585439e+00     
O    -1.29068865e+00     -2.38299866e+00     -1.90154759e-01     
H    -1.75081566e+00     -2.97825724e+00     4.08212465e-01      
H    -1.73126285e+00     -2.47177862e+00     -1.04067214e+00     
O    1.01189873e+00      1.11566966e+00      2.30772269e+00      
H    1.38729037e+00      6.44970606e-01      3.05603160e+00      
H    8.53667626e-01      2.00848071e+00      2.62491851e+00      
17
677.664284
N    1.72835913e-02      5.10659467e-03      -1.70798903e-02     
H    -5.46716481e-01     -8.71545879e-01     7.64742624e-02      
H    -5.82049141e-01     6.65884319e-01      -5.12242267e-01     
H    2.88243852e-01      3.96993711e-01      9.10158226e-01      
C    1.22470712e+00      -2.83057997e-01     -8.25295077e-01     
H    1.89739088e+00      5.72028110e-01      -8.12141913e-01     
H    1.73969822e+00      -1.14052191e+00     -3.98245508e-01     
C    7.68792194e-01      -6.13704420e-01     -2.22881867e+00     
O    -3.94390949e-01     -6.03422308e-01     -2.57043340e+00     
O    1.80754300e+00      -9.62625689e-01     -2.98442604e+00     
H    1.48641537e+00      -1.03087275e+00     -3.91160603e+00     
O    -1.29071487e+00     -2.38305572e+00     -1.90227200e-01     
H    -1.75070005e+00     -2.97802218e+00     4.08524353e-01      
H    -1.73201892e+00     -2.47148788e+00     -1.04040038e+00     
O    1.01190416e+00      1.11562354e+00      2.30773659e+00      
H    1.38740719e+00      6.45207868e-01      3.05616395e+00      
H    8.53597547e-01      2.00852705e+00      2.62464690e+00      
17
677.664284
N    1.73315818e-02      5.17598804e-03      -1.70755443e-02     
H    -5.45370389e-01     -8.72358349e-01     7.67766996e-02      
H    -5.83575911e-01     6.64634518e-01      -5.12134846e-01     
H    2.87839402e-01      3.97624286e-01      9.10065987e-01      
C    1.22494873e+00      -2.82105596e-01     -8.25433554e-01     
H    1.90059975e+00      5.70697212e-01      -8.07499174e-01     
H    1.73644978e+00      -1.14348508e+00     -4.01437347e-01     
C    7.69081936e-01      -6.10758912e-01     -2.22954136e+00     
O    -3.94505325e-01     -6.04959783e-01     -2.57016309e+00     
O    1.80715130e+00      -9.65061855e-01     -2.98377256e+00     
H    1.48900198e+00      -1.00863019e+00     -3.91735767e+00     
O    -1.29074108e+00     -2.38311278e+00     -1.90299641e-01     
H    -1.75058445e+00     -2.97778713e+00     4.08836240e-01      
H    -1.73277499e+00     -2.47119714e+00     -1.04012862e+00     
O    1.01190958e+00      1.11557741e+00      2.30775050e+00      
H    1.38752400e+00      6.45445131e-01      3.05629630e+00      
H    8.53527468e-01      2.00857340e+00      2.62437530e+00      
17
677.664284
N    1.74275628e-02      5.31477478e-03      -1.70668522e-02     
H    -5.42678205e-01     -8.73983287e-01     7.73815742e-02      
H    -5.86629450e-01     6.62134916e-01      -5.11920004e-01     
H    2.87030503e-01      3.98885434e-01      9.09881509e-01      
C    1.22543195e+00      -2.80200794e-01     -8.25710510e-01     
H    1.90701749e+00      5.68035417e-01      -7.98213694e-01     
H    1.72995292e+00      -1.14941142e+00     -4.07821026e-01     
C    7.69661421e-01      -6.04867896e-01     -2.23098674e+00     
O    -3.94734079e-01     -6.08034732e-01     -2.56962247e+00     
O    1.80636791e+00      -9.69934186e-01     -2.98246561e+00     
H    1.49417522e+00      -9.64145064e-01     -3.92886094e+00     
O    -1.29079351e+00     -2.38322690e+00     -1.90444523e-01     
H    -1.75035324e+00     -2.97731703e+00     4.09460015e-01      
H    -1.73428712e+00     -2.47061565e+00     -1.03958510e+00     
O    1.01192044e+00      1.11548517e+00      2.30777831e+00      
H    1.38775764e+00      6.45919656e-01      3.05656100e+00      
H    8.53387311e-01      2.00866610e+00      2.62383209e+00      
