17
1654.504553
N    1.72658001e-02      4.60725548e-03      -1.78942199e-02     
H    -5.46566941e-01     -8.73995337e-01     8.91843275e-02      
H    -5.62039659e-01     6.84375680e-01      -5.10133078e-01     
H    2.75492405e-01      3.96939030e-01      9.12293294e-01      
C    1.22297246e+00      -2.88033912e-01     -8.25927979e-01     
H    1.88052741e+00      5.78446078e-01      -8.32869459e-01     
H    1.75569718e+00      -1.12401835e+00     -3.80064731e-01     
C    7.68093279e-01      -6.28238966e-01     -2.22420365e+00     
O    -3.94375000e-01     -5.95573243e-01     -2.57206841e+00     
O    1.80958085e+00      -9.50533215e-01     -2.98785255e+00     
H    1.47372033e+00      -1.14222043e+00     -3.88307331e+00     
O    -1.30137942e+00     -2.39173891e+00     -1.92939314e-01     
H    -1.66862350e+00     -2.93938652e+00     5.10163361e-01      
H    -1.64161222e+00     -2.37835390e+00     -1.09613682e+00     
O    1.01159493e+00      1.11522570e+00      2.30620204e+00      
H    1.38596889e+00      6.56743468e-01      3.06403246e+00      
H    8.59494499e-01      2.00454225e+00      2.63956371e+00      
17
1654.504553
N    1.72102598e-02      4.64534857e-03      -1.76960700e-02     
H    -5.48286942e-01     -8.72367386e-01     8.56287646e-02      
H    -5.65133567e-01     6.81315091e-01      -5.10794652e-01     
H    2.79185828e-01      3.96164482e-01      9.11874826e-01      
C    1.22310411e+00      -2.87980434e-01     -8.25596656e-01     
H    1.88073219e+00      5.78505208e-01      -8.33490997e-01     
H    1.75575798e+00      -1.12444028e+00     -3.80620126e-01     
C    7.67905829e-01      -6.28287215e-01     -2.22445404e+00     
O    -3.94236017e-01     -5.95613666e-01     -2.57199754e+00     
O    1.80956101e+00      -9.50511126e-01     -2.98781277e+00     
H    1.47366082e+00      -1.14218671e+00     -3.88301695e+00     
O    -1.29868051e+00     -2.38949679e+00     -1.92170735e-01     
H    -1.68928715e+00     -2.94933925e+00     4.84363750e-01      
H    -1.66326881e+00     -2.40200083e+00     -1.08254241e+00     
O    1.01166545e+00      1.11538281e+00      2.30656830e+00      
H    1.38618244e+00      6.53562989e-01      3.06189989e+00      
H    8.58107859e-01      2.00548052e+00      2.63617402e+00      
17
1654.504553
N    1.71824896e-02      4.66439512e-03      -1.75969951e-02     
H    -5.49146942e-01     -8.71553411e-01     8.38509832e-02      
H    -5.66680522e-01     6.79784797e-01      -5.11125439e-01     
H    2.81032540e-01      3.95777208e-01      9.11665592e-01      
C    1.22316994e+00      -2.87953696e-01     -8.25430995e-01     
H    1.88083458e+00      5.78534773e-01      -8.33801766e-01     
H    1.75578838e+00      -1.12465125e+00     -3.80897823e-01     
C    7.67812105e-01      -6.28311339e-01     -2.22457924e+00     
O    -3.94166525e-01     -5.95633878e-01     -2.57196211e+00     
O    1.80955109e+00      -9.50500082e-01     -2.98779287e+00     
H    1.47363106e+00      -1.14216985e+00     -3.88298877e+00     
O    -1.29733106e+00     -2.38837573e+00     -1.91786445e-01     
H    -1.69961897e+00     -2.95431561e+00     4.71463944e-01      
H    -1.67409710e+00     -2.41382429e+00     -1.07574520e+00     
O    1.01170072e+00      1.11546137e+00      2.30675142e+00      
H    1.38628922e+00      6.51972750e-01      3.06083361e+00      
H    8.57414539e-01      2.00594965e+00      2.63447917e+00      
17
1654.504553
N    1.71547194e-02      4.68344166e-03      -1.74979201e-02     
H    -5.50006942e-01     -8.70739435e-01     8.20732017e-02      
H    -5.68227476e-01     6.78254502e-01      -5.11456226e-01     
H    2.82879252e-01      3.95389934e-01      9.11456358e-01      
C    1.22323576e+00      -2.87926957e-01     -8.25265333e-01     
H    1.88093697e+00      5.78564338e-01      -8.34112536e-01     
H    1.75581878e+00      -1.12486221e+00     -3.81175521e-01     
C    7.67718380e-01      -6.28335464e-01     -2.22470443e+00     
O    -3.94097033e-01     -5.95654090e-01     -2.57192668e+00     
O    1.80954117e+00      -9.50489038e-01     -2.98777298e+00     
H    1.47360131e+00      -1.14215299e+00     -3.88296058e+00     
O    -1.29598160e+00     -2.38725467e+00     -1.91402155e-01     
H    -1.70995079e+00     -2.95929198e+00     4.58564138e-01      
H    -1.68492539e+00     -2.42564775e+00     -1.06894800e+00     
O    1.01173598e+00      1.11553992e+00      2.30693455e+00      
H    1.38639599e+00      6.50382511e-01      3.05976733e+00      
H    8.56721219e-01      2.00641878e+00      2.63278432e+00      
17
1654.504553
N    1.71269493e-02      4.70248821e-03      -1.73988452e-02     
H    -5.50866942e-01     -8.69925460e-01     8.02954203e-02      
H    -5.69774430e-01     6.76724208e-01      -5.11787012e-01     
H    2.84725964e-01      3.95002661e-01      9.11247124e-01      
C    1.22330159e+00      -2.87900218e-01     -8.25099672e-01     
H    1.88103936e+00      5.78593902e-01      -8.34423305e-01     
H    1.75584918e+00      -1.12507318e+00     -3.81453218e-01     
C    7.67624655e-01      -6.28359588e-01     -2.22482963e+00     
O    -3.94027541e-01     -5.95674301e-01     -2.57189124e+00     
O    1.80953125e+00      -9.50477994e-01     -2.98775309e+00     
H    1.47357155e+00      -1.14213613e+00     -3.88293240e+00     
O    -1.29463215e+00     -2.38613361e+00     -1.91017865e-01     
H    -1.72028261e+00     -2.96426834e+00     4.45664333e-01      
H    -1.69575369e+00     -2.43747121e+00     -1.06215079e+00     
O    1.01177124e+00      1.11561848e+00      2.30711768e+00      
H    1.38650277e+00      6.48792272e-01      3.05870105e+00      
H    8.56027899e-01      2.00688791e+00      2.63108947e+00      
17
1654.504553
N    1.70991791e-02      4.72153475e-03      -1.72997702e-02     
H    -5.51726942e-01     -8.69111484e-01     7.85176389e-02      
H    -5.71321384e-01     6.75193913e-01      -5.12117799e-01     
H    2.86572675e-01      3.94615387e-01      9.11037890e-01      
C    1.22336742e+00      -2.87873479e-01     -8.24934010e-01     
H    1.88114175e+00      5.78623467e-01      -8.34734074e-01     
H    1.75587958e+00      -1.12528414e+00     -3.81730916e-01     
C    7.67530930e-01      -6.28383712e-01     -2.22495482e+00     
O    -3.93958050e-01     -5.95694513e-01     -2.57185581e+00     
O    1.80952133e+00      -9.50466949e-01     -2.98773320e+00     
H    1.47354179e+00      -1.14211927e+00     -3.88290422e+00     
O    -1.29328270e+00     -2.38501255e+00     -1.90633575e-01     
H    -1.73061444e+00     -2.96924471e+00     4.32764527e-01      
H    -1.70658198e+00     -2.44929468e+00     -1.05535358e+00     
O    1.01180650e+00      1.11569704e+00      2.30730081e+00      
H    1.38660955e+00      6.47202033e-01      3.05763476e+00      
H    8.55334580e-01      2.00735705e+00      2.62939463e+00      
17
1654.504553
N    1.70852940e-02      4.73105802e-03      -1.72502327e-02     
H    -5.52156942e-01     -8.68704496e-01     7.76287482e-02      
H    -5.72094862e-01     6.74428766e-01      -5.12283193e-01     
H    2.87496031e-01      3.94421750e-01      9.10933273e-01      
C    1.22340033e+00      -2.87860110e-01     -8.24851179e-01     
H    1.88119294e+00      5.78638250e-01      -8.34889458e-01     
H    1.75589478e+00      -1.12538962e+00     -3.81869765e-01     
C    7.67484068e-01      -6.28395774e-01     -2.22501742e+00     
O    -3.93923304e-01     -5.95704619e-01     -2.57183809e+00     
O    1.80951637e+00      -9.50461427e-01     -2.98772325e+00     
H    1.47352691e+00      -1.14211084e+00     -3.88289012e+00     
O    -1.29260797e+00     -2.38445202e+00     -1.90441430e-01     
H    -1.73578035e+00     -2.97173289e+00     4.26314624e-01      
H    -1.71199613e+00     -2.45520641e+00     -1.05195498e+00     
O    1.01182414e+00      1.11573632e+00      2.30739237e+00      
H    1.38666294e+00      6.46406914e-01      3.05710162e+00      
H    8.54987920e-01      2.00759161e+00      2.62854720e+00      
17
1654.504553
N    1.70714090e-02      4.74058130e-03      -1.72006953e-02     
H    -5.52586942e-01     -8.68297509e-01     7.67398574e-02      
H    -5.72868339e-01     6.73663619e-01      -5.12448586e-01     
H    2.88419387e-01      3.94228113e-01      9.10828656e-01      
C    1.22343324e+00      -2.87846741e-01     -8.24768349e-01     
H    1.88124414e+00      5.78653032e-01      -8.35044843e-01     
H    1.75590998e+00      -1.12549511e+00     -3.82008613e-01     
C    7.67437206e-01      -6.28407837e-01     -2.22508002e+00     
O    -3.93888558e-01     -5.95714724e-01     -2.57182037e+00     
O    1.80951141e+00      -9.50455905e-01     -2.98771330e+00     
H    1.47351204e+00      -1.14210241e+00     -3.88287603e+00     
O    -1.29193324e+00     -2.38389149e+00     -1.90249285e-01     
H    -1.74094626e+00     -2.97422107e+00     4.19864722e-01      
H    -1.71741028e+00     -2.46111814e+00     -1.04855638e+00     
O    1.01184177e+00      1.11577559e+00      2.30748393e+00      
H    1.38671632e+00      6.45611794e-01      3.05656848e+00      
H    8.54641260e-01      2.00782618e+00      2.62769978e+00      
17
1654.504553
N    1.70158686e-02      4.77867438e-03      -1.70025453e-02     
H    -5.54306942e-01     -8.66669557e-01     7.31842946e-02      
H    -5.75962247e-01     6.70603029e-01      -5.13110160e-01     
H    2.92112811e-01      3.93453565e-01      9.10410188e-01      
C    1.22356490e+00      -2.87793263e-01     -8.24437025e-01     
H    1.88144892e+00      5.78712162e-01      -8.35666381e-01     
H    1.75597078e+00      -1.12591703e+00     -3.82564009e-01     
C    7.67249756e-01      -6.28456085e-01     -2.22533040e+00     
O    -3.93749574e-01     -5.95755148e-01     -2.57174951e+00     
O    1.80949157e+00      -9.50433817e-01     -2.98767352e+00     
H    1.47345252e+00      -1.14206869e+00     -3.88281967e+00     
O    -1.28923434e+00     -2.38164937e+00     -1.89480705e-01     
H    -1.76160990e+00     -2.98417381e+00     3.94065110e-01      
H    -1.73906686e+00     -2.48476506e+00     -1.03496196e+00     
O    1.01191229e+00      1.11593271e+00      2.30785019e+00      
H    1.38692988e+00      6.42431316e-01      3.05443592e+00      
H    8.53254620e-01      2.00876444e+00      2.62431008e+00      
17
1654.504553
N    1.70019836e-02      4.78819766e-03      -1.69530079e-02     
H    -5.54736942e-01     -8.66262570e-01     7.22954038e-02      
H    -5.76735724e-01     6.69837882e-01      -5.13275553e-01     
H    2.93036167e-01      3.93259928e-01      9.10305571e-01      
C    1.22359781e+00      -2.87779894e-01     -8.24354195e-01     
H    1.88150012e+00      5.78726944e-01      -8.35821766e-01     
H    1.75598598e+00      -1.12602252e+00     -3.82702857e-01     
C    7.67202894e-01      -6.28468148e-01     -2.22539300e+00     
O    -3.93714828e-01     -5.95765253e-01     -2.57173179e+00     
O    1.80948661e+00      -9.50428295e-01     -2.98766357e+00     
H    1.47343765e+00      -1.14206026e+00     -3.88280558e+00     
O    -1.28855961e+00     -2.38108884e+00     -1.89288560e-01     
H    -1.76677581e+00     -2.98666199e+00     3.87615208e-01      
H    -1.74448101e+00     -2.49067679e+00     -1.03156336e+00     
O    1.01192992e+00      1.11597198e+00      2.30794175e+00      
H    1.38698326e+00      6.41636196e-01      3.05390278e+00      
H    8.52907960e-01      2.00899901e+00      2.62346266e+00      
17
1654.504553
N    1.69880985e-02      4.79772093e-03      -1.69034704e-02     
H    -5.55166942e-01     -8.65855582e-01     7.14065131e-02      
H    -5.77509202e-01     6.69072735e-01      -5.13440947e-01     
H    2.93959523e-01      3.93066291e-01      9.10200954e-01      
C    1.22363072e+00      -2.87766525e-01     -8.24271364e-01     
H    1.88155131e+00      5.78741727e-01      -8.35977150e-01     
H    1.75600118e+00      -1.12612800e+00     -3.82841706e-01     
C    7.67156032e-01      -6.28480210e-01     -2.22545560e+00     
O    -3.93680082e-01     -5.95775359e-01     -2.57171407e+00     
O    1.80948165e+00      -9.50422773e-01     -2.98765362e+00     
H    1.47342277e+00      -1.14205183e+00     -3.88279148e+00     
O    -1.28788488e+00     -2.38052831e+00     -1.89096415e-01     
H    -1.77194172e+00     -2.98915017e+00     3.81165305e-01      
H    -1.74989516e+00     -2.49658852e+00     -1.02816476e+00     
O    1.01194756e+00      1.11601126e+00      2.30803331e+00      
H    1.38703665e+00      6.40841077e-01      3.05336964e+00      
H    8.52561300e-01      2.00923357e+00      2.62261523e+00      
17
1654.504553
N    1.69603283e-02      4.81676747e-03      -1.68043954e-02     
H    -5.56026942e-01     -8.65041606e-01     6.96287317e-02      
H    -5.79056156e-01     6.67542440e-01      -5.13771734e-01     
H    2.95806234e-01      3.92679017e-01      9.09991720e-01      
C    1.22369655e+00      -2.87739786e-01     -8.24105702e-01     
H    1.88165370e+00      5.78771292e-01      -8.36287919e-01     
H    1.75603158e+00      -1.12633896e+00     -3.83119404e-01     
C    7.67062307e-01      -6.28504334e-01     -2.22558079e+00     
O    -3.93610591e-01     -5.95795571e-01     -2.57167864e+00     
O    1.80947173e+00      -9.50411728e-01     -2.98763373e+00     
H    1.47339301e+00      -1.14203497e+00     -3.88276330e+00     
O    -1.28653543e+00     -2.37940725e+00     -1.88712125e-01     
H    -1.78227355e+00     -2.99412654e+00     3.68265499e-01      
H    -1.76072345e+00     -2.50841199e+00     -1.02136755e+00     
O    1.01198282e+00      1.11608982e+00      2.30821644e+00      
H    1.38714343e+00      6.39250838e-01      3.05230335e+00      
H    8.51867981e-01      2.00970271e+00      2.62092039e+00      
17
1654.504553
N    1.69325582e-02      4.83581402e-03      -1.67053205e-02     
H    -5.56886942e-01     -8.64227631e-01     6.78509503e-02      
H    -5.80603110e-01     6.66012146e-01      -5.14102520e-01     
H    2.97652946e-01      3.92291744e-01      9.09782486e-01      
C    1.22376238e+00      -2.87713047e-01     -8.23940041e-01     
H    1.88175609e+00      5.78800856e-01      -8.36598688e-01     
H    1.75606198e+00      -1.12654993e+00     -3.83397101e-01     
C    7.66968582e-01      -6.28528458e-01     -2.22570599e+00     
O    -3.93541099e-01     -5.95815782e-01     -2.57164320e+00     
O    1.80946181e+00      -9.50400684e-01     -2.98761384e+00     
H    1.47336325e+00      -1.14201811e+00     -3.88273512e+00     
O    -1.28518598e+00     -2.37828619e+00     -1.88327835e-01     
H    -1.79260537e+00     -2.99910290e+00     3.55365694e-01      
H    -1.77155175e+00     -2.52023545e+00     -1.01457034e+00     
O    1.01201808e+00      1.11616838e+00      2.30839957e+00      
H    1.38725021e+00      6.37660599e-01      3.05123707e+00      
H    8.51174661e-01      2.01017184e+00      2.61922554e+00      
17
1654.504553
N    1.69047880e-02      4.85486056e-03      -1.66062455e-02     
H    -5.57746942e-01     -8.63413655e-01     6.60731688e-02      
H    -5.82150064e-01     6.64481851e-01      -5.14433307e-01     
H    2.99499658e-01      3.91904470e-01      9.09573252e-01      
C    1.22382820e+00      -2.87686308e-01     -8.23774379e-01     
H    1.88185848e+00      5.78830421e-01      -8.36909458e-01     
H    1.75609238e+00      -1.12676089e+00     -3.83674799e-01     
C    7.66874857e-01      -6.28552583e-01     -2.22583118e+00     
O    -3.93471607e-01     -5.95835994e-01     -2.57160777e+00     
O    1.80945189e+00      -9.50389640e-01     -2.98759395e+00     
H    1.47333350e+00      -1.14200125e+00     -3.88270693e+00     
O    -1.28383652e+00     -2.37716513e+00     -1.87943545e-01     
H    -1.80293719e+00     -3.00407927e+00     3.42465888e-01      
H    -1.78238004e+00     -2.53205891e+00     -1.00777314e+00     
O    1.01205334e+00      1.11624693e+00      2.30858270e+00      
H    1.38735698e+00      6.36070360e-01      3.05017079e+00      
H    8.50481341e-01      2.01064097e+00      2.61753069e+00      
17
1654.504553
N    1.68770178e-02      4.87390711e-03      -1.65071706e-02     
H    -5.58606942e-01     -8.62599680e-01     6.42953874e-02      
H    -5.83697019e-01     6.62951557e-01      -5.14764094e-01     
H    3.01346370e-01      3.91517196e-01      9.09364018e-01      
C    1.22389403e+00      -2.87659570e-01     -8.23608718e-01     
H    1.88196087e+00      5.78859986e-01      -8.37220227e-01     
H    1.75612278e+00      -1.12697186e+00     -3.83952496e-01     
C    7.66781133e-01      -6.28576707e-01     -2.22595638e+00     
O    -3.93402115e-01     -5.95856206e-01     -2.57157234e+00     
O    1.80944197e+00      -9.50378596e-01     -2.98757405e+00     
H    1.47330374e+00      -1.14198439e+00     -3.88267875e+00     
O    -1.28248707e+00     -2.37604407e+00     -1.87559255e-01     
H    -1.81326901e+00     -3.00905563e+00     3.29566082e-01      
H    -1.79320833e+00     -2.54388237e+00     -1.00097593e+00     
O    1.01208861e+00      1.11632549e+00      2.30876582e+00      
H    1.38746376e+00      6.34480121e-01      3.04910451e+00      
H    8.49788021e-01      2.01111010e+00      2.61583584e+00      
17
1654.504553
N    1.68214775e-02      4.91200020e-03      -1.63090207e-02     
H    -5.60326943e-01     -8.60971729e-01     6.07398245e-02      
H    -5.86790927e-01     6.59890968e-01      -5.15425668e-01     
H    3.05039793e-01      3.90742648e-01      9.08945550e-01      
C    1.22402568e+00      -2.87606092e-01     -8.23277395e-01     
H    1.88216565e+00      5.78919116e-01      -8.37841765e-01     
H    1.75618358e+00      -1.12739379e+00     -3.84507891e-01     
C    7.66593683e-01      -6.28624956e-01     -2.22620677e+00     
O    -3.93263132e-01     -5.95896629e-01     -2.57150147e+00     
O    1.80942213e+00      -9.50356507e-01     -2.98753427e+00     
H    1.47324423e+00      -1.14195067e+00     -3.88262239e+00     
O    -1.27978816e+00     -2.37380195e+00     -1.86790676e-01     
H    -1.83393266e+00     -3.01900836e+00     3.03766471e-01      
H    -1.81486492e+00     -2.56752930e+00     -9.87381516e-01     
O    1.01215913e+00      1.11648260e+00      2.30913208e+00      
H    1.38767731e+00      6.31299642e-01      3.04697194e+00      
H    8.48401381e-01      2.01204837e+00      2.61244615e+00      
