17
1669.813400
N    1.85479455e-02      3.21909533e-03      -1.72537171e-02     
H    -5.63104293e-01     -8.65481847e-01     5.85387868e-02      
H    -5.82592042e-01     6.72643535e-01      -4.98887395e-01     
H    2.82914446e-01      4.16710209e-01      9.07694800e-01      
C    1.22355122e+00      -2.88237857e-01     -8.24716390e-01     
H    1.88005152e+00      5.79310872e-01      -8.35628863e-01     
H    1.75538549e+00      -1.12582855e+00     -3.80818388e-01     
C    7.66965784e-01      -6.28288840e-01     -2.22509977e+00     
O    -3.93592268e-01     -5.95680047e-01     -2.57173218e+00     
O    1.80963231e+00      -9.50485607e-01     -2.98777243e+00     
H    1.47303364e+00      -1.14209874e+00     -3.88264743e+00     
O    -1.29177961e+00     -2.38384712e+00     -1.90062916e-01     
H    -1.74190762e+00     -2.97526862e+00     4.18304379e-01      
H    -1.71832304e+00     -2.46150184e+00     -1.04804607e+00     
O    1.01491776e+00      1.12086704e+00      2.32059894e+00      
H    1.39454553e+00      5.30348785e-01      2.97937854e+00      
H    8.02442971e-01      2.04270669e+00      2.50166791e+00      
17
1669.813400
N    1.81718688e-02      3.60422846e-03      -1.72156929e-02     
H    -5.60689955e-01     -8.65982269e-01     6.26446091e-02      
H    -5.80547855e-01     6.72515982e-01      -5.02360389e-01     
H    2.84752359e-01      4.10992866e-01      9.08425956e-01      
C    1.22353818e+00      -2.88133393e-01     -8.24687964e-01     
H    1.88037527e+00      5.79153803e-01      -8.35560550e-01     
H    1.75552421e+00      -1.12579793e+00     -3.81185369e-01     
C    7.67060208e-01      -6.28324620e-01     -2.22512613e+00     
O    -3.93648968e-01     -5.95693769e-01     -2.57174537e+00     
O    1.80959960e+00      -9.50475420e-01     -2.98775267e+00     
H    1.47314580e+00      -1.14209544e+00     -3.88269753e+00     
O    -1.29148065e+00     -2.38357795e+00     -1.90013436e-01     
H    -1.74425024e+00     -2.97625083e+00     4.15469513e-01      
H    -1.72080192e+00     -2.46436178e+00     -1.04647434e+00     
O    1.01415758e+00      1.11961382e+00      2.31736597e+00      
H    1.39261492e+00      5.58766978e-01      2.99840946e+00      
H    8.15319213e-01      2.03410384e+00      2.53275216e+00      
17
1669.813400
N    1.79838305e-02      3.79679502e-03      -1.71966808e-02     
H    -5.59482786e-01     -8.66232479e-01     6.46975202e-02      
H    -5.79525761e-01     6.72452206e-01      -5.04096887e-01     
H    2.85671316e-01      4.08134195e-01      9.08791533e-01      
C    1.22353166e+00      -2.88081161e-01     -8.24673751e-01     
H    1.88053715e+00      5.79075269e-01      -8.35526394e-01     
H    1.75559357e+00      -1.12578262e+00     -3.81368859e-01     
C    7.67107421e-01      -6.28342510e-01     -2.22513931e+00     
O    -3.93677317e-01     -5.95700630e-01     -2.57175196e+00     
O    1.80958325e+00      -9.50470327e-01     -2.98774280e+00     
H    1.47320188e+00      -1.14209379e+00     -3.88272259e+00     
O    -1.29133118e+00     -2.38344336e+00     -1.89988696e-01     
H    -1.74542154e+00     -2.97674193e+00     4.14052080e-01      
H    -1.72204136e+00     -2.46579175e+00     -1.04568848e+00     
O    1.01377749e+00      1.11898721e+00      2.31574949e+00      
H    1.39164962e+00      5.72976074e-01      3.00792492e+00      
H    8.21757334e-01      2.02980242e+00      2.54829429e+00      
17
1669.813400
N    1.77957921e-02      3.98936159e-03      -1.71776687e-02     
H    -5.58275617e-01     -8.66482690e-01     6.67504314e-02      
H    -5.78503668e-01     6.72388430e-01      -5.05833384e-01     
H    2.86590272e-01      4.05275524e-01      9.09157111e-01      
C    1.22352514e+00      -2.88028929e-01     -8.24659538e-01     
H    1.88069902e+00      5.78996734e-01      -8.35492238e-01     
H    1.75566293e+00      -1.12576731e+00     -3.81552350e-01     
C    7.67154633e-01      -6.28360400e-01     -2.22515249e+00     
O    -3.93705667e-01     -5.95707491e-01     -2.57175856e+00     
O    1.80956690e+00      -9.50465234e-01     -2.98773292e+00     
H    1.47325796e+00      -1.14209214e+00     -3.88274764e+00     
O    -1.29118170e+00     -2.38330878e+00     -1.89963956e-01     
H    -1.74659285e+00     -2.97723303e+00     4.12634648e-01      
H    -1.72328080e+00     -2.46722172e+00     -1.04490262e+00     
O    1.01339740e+00      1.11836060e+00      2.31413300e+00      
H    1.39068431e+00      5.87185170e-01      3.01744037e+00      
H    8.28195455e-01      2.02550100e+00      2.56383642e+00      
17
1669.813400
N    1.76077538e-02      4.18192815e-03      -1.71586566e-02     
H    -5.57068448e-01     -8.66732901e-01     6.88033425e-02      
H    -5.77481574e-01     6.72324653e-01      -5.07569881e-01     
H    2.87509229e-01      4.02416853e-01      9.09522689e-01      
C    1.22351863e+00      -2.87976698e-01     -8.24645325e-01     
H    1.88086090e+00      5.78918200e-01      -8.35458081e-01     
H    1.75573230e+00      -1.12575200e+00     -3.81735840e-01     
C    7.67201845e-01      -6.28378290e-01     -2.22516567e+00     
O    -3.93734017e-01     -5.95714353e-01     -2.57176515e+00     
O    1.80955055e+00      -9.50460141e-01     -2.98772304e+00     
H    1.47331404e+00      -1.14209050e+00     -3.88277269e+00     
O    -1.29103222e+00     -2.38317419e+00     -1.89939215e-01     
H    -1.74776416e+00     -2.97772413e+00     4.11217215e-01      
H    -1.72452024e+00     -2.46865169e+00     -1.04411676e+00     
O    1.01301730e+00      1.11773398e+00      2.31251652e+00      
H    1.38971901e+00      6.01394266e-01      3.02695583e+00      
H    8.34633577e-01      2.02119958e+00      2.57937855e+00      
17
1669.813400
N    1.74197155e-02      4.37449471e-03      -1.71396445e-02     
H    -5.55861280e-01     -8.66983112e-01     7.08562537e-02      
H    -5.76459480e-01     6.72260877e-01      -5.09306378e-01     
H    2.88428186e-01      3.99558181e-01      9.09888267e-01      
C    1.22351211e+00      -2.87924466e-01     -8.24631113e-01     
H    1.88102278e+00      5.78839666e-01      -8.35423925e-01     
H    1.75580166e+00      -1.12573669e+00     -3.81919330e-01     
C    7.67249057e-01      -6.28396181e-01     -2.22517885e+00     
O    -3.93762367e-01     -5.95721214e-01     -2.57177175e+00     
O    1.80953419e+00      -9.50455047e-01     -2.98771316e+00     
H    1.47337012e+00      -1.14208885e+00     -3.88279774e+00     
O    -1.29088274e+00     -2.38303960e+00     -1.89914475e-01     
H    -1.74893547e+00     -2.97821524e+00     4.09799782e-01      
H    -1.72575969e+00     -2.47008166e+00     -1.04333089e+00     
O    1.01263721e+00      1.11710737e+00      2.31090003e+00      
H    1.38875371e+00      6.15603363e-01      3.03647129e+00      
H    8.41071698e-01      2.01689815e+00      2.59492067e+00      
17
1669.813400
N    1.73256963e-02      4.47077799e-03      -1.71301384e-02     
H    -5.55257695e-01     -8.67108217e-01     7.18827093e-02      
H    -5.75948434e-01     6.72228989e-01      -5.10174627e-01     
H    2.88887664e-01      3.98128846e-01      9.10071055e-01      
C    1.22350885e+00      -2.87898350e-01     -8.24624006e-01     
H    1.88110372e+00      5.78800399e-01      -8.35406847e-01     
H    1.75583634e+00      -1.12572904e+00     -3.82011075e-01     
C    7.67272663e-01      -6.28405126e-01     -2.22518544e+00     
O    -3.93776541e-01     -5.95724644e-01     -2.57177505e+00     
O    1.80952602e+00      -9.50452501e-01     -2.98770823e+00     
H    1.47339816e+00      -1.14208802e+00     -3.88281027e+00     
O    -1.29080801e+00     -2.38297231e+00     -1.89902105e-01     
H    -1.74952112e+00     -2.97846079e+00     4.09091065e-01      
H    -1.72637941e+00     -2.47079664e+00     -1.04293796e+00     
O    1.01244717e+00      1.11679407e+00      2.31009179e+00      
H    1.38827106e+00      6.22707911e-01      3.04122901e+00      
H    8.44290758e-01      2.01474744e+00      2.60269174e+00      
17
1669.813400
N    1.72316771e-02      4.56706128e-03      -1.71206324e-02     
H    -5.54654111e-01     -8.67233322e-01     7.29091648e-02      
H    -5.75437387e-01     6.72197100e-01      -5.11042876e-01     
H    2.89347142e-01      3.96699510e-01      9.10253844e-01      
C    1.22350559e+00      -2.87872234e-01     -8.24616900e-01     
H    1.88118465e+00      5.78761131e-01      -8.35389768e-01     
H    1.75587102e+00      -1.12572138e+00     -3.82102821e-01     
C    7.67296269e-01      -6.28414071e-01     -2.22519203e+00     
O    -3.93790716e-01     -5.95728075e-01     -2.57177834e+00     
O    1.80951784e+00      -9.50449954e-01     -2.98770329e+00     
H    1.47342620e+00      -1.14208720e+00     -3.88282280e+00     
O    -1.29073327e+00     -2.38290502e+00     -1.89889735e-01     
H    -1.75010677e+00     -2.97870634e+00     4.08382349e-01      
H    -1.72699913e+00     -2.47151163e+00     -1.04254503e+00     
O    1.01225712e+00      1.11648076e+00      2.30928355e+00      
H    1.38778840e+00      6.29812459e-01      3.04598674e+00      
H    8.47509819e-01      2.01259673e+00      2.61046280e+00      
17
1669.813400
N    1.68556005e-02      4.95219440e-03      -1.70826082e-02     
H    -5.52239773e-01     -8.67733744e-01     7.70149872e-02      
H    -5.73393199e-01     6.72069548e-01      -5.14515870e-01     
H    2.91185056e-01      3.90982168e-01      9.10985000e-01      
C    1.22349255e+00      -2.87767770e-01     -8.24588474e-01     
H    1.88150841e+00      5.78604063e-01      -8.35321456e-01     
H    1.75600974e+00      -1.12569076e+00     -3.82469801e-01     
C    7.67390693e-01      -6.28449851e-01     -2.22521839e+00     
O    -3.93847416e-01     -5.95741797e-01     -2.57179154e+00     
O    1.80948514e+00      -9.50439768e-01     -2.98768353e+00     
H    1.47353836e+00      -1.14208390e+00     -3.88287290e+00     
O    -1.29043431e+00     -2.38263584e+00     -1.89840255e-01     
H    -1.75244939e+00     -2.97968854e+00     4.05547483e-01      
H    -1.72947801e+00     -2.47437157e+00     -1.04097331e+00     
O    1.01149694e+00      1.11522754e+00      2.30605057e+00      
H    1.38585780e+00      6.58230651e-01      3.06501766e+00      
H    8.60386061e-01      2.00399389e+00      2.64154706e+00      
17
1669.813400
N    1.67615813e-02      5.04847769e-03      -1.70731022e-02     
H    -5.51636189e-01     -8.67858849e-01     7.80414427e-02      
H    -5.72882152e-01     6.72037659e-01      -5.15384119e-01     
H    2.91644534e-01      3.89552832e-01      9.11167789e-01      
C    1.22348929e+00      -2.87741654e-01     -8.24581368e-01     
H    1.88158934e+00      5.78564795e-01      -8.35304377e-01     
H    1.75604442e+00      -1.12568310e+00     -3.82561547e-01     
C    7.67414299e-01      -6.28458796e-01     -2.22522498e+00     
O    -3.93861591e-01     -5.95745228e-01     -2.57179483e+00     
O    1.80947696e+00      -9.50437221e-01     -2.98767859e+00     
H    1.47356640e+00      -1.14208308e+00     -3.88288543e+00     
O    -1.29035957e+00     -2.38256855e+00     -1.89827885e-01     
H    -1.75303504e+00     -2.97993409e+00     4.04838767e-01      
H    -1.73009773e+00     -2.47508656e+00     -1.04058038e+00     
O    1.01130689e+00      1.11491423e+00      2.30524233e+00      
H    1.38537514e+00      6.65335199e-01      3.06977539e+00      
H    8.63605122e-01      2.00184318e+00      2.64931812e+00      
17
1669.813400
N    1.66675621e-02      5.14476097e-03      -1.70635961e-02     
H    -5.51032604e-01     -8.67983954e-01     7.90678983e-02      
H    -5.72371106e-01     6.72005771e-01      -5.16252368e-01     
H    2.92104012e-01      3.88123497e-01      9.11350577e-01      
C    1.22348603e+00      -2.87715538e-01     -8.24574261e-01     
H    1.88167028e+00      5.78525528e-01      -8.35287299e-01     
H    1.75607910e+00      -1.12567545e+00     -3.82653292e-01     
C    7.67437905e-01      -6.28467741e-01     -2.22523157e+00     
O    -3.93875765e-01     -5.95748658e-01     -2.57179813e+00     
O    1.80946879e+00      -9.50434675e-01     -2.98767366e+00     
H    1.47359444e+00      -1.14208225e+00     -3.88289796e+00     
O    -1.29028484e+00     -2.38250126e+00     -1.89815515e-01     
H    -1.75362069e+00     -2.98017964e+00     4.04130050e-01      
H    -1.73071745e+00     -2.47580154e+00     -1.04018745e+00     
O    1.01111685e+00      1.11460093e+00      2.30443409e+00      
H    1.38489249e+00      6.72439747e-01      3.07453311e+00      
H    8.66824182e-01      1.99969247e+00      2.65708919e+00      
17
1669.813400
N    1.64795238e-02      5.33732753e-03      -1.70445840e-02     
H    -5.49825436e-01     -8.68234165e-01     8.11208095e-02      
H    -5.71349012e-01     6.71941995e-01      -5.17988865e-01     
H    2.93022969e-01      3.85264825e-01      9.11716155e-01      
C    1.22347951e+00      -2.87663306e-01     -8.24560049e-01     
H    1.88183216e+00      5.78446994e-01      -8.35253143e-01     
H    1.75614846e+00      -1.12566014e+00     -3.82836782e-01     
C    7.67485117e-01      -6.28485632e-01     -2.22524475e+00     
O    -3.93904115e-01     -5.95755519e-01     -2.57180473e+00     
O    1.80945243e+00      -9.50429581e-01     -2.98766378e+00     
H    1.47365052e+00      -1.14208060e+00     -3.88292301e+00     
O    -1.29013536e+00     -2.38236667e+00     -1.89790775e-01     
H    -1.75479200e+00     -2.98067075e+00     4.02712617e-01      
H    -1.73195690e+00     -2.47723151e+00     -1.03940158e+00     
O    1.01073676e+00      1.11397432e+00      2.30281760e+00      
H    1.38392719e+00      6.86648844e-01      3.08404857e+00      
H    8.73262303e-01      1.99539104e+00      2.67263131e+00      
17
1669.813400
N    1.62914855e-02      5.52989409e-03      -1.70255719e-02     
H    -5.48618267e-01     -8.68484376e-01     8.31737206e-02      
H    -5.70326918e-01     6.71878218e-01      -5.19725362e-01     
H    2.93941926e-01      3.82406154e-01      9.12081733e-01      
C    1.22347300e+00      -2.87611075e-01     -8.24545836e-01     
H    1.88199404e+00      5.78368460e-01      -8.35218986e-01     
H    1.75621783e+00      -1.12564483e+00     -3.83020272e-01     
C    7.67532329e-01      -6.28503522e-01     -2.22525793e+00     
O    -3.93932465e-01     -5.95762381e-01     -2.57181132e+00     
O    1.80943608e+00      -9.50424488e-01     -2.98765390e+00     
H    1.47370660e+00      -1.14207896e+00     -3.88294806e+00     
O    -1.28998588e+00     -2.38223208e+00     -1.89766034e-01     
H    -1.75596331e+00     -2.98116185e+00     4.01295184e-01      
H    -1.73319634e+00     -2.47866148e+00     -1.03861572e+00     
O    1.01035666e+00      1.11334770e+00      2.30120112e+00      
H    1.38296189e+00      7.00857940e-01      3.09356403e+00      
H    8.79700425e-01      1.99108962e+00      2.68817344e+00      
17
1669.813400
N    1.61034471e-02      5.72246066e-03      -1.70065598e-02     
H    -5.47411098e-01     -8.68734587e-01     8.52266318e-02      
H    -5.69304825e-01     6.71814442e-01      -5.21461859e-01     
H    2.94860882e-01      3.79547483e-01      9.12447311e-01      
C    1.22346648e+00      -2.87558843e-01     -8.24531623e-01     
H    1.88215591e+00      5.78289925e-01      -8.35184830e-01     
H    1.75628719e+00      -1.12562952e+00     -3.83203763e-01     
C    7.67579541e-01      -6.28521412e-01     -2.22527111e+00     
O    -3.93960815e-01     -5.95769242e-01     -2.57181792e+00     
O    1.80941973e+00      -9.50419395e-01     -2.98764402e+00     
H    1.47376268e+00      -1.14207731e+00     -3.88297311e+00     
O    -1.28983640e+00     -2.38209750e+00     -1.89741294e-01     
H    -1.75713462e+00     -2.98165295e+00     3.99877752e-01      
H    -1.73443578e+00     -2.48009145e+00     -1.03782986e+00     
O    1.00997657e+00      1.11272109e+00      2.29958463e+00      
H    1.38199658e+00      7.15067036e-01      3.10307948e+00      
H    8.86138546e-01      1.98678820e+00      2.70371557e+00      
17
1669.813400
N    1.59154088e-02      5.91502722e-03      -1.69875477e-02     
H    -5.46203929e-01     -8.68984797e-01     8.72795429e-02      
H    -5.68282731e-01     6.71750666e-01      -5.23198357e-01     
H    2.95779839e-01      3.76688812e-01      9.12812888e-01      
C    1.22345996e+00      -2.87506611e-01     -8.24517410e-01     
H    1.88231779e+00      5.78211391e-01      -8.35150674e-01     
H    1.75635655e+00      -1.12561421e+00     -3.83387253e-01     
C    7.67626754e-01      -6.28539302e-01     -2.22528429e+00     
O    -3.93989164e-01     -5.95776103e-01     -2.57182451e+00     
O    1.80940338e+00      -9.50414302e-01     -2.98763415e+00     
H    1.47381876e+00      -1.14207566e+00     -3.88299817e+00     
O    -1.28968693e+00     -2.38196291e+00     -1.89716554e-01     
H    -1.75830592e+00     -2.98214405e+00     3.98460319e-01      
H    -1.73567522e+00     -2.48152142e+00     -1.03704400e+00     
O    1.00959648e+00      1.11209448e+00      2.29796815e+00      
H    1.38103128e+00      7.29276132e-01      3.11259494e+00      
H    8.92576667e-01      1.98248678e+00      2.71925770e+00      
17
1669.813400
N    1.55393321e-02      6.30016035e-03      -1.69495235e-02     
H    -5.43789591e-01     -8.69485219e-01     9.13853652e-02      
H    -5.66238544e-01     6.71623113e-01      -5.26671351e-01     
H    2.97617752e-01      3.70971469e-01      9.13544044e-01      
C    1.22344692e+00      -2.87402147e-01     -8.24488984e-01     
H    1.88264154e+00      5.78054322e-01      -8.35082361e-01     
H    1.75649527e+00      -1.12558359e+00     -3.83754234e-01     
C    7.67721178e-01      -6.28575082e-01     -2.22531065e+00     
O    -3.94045864e-01     -5.95789825e-01     -2.57183770e+00     
O    1.80937067e+00      -9.50404115e-01     -2.98761439e+00     
H    1.47393092e+00      -1.14207236e+00     -3.88304827e+00     
O    -1.28938797e+00     -2.38169374e+00     -1.89667074e-01     
H    -1.76064854e+00     -2.98312626e+00     3.95625453e-01      
H    -1.73815410e+00     -2.48438136e+00     -1.03547227e+00     
O    1.00883630e+00      1.11084126e+00      2.29473518e+00      
H    1.37910067e+00      7.57694325e-01      3.13162586e+00      
H    9.05452909e-01      1.97388393e+00      2.75034195e+00      
