17
1341.062162
N    1.65818043e-02      -9.15386188e-03     -6.75555898e-03     
H    -6.01627590e-01     -8.48172715e-01     8.80882823e-02      
H    -5.11336297e-01     6.71009823e-01      -5.61295709e-01     
H    2.97716497e-01      4.18420868e-01      9.01823066e-01      
C    1.22556707e+00      -2.78968507e-01     -8.41338369e-01     
H    1.92724330e+00      5.55741815e-01      -8.39469108e-01     
H    1.69037916e+00      -1.08235051e+00     -2.57074318e-01     
C    7.74218571e-01      -6.30291247e-01     -2.24311721e+00     
O    -3.96446326e-01     -5.95577338e-01     -2.57010313e+00     
O    1.80913341e+00      -9.48535452e-01     -2.97885924e+00     
H    1.41392919e+00      -1.12614210e+00     -3.85793957e+00     
O    -1.29009084e+00     -2.38257292e+00     -1.89914073e-01     
H    -1.75194643e+00     -2.97983195e+00     4.05826024e-01      
H    -1.72970582e+00     -2.47406507e+00     -1.04088390e+00     
O    1.01180517e+00      1.11561537e+00      2.30778531e+00      
H    1.38730366e+00      6.44507154e-01      3.05574290e+00      
H    8.53260051e-01      2.00835609e+00      2.62500573e+00      
17
1341.062162
N    1.66972629e-02      -5.67548945e-03     -9.34207431e-03     
H    -5.89582428e-01     -8.53000420e-01     8.48067307e-02      
H    -5.27106046e-01     6.71290698e-01      -5.49166625e-01     
H    2.95853898e-01      4.12275860e-01      9.04022155e-01      
C    1.22505007e+00      -2.81181381e-01     -8.37154449e-01     
H    1.91576911e+00      5.61477011e-01      -8.38440734e-01     
H    1.70676946e+00      -1.09318940e+00     -2.88377316e-01     
C    7.72499798e-01      -6.29826426e-01     -2.23863921e+00     
O    -3.95789511e-01     -5.95616738e-01     -2.57052358e+00     
O    1.80922543e+00      -9.49012804e-01     -2.98106778e+00     
H    1.42881746e+00      -1.13012796e+00     -3.86416664e+00     
O    -1.29021407e+00     -2.38262230e+00     -1.89901804e-01     
H    -1.75177934e+00     -2.97967332e+00     4.06110747e-01      
H    -1.72933901e+00     -2.47378420e+00     -1.04110272e+00     
O    1.01182313e+00      1.11567507e+00      2.30775575e+00      
H    1.38718352e+00      6.44385754e-01      3.05568272e+00      
H    8.53432023e-01      2.00834090e+00      2.62525553e+00      
17
1341.062162
N    1.67549922e-02      -3.93630324e-03     -1.06353320e-02     
H    -5.83559847e-01     -8.55414272e-01     8.31659549e-02      
H    -5.34990920e-01     6.71431136e-01      -5.43102083e-01     
H    2.94922598e-01      4.09203357e-01      9.05121699e-01      
C    1.22479157e+00      -2.82287817e-01     -8.35062488e-01     
H    1.91003201e+00      5.64344608e-01      -8.37926547e-01     
H    1.71496462e+00      -1.09860884e+00     -3.04028815e-01     
C    7.71640412e-01      -6.29594015e-01     -2.23640021e+00     
O    -3.95461104e-01     -5.95636437e-01     -2.57073381e+00     
O    1.80927144e+00      -9.49251480e-01     -2.98217205e+00     
H    1.43626160e+00      -1.13212090e+00     -3.86728018e+00     
O    -1.29027569e+00     -2.38264699e+00     -1.89895669e-01     
H    -1.75169580e+00     -2.97959401e+00     4.06253108e-01      
H    -1.72915560e+00     -2.47364377e+00     -1.04121213e+00     
O    1.01183212e+00      1.11570491e+00      2.30774097e+00      
H    1.38712345e+00      6.44325054e-01      3.05565264e+00      
H    8.53518010e-01      2.00833330e+00      2.62538043e+00      
17
1341.062162
N    1.68127216e-02      -2.19711702e-03     -1.19285896e-02     
H    -5.77537266e-01     -8.57828124e-01     8.15251791e-02      
H    -5.42875795e-01     6.71571574e-01      -5.37037541e-01     
H    2.93991298e-01      4.06130853e-01      9.06221244e-01      
C    1.22453307e+00      -2.83394254e-01     -8.32970528e-01     
H    1.90429491e+00      5.67212206e-01      -8.37412360e-01     
H    1.72315977e+00      -1.10402829e+00     -3.19680314e-01     
C    7.70781026e-01      -6.29361604e-01     -2.23416121e+00     
O    -3.95132696e-01     -5.95656137e-01     -2.57094404e+00     
O    1.80931745e+00      -9.49490156e-01     -2.98327633e+00     
H    1.44370574e+00      -1.13411383e+00     -3.87039371e+00     
O    -1.29033731e+00     -2.38267168e+00     -1.89889534e-01     
H    -1.75161225e+00     -2.97951469e+00     4.06395470e-01      
H    -1.72897219e+00     -2.47350334e+00     -1.04132154e+00     
O    1.01184110e+00      1.11573476e+00      2.30772619e+00      
H    1.38706338e+00      6.44264354e-01      3.05562255e+00      
H    8.53603996e-01      2.00832570e+00      2.62550533e+00      
17
1341.062162
N    1.68704509e-02      -4.57930805e-04     -1.32218473e-02     
H    -5.71514685e-01     -8.60241976e-01     7.98844034e-02      
H    -5.50760669e-01     6.71712011e-01      -5.30972999e-01     
H    2.93059998e-01      4.03058350e-01      9.07320788e-01      
C    1.22427457e+00      -2.84500691e-01     -8.30878568e-01     
H    1.89855782e+00      5.70079804e-01      -8.36898173e-01     
H    1.73135492e+00      -1.10944773e+00     -3.35331814e-01     
C    7.69921640e-01      -6.29129193e-01     -2.23192221e+00     
O    -3.94804289e-01     -5.95675837e-01     -2.57115426e+00     
O    1.80936346e+00      -9.49728833e-01     -2.98438060e+00     
H    1.45114987e+00      -1.13610676e+00     -3.87350725e+00     
O    -1.29039893e+00     -2.38269636e+00     -1.89883399e-01     
H    -1.75152871e+00     -2.97943538e+00     4.06537831e-01      
H    -1.72878879e+00     -2.47336290e+00     -1.04143095e+00     
O    1.01185008e+00      1.11576461e+00      2.30771141e+00      
H    1.38700331e+00      6.44203654e-01      3.05559246e+00      
H    8.53689982e-01      2.00831810e+00      2.62563023e+00      
17
1341.062162
N    1.69281802e-02      1.28125541e-03      -1.45151050e-02     
H    -5.65492104e-01     -8.62655829e-01     7.82436276e-02      
H    -5.58645544e-01     6.71852449e-01      -5.24908457e-01     
H    2.92128699e-01      3.99985846e-01      9.08420333e-01      
C    1.22401607e+00      -2.85607128e-01     -8.28786608e-01     
H    1.89282072e+00      5.72947402e-01      -8.36383986e-01     
H    1.73955007e+00      -1.11486718e+00     -3.50983313e-01     
C    7.69062253e-01      -6.28896783e-01     -2.22968321e+00     
O    -3.94475881e-01     -5.95695537e-01     -2.57136449e+00     
O    1.80940947e+00      -9.49967509e-01     -2.98548487e+00     
H    1.45859401e+00      -1.13809969e+00     -3.87662078e+00     
O    -1.29046055e+00     -2.38272105e+00     -1.89877265e-01     
H    -1.75144517e+00     -2.97935607e+00     4.06680193e-01      
H    -1.72860538e+00     -2.47322247e+00     -1.04154035e+00     
O    1.01185906e+00      1.11579446e+00      2.30769662e+00      
H    1.38694324e+00      6.44142955e-01      3.05556237e+00      
H    8.53775968e-01      2.00831051e+00      2.62575513e+00      
17
1341.062162
N    1.69570448e-02      2.15084852e-03      -1.51617338e-02     
H    -5.62480814e-01     -8.63862755e-01     7.74232397e-02      
H    -5.62587981e-01     6.71922668e-01      -5.21876186e-01     
H    2.91663049e-01      3.98449594e-01      9.08970105e-01      
C    1.22388682e+00      -2.86160347e-01     -8.27740627e-01     
H    1.88995217e+00      5.74381200e-01      -8.36126893e-01     
H    1.74364765e+00      -1.11757690e+00     -3.58809062e-01     
C    7.68632560e-01      -6.28780577e-01     -2.22856371e+00     
O    -3.94311677e-01     -5.95705386e-01     -2.57146960e+00     
O    1.80943247e+00      -9.50086847e-01     -2.98603700e+00     
H    1.46231608e+00      -1.13909615e+00     -3.87817755e+00     
O    -1.29049136e+00     -2.38273340e+00     -1.89874197e-01     
H    -1.75140340e+00     -2.97931641e+00     4.06751374e-01      
H    -1.72851368e+00     -2.47315225e+00     -1.04159506e+00     
O    1.01186356e+00      1.11580938e+00      2.30768923e+00      
H    1.38691320e+00      6.44112605e-01      3.05554733e+00      
H    8.53818961e-01      2.00830671e+00      2.62581758e+00      
17
1341.062162
N    1.69859095e-02      3.02044162e-03      -1.58083626e-02     
H    -5.59469523e-01     -8.65069681e-01     7.66028518e-02      
H    -5.66530418e-01     6.71992886e-01      -5.18843915e-01     
H    2.91197399e-01      3.96913343e-01      9.09519877e-01      
C    1.22375757e+00      -2.86713565e-01     -8.26694647e-01     
H    1.88708363e+00      5.75814999e-01      -8.35869799e-01     
H    1.74774523e+00      -1.12028662e+00     -3.66634812e-01     
C    7.68202867e-01      -6.28664372e-01     -2.22744421e+00     
O    -3.94147474e-01     -5.95715236e-01     -2.57157471e+00     
O    1.80945548e+00      -9.50206185e-01     -2.98658914e+00     
H    1.46603814e+00      -1.14009262e+00     -3.87973432e+00     
O    -1.29052217e+00     -2.38274574e+00     -1.89871130e-01     
H    -1.75136162e+00     -2.97927675e+00     4.06822554e-01      
H    -1.72842198e+00     -2.47308203e+00     -1.04164976e+00     
O    1.01186805e+00      1.11582430e+00      2.30768184e+00      
H    1.38688317e+00      6.44082255e-01      3.05553229e+00      
H    8.53861954e-01      2.00830291e+00      2.62588003e+00      
17
1341.062162
N    1.71013681e-02      6.49881406e-03      -1.83948780e-02     
H    -5.47424361e-01     -8.69897385e-01     7.33213002e-02      
H    -5.82300168e-01     6.72273762e-01      -5.06714831e-01     
H    2.89334799e-01      3.90768335e-01      9.11718967e-01      
C    1.22324057e+00      -2.88926439e-01     -8.22510727e-01     
H    1.87560943e+00      5.81550195e-01      -8.34841425e-01     
H    1.76413553e+00      -1.13112552e+00     -3.97937810e-01     
C    7.66484095e-01      -6.28199550e-01     -2.22296621e+00     
O    -3.93490658e-01     -5.95754636e-01     -2.57199517e+00     
O    1.80954750e+00      -9.50683537e-01     -2.98879768e+00     
H    1.48092642e+00      -1.14407848e+00     -3.88596138e+00     
O    -1.29064541e+00     -2.38279512e+00     -1.89858860e-01     
H    -1.75119454e+00     -2.97911813e+00     4.07107278e-01      
H    -1.72805516e+00     -2.47280117e+00     -1.04186858e+00     
O    1.01188601e+00      1.11588400e+00      2.30765228e+00      
H    1.38676303e+00      6.43960855e-01      3.05547211e+00      
H    8.54033926e-01      2.00828771e+00      2.62612983e+00      
17
1341.062162
N    1.71302328e-02      7.36840716e-03      -1.90415068e-02     
H    -5.44413070e-01     -8.71104311e-01     7.25009123e-02      
H    -5.86242605e-01     6.72343980e-01      -5.03682560e-01     
H    2.88869149e-01      3.89232084e-01      9.12268739e-01      
C    1.22311132e+00      -2.89479657e-01     -8.21464747e-01     
H    1.87274089e+00      5.82983994e-01      -8.34584331e-01     
H    1.76823311e+00      -1.13383524e+00     -4.05763560e-01     
C    7.66054402e-01      -6.28083345e-01     -2.22184671e+00     
O    -3.93326455e-01     -5.95764486e-01     -2.57210028e+00     
O    1.80957051e+00      -9.50802875e-01     -2.98934982e+00     
H    1.48464848e+00      -1.14507495e+00     -3.88751815e+00     
O    -1.29067622e+00     -2.38280746e+00     -1.89855793e-01     
H    -1.75115276e+00     -2.97907847e+00     4.07178458e-01      
H    -1.72796346e+00     -2.47273095e+00     -1.04192328e+00     
O    1.01189050e+00      1.11589892e+00      2.30764489e+00      
H    1.38673300e+00      6.43930505e-01      3.05545707e+00      
H    8.54076919e-01      2.00828391e+00      2.62619228e+00      
17
1341.062162
N    1.71590974e-02      8.23800027e-03      -1.96881356e-02     
H    -5.41401780e-01     -8.72311237e-01     7.16805244e-02      
H    -5.90185042e-01     6.72414199e-01      -5.00650289e-01     
H    2.88403499e-01      3.87695832e-01      9.12818511e-01      
C    1.22298207e+00      -2.90032876e-01     -8.20418766e-01     
H    1.86987234e+00      5.84417792e-01      -8.34327238e-01     
H    1.77233069e+00      -1.13654496e+00     -4.13589309e-01     
C    7.65624709e-01      -6.27967139e-01     -2.22072721e+00     
O    -3.93162251e-01     -5.95774335e-01     -2.57220539e+00     
O    1.80959351e+00      -9.50922213e-01     -2.98990195e+00     
H    1.48837055e+00      -1.14607141e+00     -3.88907492e+00     
O    -1.29070703e+00     -2.38281981e+00     -1.89852725e-01     
H    -1.75111099e+00     -2.97903881e+00     4.07249639e-01      
H    -1.72787176e+00     -2.47266073e+00     -1.04197799e+00     
O    1.01189500e+00      1.11591384e+00      2.30763750e+00      
H    1.38670296e+00      6.43900155e-01      3.05544203e+00      
H    8.54119912e-01      2.00828011e+00      2.62625473e+00      
17
1341.062162
N    1.72168267e-02      9.97718649e-03      -2.09813933e-02     
H    -5.35379199e-01     -8.74725090e-01     7.00397486e-02      
H    -5.98069917e-01     6.72554637e-01      -4.94585747e-01     
H    2.87472200e-01      3.84623328e-01      9.13918056e-01      
C    1.22272357e+00      -2.91139313e-01     -8.18326806e-01     
H    1.86413524e+00      5.87285390e-01      -8.33813051e-01     
H    1.78052584e+00      -1.14196441e+00     -4.29240808e-01     
C    7.64765322e-01      -6.27734729e-01     -2.21848821e+00     
O    -3.92833843e-01     -5.95794035e-01     -2.57241562e+00     
O    1.80963952e+00      -9.51160889e-01     -2.99100622e+00     
H    1.49581469e+00      -1.14806434e+00     -3.89218845e+00     
O    -1.29076865e+00     -2.38284450e+00     -1.89846591e-01     
H    -1.75102745e+00     -2.97895950e+00     4.07392001e-01      
H    -1.72768835e+00     -2.47252030e+00     -1.04208739e+00     
O    1.01190398e+00      1.11594369e+00      2.30762271e+00      
H    1.38664289e+00      6.43839456e-01      3.05541194e+00      
H    8.54205898e-01      2.00827252e+00      2.62637963e+00      
17
1341.062162
N    1.72745560e-02      1.17163727e-02      -2.22746510e-02     
H    -5.29356618e-01     -8.77138942e-01     6.83989729e-02      
H    -6.05954791e-01     6.72695074e-01      -4.88521205e-01     
H    2.86540900e-01      3.81550825e-01      9.15017600e-01      
C    1.22246507e+00      -2.92245750e-01     -8.16234846e-01     
H    1.85839815e+00      5.90152988e-01      -8.33298864e-01     
H    1.78872099e+00      -1.14738385e+00     -4.44892308e-01     
C    7.63905936e-01      -6.27502318e-01     -2.21624921e+00     
O    -3.92505436e-01     -5.95813735e-01     -2.57262584e+00     
O    1.80968553e+00      -9.51399566e-01     -2.99211049e+00     
H    1.50325882e+00      -1.15005727e+00     -3.89530199e+00     
O    -1.29083027e+00     -2.38286918e+00     -1.89840456e-01     
H    -1.75094391e+00     -2.97888019e+00     4.07534362e-01      
H    -1.72750495e+00     -2.47237986e+00     -1.04219680e+00     
O    1.01191296e+00      1.11597354e+00      2.30760793e+00      
H    1.38658282e+00      6.43778756e-01      3.05538185e+00      
H    8.54291884e-01      2.00826492e+00      2.62650453e+00      
17
1341.062162
N    1.73322854e-02      1.34555589e-02      -2.35679086e-02     
H    -5.23334037e-01     -8.79552794e-01     6.67581971e-02      
H    -6.13839666e-01     6.72835512e-01      -4.82456663e-01     
H    2.85609600e-01      3.78478321e-01      9.16117145e-01      
C    1.22220657e+00      -2.93352187e-01     -8.14142886e-01     
H    1.85266105e+00      5.93020586e-01      -8.32784677e-01     
H    1.79691614e+00      -1.15280330e+00     -4.60543807e-01     
C    7.63046550e-01      -6.27269907e-01     -2.21401021e+00     
O    -3.92177028e-01     -5.95833435e-01     -2.57283607e+00     
O    1.80973154e+00      -9.51638242e-01     -2.99321477e+00     
H    1.51070296e+00      -1.15205020e+00     -3.89841552e+00     
O    -1.29089189e+00     -2.38289387e+00     -1.89834321e-01     
H    -1.75086036e+00     -2.97880087e+00     4.07676724e-01      
H    -1.72732154e+00     -2.47223943e+00     -1.04230621e+00     
O    1.01192194e+00      1.11600339e+00      2.30759315e+00      
H    1.38652275e+00      6.43718056e-01      3.05535176e+00      
H    8.54377870e-01      2.00825732e+00      2.62662943e+00      
17
1341.062162
N    1.73900147e-02      1.51947451e-02      -2.48611663e-02     
H    -5.17311456e-01     -8.81966646e-01     6.51174213e-02      
H    -6.21724540e-01     6.72975950e-01      -4.76392121e-01     
H    2.84678300e-01      3.75405818e-01      9.17216689e-01      
C    1.22194807e+00      -2.94458623e-01     -8.12050925e-01     
H    1.84692395e+00      5.95888183e-01      -8.32270490e-01     
H    1.80511130e+00      -1.15822274e+00     -4.76195306e-01     
C    7.62187164e-01      -6.27037496e-01     -2.21177121e+00     
O    -3.91848621e-01     -5.95853134e-01     -2.57304630e+00     
O    1.80977755e+00      -9.51876918e-01     -2.99431904e+00     
H    1.51814710e+00      -1.15404314e+00     -3.90152906e+00     
O    -1.29095351e+00     -2.38291856e+00     -1.89828186e-01     
H    -1.75077682e+00     -2.97872156e+00     4.07819085e-01      
H    -1.72713813e+00     -2.47209900e+00     -1.04241562e+00     
O    1.01193093e+00      1.11603323e+00      2.30757837e+00      
H    1.38646268e+00      6.43657356e-01      3.05532168e+00      
H    8.54463857e-01      2.00824972e+00      2.62675433e+00      
17
1341.062162
N    1.75054733e-02      1.86731176e-02      -2.74476816e-02     
H    -5.05266294e-01     -8.86794351e-01     6.18358697e-02      
H    -6.37494289e-01     6.73256825e-01      -4.64263037e-01     
H    2.82815701e-01      3.69260810e-01      9.19415778e-01      
C    1.22143107e+00      -2.96671497e-01     -8.07867005e-01     
H    1.83544976e+00      6.01623379e-01      -8.31242116e-01     
H    1.82150160e+00      -1.16906163e+00     -5.07498304e-01     
C    7.60468391e-01      -6.26572675e-01     -2.20729321e+00     
O    -3.91191806e-01     -5.95892534e-01     -2.57346675e+00     
O    1.80986957e+00      -9.52354270e-01     -2.99652758e+00     
H    1.53303537e+00      -1.15802900e+00     -3.90775613e+00     
O    -1.29107674e+00     -2.38296794e+00     -1.89815917e-01     
H    -1.75060973e+00     -2.97856293e+00     4.08103808e-01      
H    -1.72677132e+00     -2.47181813e+00     -1.04263444e+00     
O    1.01194889e+00      1.11609293e+00      2.30754881e+00      
H    1.38634254e+00      6.43535956e-01      3.05526150e+00      
H    8.54635829e-01      2.00823453e+00      2.62700413e+00      
