17
1820.523440
N    1.54976226e-02      5.42279978e-03      -1.70383746e-02     
H    -5.58387312e-01     -8.69556834e-01     4.06569005e-02      
H    -5.77299513e-01     6.49246942e-01      -5.39327974e-01     
H    3.33496144e-01      3.87657190e-01      9.01473832e-01      
C    1.22910733e+00      -2.86278061e-01     -8.16555256e-01     
H    1.89276657e+00      5.76134040e-01      -8.09255973e-01     
H    1.76785220e+00      -1.11110822e+00     -3.58072898e-01     
C    6.27366313e-01      -6.23493400e-01     -2.26275351e+00     
O    -3.09573690e-01     -5.97615600e-01     -2.54526759e+00     
O    1.82738255e+00      -9.53709559e-01     -2.99236816e+00     
H    1.41321070e+00      -1.13059754e+00     -3.86519878e+00     
O    -1.29129109e+00     -2.38367364e+00     -1.89692176e-01     
H    -1.74606862e+00     -2.97689806e+00     4.14487693e-01      
H    -1.71818315e+00     -2.45912672e+00     -1.04712907e+00     
O    1.01172803e+00      1.11581068e+00      2.30732968e+00      
H    1.38591092e+00      6.47071984e-01      3.05771456e+00      
H    8.55287386e-01      2.00704533e+00      2.63001377e+00      
17
1820.523440
N    1.58841267e-02      5.25700680e-03      -1.70541861e-02     
H    -5.57152219e-01     -8.69038509e-01     4.92331943e-02      
H    -5.76578458e-01     6.54968537e-01      -5.32690824e-01     
H    3.22688633e-01      3.89203103e-01      9.03760230e-01      
C    1.22770526e+00      -2.86663546e-01     -8.18567114e-01     
H    1.88991156e+00      5.76771179e-01      -8.15780883e-01     
H    1.76487424e+00      -1.11475769e+00     -3.64126251e-01     
C    6.62360605e-01      -6.24728040e-01     -2.25336644e+00     
O    -3.30635034e-01     -5.97145434e-01     -2.55189693e+00     
O    1.82291229e+00      -9.52893385e-01     -2.99119947e+00     
H    1.42827859e+00      -1.13346954e+00     -3.86961105e+00     
O    -1.29111427e+00     -2.38344784e+00     -1.89735381e-01     
H    -1.74737098e+00     -2.97747291e+00     4.12606999e-01      
H    -1.72069701e+00     -2.46258044e+00     -1.04578660e+00     
O    1.01176528e+00      1.11582155e+00      2.30741402e+00      
H    1.38613897e+00      6.46309377e-01      3.05716147e+00      
H    8.54952525e-01      2.00735783e+00      2.62901156e+00      
17
1820.523440
N    1.60773787e-02      5.17411030e-03      -1.70620918e-02     
H    -5.56534673e-01     -8.68779346e-01     5.35213413e-02      
H    -5.76217930e-01     6.57829335e-01      -5.29372249e-01     
H    3.17284877e-01      3.89976059e-01      9.04903429e-01      
C    1.22700423e+00      -2.86856289e-01     -8.19573043e-01     
H    1.88848406e+00      5.77089749e-01      -8.19043338e-01     
H    1.76338527e+00      -1.11658242e+00     -3.67152928e-01     
C    6.79857751e-01      -6.25345360e-01     -2.24867290e+00     
O    -3.41165706e-01     -5.96910351e-01     -2.55521159e+00     
O    1.82067716e+00      -9.52485297e-01     -2.99061513e+00     
H    1.43581254e+00      -1.13490554e+00     -3.87181718e+00     
O    -1.29102586e+00     -2.38333494e+00     -1.89756983e-01     
H    -1.74802217e+00     -2.97776033e+00     4.11666652e-01      
H    -1.72195394e+00     -2.46430730e+00     -1.04511536e+00     
O    1.01178391e+00      1.11582698e+00      2.30745619e+00      
H    1.38625299e+00      6.45928073e-01      3.05688492e+00      
H    8.54785094e-01      2.00751407e+00      2.62851045e+00      
17
1820.523440
N    1.62706307e-02      5.09121381e-03      -1.70699975e-02     
H    -5.55917127e-01     -8.68520184e-01     5.78094882e-02      
H    -5.75857403e-01     6.60690133e-01      -5.26053673e-01     
H    3.11881122e-01      3.90749015e-01      9.06046627e-01      
C    1.22630320e+00      -2.87049031e-01     -8.20578971e-01     
H    1.88705655e+00      5.77408319e-01      -8.22305792e-01     
H    1.76189629e+00      -1.11840715e+00     -3.70179605e-01     
C    6.97354897e-01      -6.25962680e-01     -2.24397936e+00     
O    -3.51696378e-01     -5.96675268e-01     -2.55852626e+00     
O    1.81844202e+00      -9.52077210e-01     -2.99003078e+00     
H    1.44334649e+00      -1.13634154e+00     -3.87402332e+00     
O    -1.29093744e+00     -2.38322204e+00     -1.89778586e-01     
H    -1.74867335e+00     -2.97804775e+00     4.10726305e-01      
H    -1.72321086e+00     -2.46603416e+00     -1.04444412e+00     
O    1.01180253e+00      1.11583241e+00      2.30749837e+00      
H    1.38636701e+00      6.45546769e-01      3.05660838e+00      
H    8.54617663e-01      2.00767032e+00      2.62800935e+00      
17
1820.523440
N    1.64638827e-02      5.00831732e-03      -1.70779032e-02     
H    -5.55299581e-01     -8.68261021e-01     6.20976352e-02      
H    -5.75496875e-01     6.63550931e-01      -5.22735098e-01     
H    3.06477366e-01      3.91521971e-01      9.07189826e-01      
C    1.22560217e+00      -2.87241774e-01     -8.21584900e-01     
H    1.88562905e+00      5.77726888e-01      -8.25568247e-01     
H    1.76040731e+00      -1.12023188e+00     -3.73206281e-01     
C    7.14852043e-01      -6.26580001e-01     -2.23928582e+00     
O    -3.62227050e-01     -5.96440185e-01     -2.56184093e+00     
O    1.81620689e+00      -9.51669123e-01     -2.98944644e+00     
H    1.45088044e+00      -1.13777755e+00     -3.87622945e+00     
O    -1.29084903e+00     -2.38310914e+00     -1.89800188e-01     
H    -1.74932453e+00     -2.97833517e+00     4.09785957e-01      
H    -1.72446779e+00     -2.46776102e+00     -1.04377288e+00     
O    1.01182116e+00      1.11583785e+00      2.30754054e+00      
H    1.38648103e+00      6.45165466e-01      3.05633183e+00      
H    8.54450232e-01      2.00782657e+00      2.62750824e+00      
17
1820.523440
N    1.66571348e-02      4.92542083e-03      -1.70858089e-02     
H    -5.54682034e-01     -8.68001858e-01     6.63857821e-02      
H    -5.75136348e-01     6.66411728e-01      -5.19416523e-01     
H    3.01073610e-01      3.92294927e-01      9.08333025e-01      
C    1.22490113e+00      -2.87434517e-01     -8.22590829e-01     
H    1.88420154e+00      5.78045458e-01      -8.28830702e-01     
H    1.75891833e+00      -1.12205661e+00     -3.76232958e-01     
C    7.32349189e-01      -6.27197321e-01     -2.23459229e+00     
O    -3.72757722e-01     -5.96205102e-01     -2.56515560e+00     
O    1.81397176e+00      -9.51261036e-01     -2.98886210e+00     
H    1.45841438e+00      -1.13921355e+00     -3.87843558e+00     
O    -1.29076062e+00     -2.38299623e+00     -1.89821790e-01     
H    -1.74997571e+00     -2.97862260e+00     4.08845610e-01      
H    -1.72572472e+00     -2.46948788e+00     -1.04310165e+00     
O    1.01183978e+00      1.11584328e+00      2.30758271e+00      
H    1.38659506e+00      6.44784162e-01      3.05605529e+00      
H    8.54282802e-01      2.00798282e+00      2.62700714e+00      
17
1820.523440
N    1.67537608e-02      4.88397258e-03      -1.70897617e-02     
H    -5.54373261e-01     -8.67872277e-01     6.85298556e-02      
H    -5.74956084e-01     6.67842127e-01      -5.17757236e-01     
H    2.98371732e-01      3.92681405e-01      9.08904624e-01      
C    1.22455062e+00      -2.87530888e-01     -8.23093794e-01     
H    1.88348779e+00      5.78204743e-01      -8.30461930e-01     
H    1.75817385e+00      -1.12296897e+00     -3.77746296e-01     
C    7.41097762e-01      -6.27505981e-01     -2.23224552e+00     
O    -3.78023058e-01     -5.96087561e-01     -2.56681294e+00     
O    1.81285419e+00      -9.51056992e-01     -2.98856993e+00     
H    1.46218136e+00      -1.13993155e+00     -3.87953865e+00     
O    -1.29071641e+00     -2.38293978e+00     -1.89832591e-01     
H    -1.75030131e+00     -2.97876631e+00     4.08375437e-01      
H    -1.72635318e+00     -2.47035131e+00     -1.04276603e+00     
O    1.01184909e+00      1.11584600e+00      2.30760380e+00      
H    1.38665207e+00      6.44593510e-01      3.05591702e+00      
H    8.54199086e-01      2.00806094e+00      2.62675659e+00      
17
1820.523440
N    1.68503868e-02      4.84252433e-03      -1.70937146e-02     
H    -5.54064488e-01     -8.67742696e-01     7.06739291e-02      
H    -5.74775820e-01     6.69272526e-01      -5.16097948e-01     
H    2.95669855e-01      3.93067883e-01      9.09476223e-01      
C    1.22420010e+00      -2.87627259e-01     -8.23596758e-01     
H    1.88277404e+00      5.78364027e-01      -8.32093157e-01     
H    1.75742936e+00      -1.12388134e+00     -3.79259634e-01     
C    7.49846335e-01      -6.27814641e-01     -2.22989875e+00     
O    -3.83288394e-01     -5.95970019e-01     -2.56847027e+00     
O    1.81173662e+00      -9.50852948e-01     -2.98827775e+00     
H    1.46594833e+00      -1.14064955e+00     -3.88064172e+00     
O    -1.29067220e+00     -2.38288333e+00     -1.89843393e-01     
H    -1.75062690e+00     -2.97891002e+00     4.07905263e-01      
H    -1.72698164e+00     -2.47121474e+00     -1.04243041e+00     
O    1.01185841e+00      1.11584872e+00      2.30762489e+00      
H    1.38670908e+00      6.44402859e-01      3.05577874e+00      
H    8.54115371e-01      2.00813906e+00      2.62650603e+00      
17
1820.523440
N    1.72368908e-02      4.67673135e-03      -1.71095260e-02     
H    -5.52829396e-01     -8.67224370e-01     7.92502229e-02      
H    -5.74054766e-01     6.74994122e-01      -5.09460798e-01     
H    2.84862343e-01      3.94613795e-01      9.11762621e-01      
C    1.22279804e+00      -2.88012745e-01     -8.25608616e-01     
H    1.87991902e+00      5.79001167e-01      -8.38618067e-01     
H    1.75445140e+00      -1.12753080e+00     -3.85312988e-01     
C    7.84840627e-01      -6.29049281e-01     -2.22051167e+00     
O    -4.04349738e-01     -5.95499853e-01     -2.57509961e+00     
O    1.80726636e+00      -9.50036774e-01     -2.98710907e+00     
H    1.48101623e+00      -1.14352155e+00     -3.88505398e+00     
O    -1.29049538e+00     -2.38265753e+00     -1.89886597e-01     
H    -1.75192926e+00     -2.97948486e+00     4.06024569e-01      
H    -1.72949550e+00     -2.47466846e+00     -1.04108793e+00     
O    1.01189565e+00      1.11585958e+00      2.30770923e+00      
H    1.38693712e+00      6.43640251e-01      3.05522566e+00      
H    8.53780509e-01      2.00845156e+00      2.62550383e+00      
17
1820.523440
N    1.73335168e-02      4.63528310e-03      -1.71134789e-02     
H    -5.52520623e-01     -8.67094789e-01     8.13942964e-02      
H    -5.73874502e-01     6.76424521e-01      -5.07801510e-01     
H    2.82160466e-01      3.95000273e-01      9.12334220e-01      
C    1.22244752e+00      -2.88109116e-01     -8.26111580e-01     
H    1.87920527e+00      5.79160451e-01      -8.40249294e-01     
H    1.75370691e+00      -1.12844317e+00     -3.86826326e-01     
C    7.93589200e-01      -6.29357941e-01     -2.21816490e+00     
O    -4.09615074e-01     -5.95382311e-01     -2.57675694e+00     
O    1.80614879e+00      -9.49832730e-01     -2.98681689e+00     
H    1.48478320e+00      -1.14423955e+00     -3.88615705e+00     
O    -1.29045117e+00     -2.38260108e+00     -1.89897399e-01     
H    -1.75225485e+00     -2.97962857e+00     4.05554395e-01      
H    -1.73012396e+00     -2.47553189e+00     -1.04075231e+00     
O    1.01190497e+00      1.11586230e+00      2.30773032e+00      
H    1.38699413e+00      6.43449600e-01      3.05508738e+00      
H    8.53696794e-01      2.00852968e+00      2.62525327e+00      
17
1820.523440
N    1.74301428e-02      4.59383485e-03      -1.71174317e-02     
H    -5.52211850e-01     -8.66965208e-01     8.35383699e-02      
H    -5.73694238e-01     6.77854920e-01      -5.06142223e-01     
H    2.79458588e-01      3.95386751e-01      9.12905819e-01      
C    1.22209701e+00      -2.88205487e-01     -8.26614545e-01     
H    1.87849152e+00      5.79319736e-01      -8.41880522e-01     
H    1.75296243e+00      -1.12935553e+00     -3.88339664e-01     
C    8.02337773e-01      -6.29666601e-01     -2.21581813e+00     
O    -4.14880410e-01     -5.95264770e-01     -2.57841428e+00     
O    1.80503122e+00      -9.49628686e-01     -2.98652472e+00     
H    1.48855018e+00      -1.14495755e+00     -3.88726012e+00     
O    -1.29040696e+00     -2.38254463e+00     -1.89908200e-01     
H    -1.75258045e+00     -2.97977228e+00     4.05084222e-01      
H    -1.73075242e+00     -2.47639532e+00     -1.04041669e+00     
O    1.01191428e+00      1.11586502e+00      2.30775141e+00      
H    1.38705114e+00      6.43258948e-01      3.05494911e+00      
H    8.53613078e-01      2.00860780e+00      2.62500272e+00      
17
1820.523440
N    1.76233949e-02      4.51093836e-03      -1.71253374e-02     
H    -5.51594303e-01     -8.66706045e-01     8.78265168e-02      
H    -5.73333711e-01     6.80715717e-01      -5.02823648e-01     
H    2.74054832e-01      3.96159707e-01      9.14049018e-01      
C    1.22139597e+00      -2.88398230e-01     -8.27620474e-01     
H    1.87706401e+00      5.79638306e-01      -8.45142977e-01     
H    1.75147345e+00      -1.13118026e+00     -3.91366341e-01     
C    8.19834919e-01      -6.30283921e-01     -2.21112460e+00     
O    -4.25411082e-01     -5.95029687e-01     -2.58172895e+00     
O    1.80279609e+00      -9.49220599e-01     -2.98594038e+00     
H    1.49608412e+00      -1.14639355e+00     -3.88946625e+00     
O    -1.29031855e+00     -2.38243172e+00     -1.89929802e-01     
H    -1.75323163e+00     -2.98005971e+00     4.04143875e-01      
H    -1.73200935e+00     -2.47812218e+00     -1.03974546e+00     
O    1.01193290e+00      1.11587045e+00      2.30779358e+00      
H    1.38716517e+00      6.42877644e-01      3.05467257e+00      
H    8.53445648e-01      2.00876405e+00      2.62450162e+00      
17
1820.523440
N    1.78166469e-02      4.42804187e-03      -1.71332431e-02     
H    -5.50976757e-01     -8.66446882e-01     9.21146638e-02      
H    -5.72973183e-01     6.83576515e-01      -4.99505073e-01     
H    2.68651076e-01      3.96932663e-01      9.15192217e-01      
C    1.22069494e+00      -2.88590973e-01     -8.28626403e-01     
H    1.87563651e+00      5.79956875e-01      -8.48405432e-01     
H    1.74998447e+00      -1.13300499e+00     -3.94393017e-01     
C    8.37332065e-01      -6.30901242e-01     -2.20643106e+00     
O    -4.35941754e-01     -5.94794604e-01     -2.58504362e+00     
O    1.80056096e+00      -9.48812512e-01     -2.98535604e+00     
H    1.50361807e+00      -1.14782956e+00     -3.89167238e+00     
O    -1.29023014e+00     -2.38231882e+00     -1.89951404e-01     
H    -1.75388281e+00     -2.98034713e+00     4.03203527e-01      
H    -1.73326628e+00     -2.47984904e+00     -1.03907422e+00     
O    1.01195153e+00      1.11587589e+00      2.30783575e+00      
H    1.38727919e+00      6.42496341e-01      3.05439602e+00      
H    8.53278217e-01      2.00892030e+00      2.62400051e+00      
17
1820.523440
N    1.80098989e-02      4.34514538e-03      -1.71411488e-02     
H    -5.50359211e-01     -8.66187720e-01     9.64028107e-02      
H    -5.72612656e-01     6.86437313e-01      -4.96186497e-01     
H    2.63247321e-01      3.97705619e-01      9.16335415e-01      
C    1.21999391e+00      -2.88783715e-01     -8.29632331e-01     
H    1.87420900e+00      5.80275445e-01      -8.51667886e-01     
H    1.74849549e+00      -1.13482972e+00     -3.97419694e-01     
C    8.54829211e-01      -6.31518562e-01     -2.20173752e+00     
O    -4.46472426e-01     -5.94559521e-01     -2.58835829e+00     
O    1.79832582e+00      -9.48404425e-01     -2.98477169e+00     
H    1.51115202e+00      -1.14926556e+00     -3.89387852e+00     
O    -1.29014172e+00     -2.38220592e+00     -1.89973007e-01     
H    -1.75453399e+00     -2.98063455e+00     4.02263180e-01      
H    -1.73452320e+00     -2.48157590e+00     -1.03840298e+00     
O    1.01197015e+00      1.11588132e+00      2.30787793e+00      
H    1.38739321e+00      6.42115037e-01      3.05411948e+00      
H    8.53110786e-01      2.00907655e+00      2.62349941e+00      
17
1820.523440
N    1.82031509e-02      4.26224888e-03      -1.71490545e-02     
H    -5.49741665e-01     -8.65928557e-01     1.00690958e-01      
H    -5.72252128e-01     6.89298111e-01      -4.92867922e-01     
H    2.57843565e-01      3.98478575e-01      9.17478614e-01      
C    1.21929288e+00      -2.88976458e-01     -8.30638260e-01     
H    1.87278150e+00      5.80594015e-01      -8.54930341e-01     
H    1.74700652e+00      -1.13665445e+00     -4.00446371e-01     
C    8.72326357e-01      -6.32135882e-01     -2.19704398e+00     
O    -4.57003098e-01     -5.94324438e-01     -2.59167295e+00     
O    1.79609069e+00      -9.47996337e-01     -2.98418735e+00     
H    1.51868597e+00      -1.15070156e+00     -3.89608465e+00     
O    -1.29005331e+00     -2.38209302e+00     -1.89994609e-01     
H    -1.75518518e+00     -2.98092197e+00     4.01322833e-01      
H    -1.73578013e+00     -2.48330276e+00     -1.03773174e+00     
O    1.01198878e+00      1.11588675e+00      2.30792010e+00      
H    1.38750723e+00      6.41733733e-01      3.05384293e+00      
H    8.52943355e-01      2.00923279e+00      2.62299830e+00      
17
1820.523440
N    1.85896550e-02      4.09645590e-03      -1.71648660e-02     
H    -5.48506572e-01     -8.65410232e-01     1.09267252e-01      
H    -5.71531073e-01     6.95019706e-01      -4.86230772e-01     
H    2.47036054e-01      4.00024488e-01      9.19765012e-01      
C    1.21789081e+00      -2.89361943e-01     -8.32650118e-01     
H    1.86992649e+00      5.81231154e-01      -8.61455251e-01     
H    1.74402856e+00      -1.14030392e+00     -4.06499724e-01     
C    9.07320649e-01      -6.33370522e-01     -2.18765691e+00     
O    -4.78064442e-01     -5.93854272e-01     -2.59830229e+00     
O    1.79162043e+00      -9.47180163e-01     -2.98301866e+00     
H    1.53375386e+00      -1.15357356e+00     -3.90049692e+00     
O    -1.28987649e+00     -2.38186722e+00     -1.90037814e-01     
H    -1.75648754e+00     -2.98149682e+00     3.99442139e-01      
H    -1.73829399e+00     -2.48675648e+00     -1.03638927e+00     
O    1.01202603e+00      1.11589762e+00      2.30800444e+00      
H    1.38773528e+00      6.40971126e-01      3.05328984e+00      
H    8.52608494e-01      2.00954529e+00      2.62199609e+00      
