17
3885.908619
N    1.70496925e-02      4.85440193e-03      -1.72274511e-02     
H    -5.54350335e-01     -8.68764690e-01     7.46203405e-02      
H    -5.73988743e-01     6.71770324e-01      -5.12107326e-01     
H    2.90402717e-01      3.94006362e-01      9.11414961e-01      
C    1.22349674e+00      -2.87824325e-01     -8.24611367e-01     
H    1.88142727e+00      5.78705108e-01      -8.35296646e-01     
H    1.75599250e+00      -1.12568709e+00     -3.82212332e-01     
C    7.67399854e-01      -6.28434846e-01     -2.22517843e+00     
O    -3.93853357e-01     -5.95740335e-01     -2.57181330e+00     
O    1.80948132e+00      -9.50441984e-01     -2.98768589e+00     
H    1.47355554e+00      -1.14205246e+00     -3.88283819e+00     
O    -1.29131049e+00     -2.37888948e+00     -2.03344786e-01     
H    -1.81053382e+00     -3.05533663e+00     4.81925877e-01      
H    -1.65717524e+00     -2.45820554e+00     -9.02186917e-01     
O    1.01215600e+00      1.11516480e+00      2.30790779e+00      
H    1.38361845e+00      6.48008787e-01      3.04916023e+00      
H    8.52721760e-01      2.01527123e+00      2.62852219e+00      
17
3885.908619
N    1.70481791e-02      4.83070840e-03      -1.71959934e-02     
H    -5.54124487e-01     -8.68444401e-01     7.47057744e-02      
H    -5.74095381e-01     6.71861074e-01      -5.12275338e-01     
H    2.90368562e-01      3.93964981e-01      9.11216076e-01      
C    1.22349732e+00      -2.87823244e-01     -8.24609197e-01     
H    1.88140708e+00      5.78699480e-01      -8.35311387e-01     
H    1.75597947e+00      -1.12569183e+00     -3.82230827e-01     
C    7.67385761e-01      -6.28434125e-01     -2.22518512e+00     
O    -3.93844784e-01     -5.95738985e-01     -2.57180621e+00     
O    1.80948636e+00      -9.50442703e-01     -2.98768777e+00     
H    1.47353723e+00      -1.14206073e+00     -3.88284061e+00     
O    -1.29112882e+00     -2.37985972e+00     -1.99974839e-01     
H    -1.79571988e+00     -3.03630183e+00     4.63185637e-01      
H    -1.67494107e+00     -2.46188955e+00     -9.37079980e-01     
O    1.01208626e+00      1.11533714e+00      2.30784761e+00      
H    1.38441962e+00      6.47011979e-01      3.05074572e+00      
H    8.53028305e-01      2.01352725e+00      2.62789288e+00      
17
3885.908619
N    1.70474224e-02      4.81886164e-03      -1.71802645e-02     
H    -5.54011563e-01     -8.68284256e-01     7.47484913e-02      
H    -5.74148700e-01     6.71906449e-01      -5.12359344e-01     
H    2.90351485e-01      3.93944291e-01      9.11116634e-01      
C    1.22349761e+00      -2.87822704e-01     -8.24608112e-01     
H    1.88139699e+00      5.78696666e-01      -8.35318758e-01     
H    1.75597296e+00      -1.12569421e+00     -3.82240074e-01     
C    7.67378714e-01      -6.28433764e-01     -2.22518847e+00     
O    -3.93840498e-01     -5.95738310e-01     -2.57180267e+00     
O    1.80948888e+00      -9.50443063e-01     -2.98768871e+00     
H    1.47352807e+00      -1.14206487e+00     -3.88284181e+00     
O    -1.29103798e+00     -2.38034484e+00     -1.98289865e-01     
H    -1.78831292e+00     -3.02678443e+00     4.53815516e-01      
H    -1.68382399e+00     -2.46373156e+00     -9.54526512e-01     
O    1.01205139e+00      1.11542331e+00      2.30781752e+00      
H    1.38482020e+00      6.46513575e-01      3.05153847e+00      
H    8.53181577e-01      2.01265526e+00      2.62757822e+00      
17
3885.908619
N    1.70466657e-02      4.80701488e-03      -1.71645357e-02     
H    -5.53898639e-01     -8.68124112e-01     7.47912083e-02      
H    -5.74202018e-01     6.71951824e-01      -5.12443349e-01     
H    2.90334408e-01      3.93923600e-01      9.11017191e-01      
C    1.22349790e+00      -2.87822164e-01     -8.24607027e-01     
H    1.88138690e+00      5.78693853e-01      -8.35326129e-01     
H    1.75596644e+00      -1.12569658e+00     -3.82249322e-01     
C    7.67371667e-01      -6.28433403e-01     -2.22519182e+00     
O    -3.93836212e-01     -5.95737635e-01     -2.57179912e+00     
O    1.80949140e+00      -9.50443423e-01     -2.98768965e+00     
H    1.47351891e+00      -1.14206900e+00     -3.88284302e+00     
O    -1.29094714e+00     -2.38082996e+00     -1.96604891e-01     
H    -1.78090595e+00     -3.01726704e+00     4.44445396e-01      
H    -1.69270690e+00     -2.46557357e+00     -9.71973044e-01     
O    1.01201651e+00      1.11550948e+00      2.30778743e+00      
H    1.38522078e+00      6.46015171e-01      3.05233121e+00      
H    8.53334850e-01      2.01178327e+00      2.62726356e+00      
17
3885.908619
N    1.70459089e-02      4.79516812e-03      -1.71488068e-02     
H    -5.53785715e-01     -8.67963967e-01     7.48339252e-02      
H    -5.74255337e-01     6.71997199e-01      -5.12527355e-01     
H    2.90317331e-01      3.93902910e-01      9.10917749e-01      
C    1.22349819e+00      -2.87821623e-01     -8.24605942e-01     
H    1.88137681e+00      5.78691039e-01      -8.35333500e-01     
H    1.75595993e+00      -1.12569895e+00     -3.82258569e-01     
C    7.67364621e-01      -6.28433043e-01     -2.22519517e+00     
O    -3.93831925e-01     -5.95736960e-01     -2.57179558e+00     
O    1.80949393e+00      -9.50443782e-01     -2.98769059e+00     
H    1.47350975e+00      -1.14207314e+00     -3.88284423e+00     
O    -1.29085630e+00     -2.38131507e+00     -1.94919917e-01     
H    -1.77349898e+00     -3.00774964e+00     4.35075276e-01      
H    -1.70158982e+00     -2.46741558e+00     -9.89419575e-01     
O    1.01198164e+00      1.11559564e+00      2.30775734e+00      
H    1.38562136e+00      6.45516767e-01      3.05312396e+00      
H    8.53488122e-01      2.01091128e+00      2.62694890e+00      
17
3885.908619
N    1.70451522e-02      4.78332136e-03      -1.71330780e-02     
H    -5.53672790e-01     -8.67803822e-01     7.48766421e-02      
H    -5.74308656e-01     6.72042574e-01      -5.12611361e-01     
H    2.90300253e-01      3.93882220e-01      9.10818307e-01      
C    1.22349849e+00      -2.87821083e-01     -8.24604857e-01     
H    1.88136671e+00      5.78688225e-01      -8.35340870e-01     
H    1.75595341e+00      -1.12570132e+00     -3.82267816e-01     
C    7.67357574e-01      -6.28432682e-01     -2.22519851e+00     
O    -3.93827639e-01     -5.95736286e-01     -2.57179203e+00     
O    1.80949645e+00      -9.50444142e-01     -2.98769153e+00     
H    1.47350060e+00      -1.14207728e+00     -3.88284544e+00     
O    -1.29076547e+00     -2.38180019e+00     -1.93234943e-01     
H    -1.76609201e+00     -2.99823224e+00     4.25705156e-01      
H    -1.71047274e+00     -2.46925758e+00     -1.00686611e+00     
O    1.01194677e+00      1.11568181e+00      2.30772724e+00      
H    1.38602194e+00      6.45018363e-01      3.05391671e+00      
H    8.53641395e-01      2.01003929e+00      2.62663425e+00      
17
3885.908619
N    1.70447739e-02      4.77739798e-03      -1.71252136e-02     
H    -5.53616328e-01     -8.67723750e-01     7.48980006e-02      
H    -5.74335315e-01     6.72065261e-01      -5.12653364e-01     
H    2.90291715e-01      3.93871875e-01      9.10768585e-01      
C    1.22349863e+00      -2.87820813e-01     -8.24604315e-01     
H    1.88136167e+00      5.78686818e-01      -8.35344556e-01     
H    1.75595015e+00      -1.12570251e+00     -3.82272440e-01     
C    7.67354051e-01      -6.28432502e-01     -2.22520019e+00     
O    -3.93825496e-01     -5.95735948e-01     -2.57179026e+00     
O    1.80949771e+00      -9.50444322e-01     -2.98769200e+00     
H    1.47349602e+00      -1.14207934e+00     -3.88284604e+00     
O    -1.29072005e+00     -2.38204275e+00     -1.92392456e-01     
H    -1.76238853e+00     -2.99347354e+00     4.21020096e-01      
H    -1.71491420e+00     -2.47017859e+00     -1.01558937e+00     
O    1.01192934e+00      1.11572490e+00      2.30771220e+00      
H    1.38622223e+00      6.44769161e-01      3.05431308e+00      
H    8.53718031e-01      2.00960330e+00      2.62647692e+00      
17
3885.908619
N    1.70443955e-02      4.77147460e-03      -1.71173491e-02     
H    -5.53559866e-01     -8.67643678e-01     7.49193591e-02      
H    -5.74361974e-01     6.72087949e-01      -5.12695367e-01     
H    2.90283176e-01      3.93861529e-01      9.10718864e-01      
C    1.22349878e+00      -2.87820542e-01     -8.24603772e-01     
H    1.88135662e+00      5.78685411e-01      -8.35348241e-01     
H    1.75594690e+00      -1.12570370e+00     -3.82277064e-01     
C    7.67350528e-01      -6.28432322e-01     -2.22520186e+00     
O    -3.93823352e-01     -5.95735611e-01     -2.57178849e+00     
O    1.80949897e+00      -9.50444501e-01     -2.98769247e+00     
H    1.47349144e+00      -1.14208141e+00     -3.88284664e+00     
O    -1.29067463e+00     -2.38228531e+00     -1.91549969e-01     
H    -1.75868505e+00     -2.98871484e+00     4.16335036e-01      
H    -1.71935565e+00     -2.47109959e+00     -1.02431264e+00     
O    1.01191190e+00      1.11576798e+00      2.30769715e+00      
H    1.38642252e+00      6.44519959e-01      3.05470945e+00      
H    8.53794667e-01      2.00916730e+00      2.62631959e+00      
17
3885.908619
N    1.70428821e-02      4.74778108e-03      -1.70858915e-02     
H    -5.53334018e-01     -8.67323388e-01     7.50047929e-02      
H    -5.74468612e-01     6.72178699e-01      -5.12863379e-01     
H    2.90249022e-01      3.93820149e-01      9.10519980e-01      
C    1.22349936e+00      -2.87819462e-01     -8.24601602e-01     
H    1.88133644e+00      5.78679783e-01      -8.35362983e-01     
H    1.75593386e+00      -1.12570844e+00     -3.82295558e-01     
C    7.67336434e-01      -6.28431600e-01     -2.22520856e+00     
O    -3.93814780e-01     -5.95734261e-01     -2.57178139e+00     
O    1.80950401e+00      -9.50445221e-01     -2.98769435e+00     
H    1.47347312e+00      -1.14208969e+00     -3.88284906e+00     
O    -1.29049295e+00     -2.38325555e+00     -1.88180021e-01     
H    -1.74387111e+00     -2.96968004e+00     3.97594796e-01      
H    -1.73712149e+00     -2.47478361e+00     -1.05920570e+00     
O    1.01184216e+00      1.11594032e+00      2.30763697e+00      
H    1.38722368e+00      6.43523151e-01      3.05629495e+00      
H    8.54101213e-01      2.00742332e+00      2.62569027e+00      
17
3885.908619
N    1.70425037e-02      4.74185770e-03      -1.70780270e-02     
H    -5.53277556e-01     -8.67243316e-01     7.50261514e-02      
H    -5.74495271e-01     6.72201387e-01      -5.12905382e-01     
H    2.90240483e-01      3.93809803e-01      9.10470259e-01      
C    1.22349951e+00      -2.87819191e-01     -8.24601059e-01     
H    1.88133139e+00      5.78678376e-01      -8.35366668e-01     
H    1.75593061e+00      -1.12570963e+00     -3.82300182e-01     
C    7.67332911e-01      -6.28431420e-01     -2.22521023e+00     
O    -3.93812636e-01     -5.95733924e-01     -2.57177962e+00     
O    1.80950527e+00      -9.50445400e-01     -2.98769482e+00     
H    1.47346854e+00      -1.14209176e+00     -3.88284966e+00     
O    -1.29044753e+00     -2.38349811e+00     -1.87337534e-01     
H    -1.74016763e+00     -2.96492134e+00     3.92909736e-01      
H    -1.74156294e+00     -2.47570461e+00     -1.06792897e+00     
O    1.01182472e+00      1.11598340e+00      2.30762192e+00      
H    1.38742397e+00      6.43273949e-01      3.05669132e+00      
H    8.54177849e-01      2.00698732e+00      2.62553294e+00      
17
3885.908619
N    1.70421254e-02      4.73593432e-03      -1.70701626e-02     
H    -5.53221094e-01     -8.67163244e-01     7.50475099e-02      
H    -5.74521930e-01     6.72224074e-01      -5.12947385e-01     
H    2.90231945e-01      3.93799458e-01      9.10420537e-01      
C    1.22349965e+00      -2.87818921e-01     -8.24600517e-01     
H    1.88132635e+00      5.78676969e-01      -8.35370354e-01     
H    1.75592735e+00      -1.12571082e+00     -3.82304806e-01     
C    7.67329388e-01      -6.28431240e-01     -2.22521191e+00     
O    -3.93810493e-01     -5.95733586e-01     -2.57177785e+00     
O    1.80950653e+00      -9.50445580e-01     -2.98769529e+00     
H    1.47346396e+00      -1.14209382e+00     -3.88285026e+00     
O    -1.29040211e+00     -2.38374067e+00     -1.86495047e-01     
H    -1.73646415e+00     -2.96016264e+00     3.88224676e-01      
H    -1.74600440e+00     -2.47662562e+00     -1.07665223e+00     
O    1.01180729e+00      1.11602649e+00      2.30760688e+00      
H    1.38762426e+00      6.43024747e-01      3.05708769e+00      
H    8.54254485e-01      2.00655133e+00      2.62537561e+00      
17
3885.908619
N    1.70413687e-02      4.72408756e-03      -1.70544338e-02     
H    -5.53108169e-01     -8.67003099e-01     7.50902268e-02      
H    -5.74575249e-01     6.72269449e-01      -5.13031391e-01     
H    2.90214867e-01      3.93778768e-01      9.10321095e-01      
C    1.22349995e+00      -2.87818381e-01     -8.24599432e-01     
H    1.88131625e+00      5.78674155e-01      -8.35377724e-01     
H    1.75592083e+00      -1.12571319e+00     -3.82314053e-01     
C    7.67322341e-01      -6.28430879e-01     -2.22521525e+00     
O    -3.93806207e-01     -5.95732912e-01     -2.57177430e+00     
O    1.80950905e+00      -9.50445940e-01     -2.98769623e+00     
H    1.47345481e+00      -1.14209796e+00     -3.88285147e+00     
O    -1.29031128e+00     -2.38422579e+00     -1.84810073e-01     
H    -1.72905718e+00     -2.95064524e+00     3.78854556e-01      
H    -1.75488732e+00     -2.47846762e+00     -1.09409876e+00     
O    1.01177242e+00      1.11611266e+00      2.30757678e+00      
H    1.38802484e+00      6.42526343e-01      3.05788044e+00      
H    8.54407758e-01      2.00567934e+00      2.62506096e+00      
17
3885.908619
N    1.70406119e-02      4.71224080e-03      -1.70387049e-02     
H    -5.52995245e-01     -8.66842954e-01     7.51329437e-02      
H    -5.74628568e-01     6.72314824e-01      -5.13115397e-01     
H    2.90197790e-01      3.93758078e-01      9.10221653e-01      
C    1.22350024e+00      -2.87817840e-01     -8.24598347e-01     
H    1.88130616e+00      5.78671341e-01      -8.35385095e-01     
H    1.75591432e+00      -1.12571556e+00     -3.82323300e-01     
C    7.67315295e-01      -6.28430519e-01     -2.22521860e+00     
O    -3.93801920e-01     -5.95732237e-01     -2.57177076e+00     
O    1.80951158e+00      -9.50446299e-01     -2.98769717e+00     
H    1.47344565e+00      -1.14210210e+00     -3.88285268e+00     
O    -1.29022044e+00     -2.38471090e+00     -1.83125099e-01     
H    -1.72165021e+00     -2.94112784e+00     3.69484436e-01      
H    -1.76377024e+00     -2.48030963e+00     -1.11154530e+00     
O    1.01173755e+00      1.11619882e+00      2.30754669e+00      
H    1.38842542e+00      6.42027939e-01      3.05867319e+00      
H    8.54561030e-01      2.00480735e+00      2.62474630e+00      
17
3885.908619
N    1.70398552e-02      4.70039404e-03      -1.70229761e-02     
H    -5.52882321e-01     -8.66682810e-01     7.51756607e-02      
H    -5.74681886e-01     6.72360199e-01      -5.13199402e-01     
H    2.90180713e-01      3.93737387e-01      9.10122210e-01      
C    1.22350053e+00      -2.87817300e-01     -8.24597262e-01     
H    1.88129607e+00      5.78668528e-01      -8.35392466e-01     
H    1.75590780e+00      -1.12571793e+00     -3.82332548e-01     
C    7.67308248e-01      -6.28430158e-01     -2.22522195e+00     
O    -3.93797634e-01     -5.95731562e-01     -2.57176721e+00     
O    1.80951410e+00      -9.50446659e-01     -2.98769811e+00     
H    1.47343649e+00      -1.14210623e+00     -3.88285389e+00     
O    -1.29012960e+00     -2.38519602e+00     -1.81440125e-01     
H    -1.71424324e+00     -2.93161045e+00     3.60114316e-01      
H    -1.77265315e+00     -2.48215164e+00     -1.12899183e+00     
O    1.01170267e+00      1.11628499e+00      2.30751660e+00      
H    1.38882600e+00      6.41529535e-01      3.05946593e+00      
H    8.54714303e-01      2.00393536e+00      2.62443164e+00      
17
3885.908619
N    1.70390985e-02      4.68854728e-03      -1.70072472e-02     
H    -5.52769397e-01     -8.66522665e-01     7.52183776e-02      
H    -5.74735205e-01     6.72405574e-01      -5.13283408e-01     
H    2.90163636e-01      3.93716697e-01      9.10022768e-01      
C    1.22350082e+00      -2.87816760e-01     -8.24596177e-01     
H    1.88128598e+00      5.78665714e-01      -8.35399837e-01     
H    1.75590129e+00      -1.12572031e+00     -3.82341795e-01     
C    7.67301201e-01      -6.28429797e-01     -2.22522530e+00     
O    -3.93793348e-01     -5.95730887e-01     -2.57176367e+00     
O    1.80951662e+00      -9.50447019e-01     -2.98769905e+00     
H    1.47342733e+00      -1.14211037e+00     -3.88285509e+00     
O    -1.29003876e+00     -2.38568114e+00     -1.79755151e-01     
H    -1.70683628e+00     -2.92209305e+00     3.50744195e-01      
H    -1.78153607e+00     -2.48399365e+00     -1.14643836e+00     
O    1.01166780e+00      1.11637116e+00      2.30748651e+00      
H    1.38922658e+00      6.41031131e-01      3.06025868e+00      
H    8.54867575e-01      2.00306337e+00      2.62411698e+00      
17
3885.908619
N    1.70375851e-02      4.66485375e-03      -1.69757895e-02     
H    -5.52543549e-01     -8.66202376e-01     7.53038115e-02      
H    -5.74841843e-01     6.72496324e-01      -5.13451420e-01     
H    2.90129481e-01      3.93675316e-01      9.09823883e-01      
C    1.22350140e+00      -2.87815679e-01     -8.24594007e-01     
H    1.88126579e+00      5.78660086e-01      -8.35414578e-01     
H    1.75588826e+00      -1.12572505e+00     -3.82360290e-01     
C    7.67287108e-01      -6.28429076e-01     -2.22523199e+00     
O    -3.93784775e-01     -5.95729537e-01     -2.57175658e+00     
O    1.80952166e+00      -9.50447738e-01     -2.98770093e+00     
H    1.47340902e+00      -1.14211864e+00     -3.88285751e+00     
O    -1.28985709e+00     -2.38665138e+00     -1.76385204e-01     
H    -1.69202234e+00     -2.90305825e+00     3.32003955e-01      
H    -1.79930190e+00     -2.48767766e+00     -1.18133142e+00     
O    1.01159806e+00      1.11654350e+00      2.30742633e+00      
H    1.39002775e+00      6.40034323e-01      3.06184417e+00      
H    8.55174120e-01      2.00131939e+00      2.62348767e+00      
