17
3696.166131
N    1.67542920e-02      4.93162758e-03      -1.73229383e-02     
H    -5.52774524e-01     -8.66759124e-01     7.52308839e-02      
H    -5.71388628e-01     6.69019414e-01      -5.10353622e-01     
H    2.90281108e-01      3.93823023e-01      9.10901709e-01      
C    1.22369342e+00      -2.87798540e-01     -8.24545071e-01     
H    1.88052848e+00      5.78054366e-01      -8.35298616e-01     
H    1.75545291e+00      -1.12526436e+00     -3.82327053e-01     
C    7.67262230e-01      -6.28555643e-01     -2.22573759e+00     
O    -3.93985137e-01     -5.95705874e-01     -2.57175580e+00     
O    1.80572902e+00      -9.52932579e-01     -2.99903011e+00     
H    1.53633078e+00      -1.10160099e+00     -3.69782459e+00     
O    -1.29056127e+00     -2.38275239e+00     -1.89852740e-01     
H    -1.75153207e+00     -2.97953177e+00     4.07308018e-01      
H    -1.72842208e+00     -2.47297162e+00     -1.04221292e+00     
O    1.01187803e+00      1.11584943e+00      2.30768465e+00      
H    1.38675881e+00      6.44166570e-01      3.05530019e+00      
H    8.54000437e-01      2.00826049e+00      2.62601469e+00      
17
3696.166131
N    1.68266287e-02      4.88862765e-03      -1.72676088e-02     
H    -5.52942628e-01     -8.66940227e-01     7.51636819e-02      
H    -5.72145294e-01     6.69797892e-01      -5.10960060e-01     
H    2.90277356e-01      3.93827477e-01      9.10831137e-01      
C    1.22364483e+00      -2.87803906e-01     -8.24559475e-01     
H    1.88073299e+00      5.78211424e-01      -8.35312865e-01     
H    1.75557478e+00      -1.12537479e+00     -3.82316868e-01     
C    7.67282543e-01      -6.28524722e-01     -2.22560450e+00     
O    -3.93943619e-01     -5.95713139e-01     -2.57176308e+00     
O    1.80667214e+00      -9.52310649e-01     -2.99619594e+00     
H    1.52061866e+00      -1.11172213e+00     -3.74408040e+00     
O    -1.29056690e+00     -2.38275690e+00     -1.89855804e-01     
H    -1.75146857e+00     -2.97944819e+00     4.07222243e-01      
H    -1.72837621e+00     -2.47296412e+00     -1.04209948e+00     
O    1.01187778e+00      1.11585061e+00      2.30768025e+00      
H    1.38677488e+00      6.44130317e-01      3.05535069e+00      
H    8.53987313e-01      2.00826919e+00      2.62601225e+00      
17
3696.166131
N    1.68627971e-02      4.86712768e-03      -1.72399440e-02     
H    -5.53026681e-01     -8.67030778e-01     7.51300810e-02      
H    -5.72523627e-01     6.70187130e-01      -5.11263279e-01     
H    2.90275480e-01      3.93829704e-01      9.10795852e-01      
C    1.22362054e+00      -2.87806588e-01     -8.24566677e-01     
H    1.88083525e+00      5.78289953e-01      -8.35319990e-01     
H    1.75563571e+00      -1.12543000e+00     -3.82311775e-01     
C    7.67292699e-01      -6.28509262e-01     -2.22553795e+00     
O    -3.93922860e-01     -5.95716772e-01     -2.57176673e+00     
O    1.80714370e+00      -9.51999685e-01     -2.99477885e+00     
H    1.51276260e+00      -1.11678270e+00     -3.76720831e+00     
O    -1.29056971e+00     -2.38275916e+00     -1.89857336e-01     
H    -1.75143682e+00     -2.97940640e+00     4.07179355e-01      
H    -1.72835327e+00     -2.47296037e+00     -1.04204276e+00     
O    1.01187766e+00      1.11585120e+00      2.30767806e+00      
H    1.38678292e+00      6.44112190e-01      3.05537595e+00      
H    8.53980750e-01      2.00827355e+00      2.62601103e+00      
17
3696.166131
N    1.68989654e-02      4.84562771e-03      -1.72122793e-02     
H    -5.53110733e-01     -8.67121329e-01     7.50964800e-02      
H    -5.72901960e-01     6.70576369e-01      -5.11566498e-01     
H    2.90273603e-01      3.93831931e-01      9.10760566e-01      
C    1.22359624e+00      -2.87809271e-01     -8.24573879e-01     
H    1.88093750e+00      5.78368481e-01      -8.35327114e-01     
H    1.75569664e+00      -1.12548522e+00     -3.82306682e-01     
C    7.67302855e-01      -6.28493802e-01     -2.22547140e+00     
O    -3.93902101e-01     -5.95720405e-01     -2.57177037e+00     
O    1.80761526e+00      -9.51688720e-01     -2.99336176e+00     
H    1.50490653e+00      -1.12184327e+00     -3.79033622e+00     
O    -1.29057253e+00     -2.38276141e+00     -1.89858868e-01     
H    -1.75140508e+00     -2.97936460e+00     4.07136467e-01      
H    -1.72833033e+00     -2.47295661e+00     -1.04198605e+00     
O    1.01187753e+00      1.11585179e+00      2.30767586e+00      
H    1.38679096e+00      6.44094063e-01      3.05540120e+00      
H    8.53974188e-01      2.00827790e+00      2.62600981e+00      
17
3696.166131
N    1.69351338e-02      4.82412774e-03      -1.71846145e-02     
H    -5.53194785e-01     -8.67211880e-01     7.50628790e-02      
H    -5.73280294e-01     6.70965608e-01      -5.11869716e-01     
H    2.90271727e-01      3.93834158e-01      9.10725280e-01      
C    1.22357195e+00      -2.87811954e-01     -8.24581081e-01     
H    1.88103976e+00      5.78447010e-01      -8.35334239e-01     
H    1.75575758e+00      -1.12554043e+00     -3.82301589e-01     
C    7.67313012e-01      -6.28478342e-01     -2.22540485e+00     
O    -3.93881343e-01     -5.95724038e-01     -2.57177401e+00     
O    1.80808682e+00      -9.51377755e-01     -2.99194467e+00     
H    1.49705047e+00      -1.12690384e+00     -3.81346413e+00     
O    -1.29057534e+00     -2.38276367e+00     -1.89860399e-01     
H    -1.75137333e+00     -2.97932281e+00     4.07093579e-01      
H    -1.72830739e+00     -2.47295286e+00     -1.04192933e+00     
O    1.01187741e+00      1.11585238e+00      2.30767366e+00      
H    1.38679899e+00      6.44075936e-01      3.05542645e+00      
H    8.53967626e-01      2.00828225e+00      2.62600859e+00      
17
3696.166131
N    1.69713021e-02      4.80262778e-03      -1.71569498e-02     
H    -5.53278837e-01     -8.67302431e-01     7.50292780e-02      
H    -5.73658627e-01     6.71354847e-01      -5.12172935e-01     
H    2.90269851e-01      3.93836385e-01      9.10689994e-01      
C    1.22354766e+00      -2.87814637e-01     -8.24588283e-01     
H    1.88114202e+00      5.78525539e-01      -8.35341363e-01     
H    1.75581851e+00      -1.12559564e+00     -3.82296497e-01     
C    7.67323168e-01      -6.28462881e-01     -2.22533831e+00     
O    -3.93860584e-01     -5.95727670e-01     -2.57177765e+00     
O    1.80855837e+00      -9.51066790e-01     -2.99052759e+00     
H    1.48919441e+00      -1.13196441e+00     -3.83659203e+00     
O    -1.29057816e+00     -2.38276592e+00     -1.89861931e-01     
H    -1.75134158e+00     -2.97928102e+00     4.07050692e-01      
H    -1.72828445e+00     -2.47294911e+00     -1.04187261e+00     
O    1.01187728e+00      1.11585297e+00      2.30767146e+00      
H    1.38680703e+00      6.44057809e-01      3.05545170e+00      
H    8.53961064e-01      2.00828660e+00      2.62600737e+00      
17
3696.166131
N    1.69893863e-02      4.79187779e-03      -1.71431174e-02     
H    -5.53320864e-01     -8.67347706e-01     7.50124775e-02      
H    -5.73847793e-01     6.71549466e-01      -5.12324545e-01     
H    2.90268913e-01      3.93837498e-01      9.10672351e-01      
C    1.22353551e+00      -2.87815978e-01     -8.24591884e-01     
H    1.88119314e+00      5.78564804e-01      -8.35344925e-01     
H    1.75584898e+00      -1.12562325e+00     -3.82293950e-01     
C    7.67328246e-01      -6.28455151e-01     -2.22530503e+00     
O    -3.93850204e-01     -5.95729487e-01     -2.57177948e+00     
O    1.80879415e+00      -9.50911308e-01     -2.98981904e+00     
H    1.48526637e+00      -1.13449469e+00     -3.84815599e+00     
O    -1.29057957e+00     -2.38276705e+00     -1.89862697e-01     
H    -1.75132570e+00     -2.97926013e+00     4.07029248e-01      
H    -1.72827298e+00     -2.47294723e+00     -1.04184425e+00     
O    1.01187722e+00      1.11585327e+00      2.30767036e+00      
H    1.38681105e+00      6.44048745e-01      3.05546432e+00      
H    8.53957783e-01      2.00828878e+00      2.62600676e+00      
17
3696.166131
N    1.70074705e-02      4.78112781e-03      -1.71292850e-02     
H    -5.53362890e-01     -8.67392982e-01     7.49956770e-02      
H    -5.74036960e-01     6.71744085e-01      -5.12476154e-01     
H    2.90267975e-01      3.93838612e-01      9.10654708e-01      
C    1.22352336e+00      -2.87817319e-01     -8.24595485e-01     
H    1.88124427e+00      5.78604068e-01      -8.35348488e-01     
H    1.75587945e+00      -1.12565086e+00     -3.82291404e-01     
C    7.67333325e-01      -6.28447421e-01     -2.22527176e+00     
O    -3.93839825e-01     -5.95731303e-01     -2.57178130e+00     
O    1.80902993e+00      -9.50755826e-01     -2.98911050e+00     
H    1.48133834e+00      -1.13702498e+00     -3.85971994e+00     
O    -1.29058097e+00     -2.38276818e+00     -1.89863463e-01     
H    -1.75130983e+00     -2.97923923e+00     4.07007804e-01      
H    -1.72826151e+00     -2.47294535e+00     -1.04181589e+00     
O    1.01187716e+00      1.11585356e+00      2.30766926e+00      
H    1.38681506e+00      6.44039682e-01      3.05547695e+00      
H    8.53954502e-01      2.00829096e+00      2.62600615e+00      
17
3696.166131
N    1.70798071e-02      4.73812787e-03      -1.70739556e-02     
H    -5.53530994e-01     -8.67574084e-01     7.49284750e-02      
H    -5.74793626e-01     6.72522563e-01      -5.13082592e-01     
H    2.90264223e-01      3.93843066e-01      9.10584136e-01      
C    1.22347478e+00      -2.87822685e-01     -8.24609889e-01     
H    1.88144879e+00      5.78761126e-01      -8.35362736e-01     
H    1.75600131e+00      -1.12576128e+00     -3.82281218e-01     
C    7.67353637e-01      -6.28416501e-01     -2.22513866e+00     
O    -3.93798307e-01     -5.95738569e-01     -2.57178858e+00     
O    1.80997305e+00      -9.50133896e-01     -2.98627632e+00     
H    1.46562622e+00      -1.14714612e+00     -3.90597576e+00     
O    -1.29058661e+00     -2.38277268e+00     -1.89866527e-01     
H    -1.75124633e+00     -2.97915565e+00     4.06922028e-01      
H    -1.72821563e+00     -2.47293785e+00     -1.04170245e+00     
O    1.01187690e+00      1.11585474e+00      2.30766486e+00      
H    1.38683114e+00      6.44003428e-01      3.05552745e+00      
H    8.53941378e-01      2.00829966e+00      2.62600371e+00      
17
3696.166131
N    1.70978913e-02      4.72737789e-03      -1.70601232e-02     
H    -5.53573020e-01     -8.67619360e-01     7.49116745e-02      
H    -5.74982793e-01     6.72717182e-01      -5.13234201e-01     
H    2.90263285e-01      3.93844180e-01      9.10566493e-01      
C    1.22346263e+00      -2.87824026e-01     -8.24613490e-01     
H    1.88149992e+00      5.78800390e-01      -8.35366299e-01     
H    1.75603178e+00      -1.12578889e+00     -3.82278672e-01     
C    7.67358716e-01      -6.28408771e-01     -2.22510539e+00     
O    -3.93787928e-01     -5.95740385e-01     -2.57179040e+00     
O    1.81020883e+00      -9.49978414e-01     -2.98556778e+00     
H    1.46169819e+00      -1.14967641e+00     -3.91753971e+00     
O    -1.29058801e+00     -2.38277381e+00     -1.89867293e-01     
H    -1.75123046e+00     -2.97913475e+00     4.06900584e-01      
H    -1.72820416e+00     -2.47293597e+00     -1.04167409e+00     
O    1.01187684e+00      1.11585503e+00      2.30766376e+00      
H    1.38683515e+00      6.43994365e-01      3.05554008e+00      
H    8.53938097e-01      2.00830184e+00      2.62600310e+00      
17
3696.166131
N    1.71159755e-02      4.71662790e-03      -1.70462908e-02     
H    -5.53615047e-01     -8.67664635e-01     7.48948740e-02      
H    -5.75171959e-01     6.72911801e-01      -5.13385811e-01     
H    2.90262347e-01      3.93845293e-01      9.10548850e-01      
C    1.22345048e+00      -2.87825367e-01     -8.24617091e-01     
H    1.88155104e+00      5.78839655e-01      -8.35369861e-01     
H    1.75606225e+00      -1.12581650e+00     -3.82276125e-01     
C    7.67363794e-01      -6.28401041e-01     -2.22507211e+00     
O    -3.93777548e-01     -5.95742202e-01     -2.57179223e+00     
O    1.81044461e+00      -9.49822932e-01     -2.98485923e+00     
H    1.45777015e+00      -1.15220669e+00     -3.92910367e+00     
O    -1.29058942e+00     -2.38277494e+00     -1.89868059e-01     
H    -1.75121458e+00     -2.97911386e+00     4.06879140e-01      
H    -1.72819269e+00     -2.47293409e+00     -1.04164573e+00     
O    1.01187678e+00      1.11585533e+00      2.30766266e+00      
H    1.38683917e+00      6.43985301e-01      3.05555270e+00      
H    8.53934816e-01      2.00830402e+00      2.62600249e+00      
17
3696.166131
N    1.71521438e-02      4.69512794e-03      -1.70186261e-02     
H    -5.53699099e-01     -8.67755186e-01     7.48612730e-02      
H    -5.75550292e-01     6.73301040e-01      -5.13689030e-01     
H    2.90260471e-01      3.93847520e-01      9.10513564e-01      
C    1.22342619e+00      -2.87828050e-01     -8.24624293e-01     
H    1.88165330e+00      5.78918184e-01      -8.35376985e-01     
H    1.75612318e+00      -1.12587171e+00     -3.82271033e-01     
C    7.67373950e-01      -6.28385580e-01     -2.22500557e+00     
O    -3.93756789e-01     -5.95745834e-01     -2.57179587e+00     
O    1.81091616e+00      -9.49511967e-01     -2.98344215e+00     
H    1.44991409e+00      -1.15726726e+00     -3.95223157e+00     
O    -1.29059224e+00     -2.38277719e+00     -1.89869591e-01     
H    -1.75118283e+00     -2.97907207e+00     4.06836253e-01      
H    -1.72816975e+00     -2.47293034e+00     -1.04158901e+00     
O    1.01187665e+00      1.11585592e+00      2.30766046e+00      
H    1.38684721e+00      6.43967174e-01      3.05557795e+00      
H    8.53928254e-01      2.00830837e+00      2.62600127e+00      
17
3696.166131
N    1.71883122e-02      4.67362797e-03      -1.69909613e-02     
H    -5.53783151e-01     -8.67845737e-01     7.48276720e-02      
H    -5.75928626e-01     6.73690279e-01      -5.13992248e-01     
H    2.90258595e-01      3.93849747e-01      9.10478278e-01      
C    1.22340190e+00      -2.87830733e-01     -8.24631495e-01     
H    1.88175556e+00      5.78996713e-01      -8.35384110e-01     
H    1.75618412e+00      -1.12592692e+00     -3.82265940e-01     
C    7.67384107e-01      -6.28370120e-01     -2.22493902e+00     
O    -3.93736031e-01     -5.95749467e-01     -2.57179951e+00     
O    1.81138772e+00      -9.49201002e-01     -2.98202506e+00     
H    1.44205803e+00      -1.16232783e+00     -3.97535948e+00     
O    -1.29059505e+00     -2.38277945e+00     -1.89871122e-01     
H    -1.75115108e+00     -2.97903028e+00     4.06793365e-01      
H    -1.72814681e+00     -2.47292659e+00     -1.04153229e+00     
O    1.01187653e+00      1.11585651e+00      2.30765826e+00      
H    1.38685524e+00      6.43949047e-01      3.05560320e+00      
H    8.53921692e-01      2.00831272e+00      2.62600005e+00      
17
3696.166131
N    1.72244805e-02      4.65212800e-03      -1.69632966e-02     
H    -5.53867203e-01     -8.67936288e-01     7.47940710e-02      
H    -5.76306959e-01     6.74079518e-01      -5.14295467e-01     
H    2.90256718e-01      3.93851974e-01      9.10442992e-01      
C    1.22337760e+00      -2.87833416e-01     -8.24638697e-01     
H    1.88185781e+00      5.79075241e-01      -8.35391234e-01     
H    1.75624505e+00      -1.12598214e+00     -3.82260847e-01     
C    7.67394263e-01      -6.28354660e-01     -2.22487247e+00     
O    -3.93715272e-01     -5.95753100e-01     -2.57180315e+00     
O    1.81185928e+00      -9.48890037e-01     -2.98060797e+00     
H    1.43420196e+00      -1.16738840e+00     -3.99848739e+00     
O    -1.29059787e+00     -2.38278170e+00     -1.89872654e-01     
H    -1.75111934e+00     -2.97898848e+00     4.06750477e-01      
H    -1.72812387e+00     -2.47292283e+00     -1.04147558e+00     
O    1.01187640e+00      1.11585710e+00      2.30765606e+00      
H    1.38686328e+00      6.43930920e-01      3.05562845e+00      
H    8.53915130e-01      2.00831707e+00      2.62599883e+00      
17
3696.166131
N    1.72606489e-02      4.63062803e-03      -1.69356318e-02     
H    -5.53951256e-01     -8.68026839e-01     7.47604701e-02      
H    -5.76685292e-01     6.74468756e-01      -5.14598686e-01     
H    2.90254842e-01      3.93854201e-01      9.10407707e-01      
C    1.22335331e+00      -2.87836098e-01     -8.24645899e-01     
H    1.88196007e+00      5.79153770e-01      -8.35398359e-01     
H    1.75630598e+00      -1.12603735e+00     -3.82255754e-01     
C    7.67404419e-01      -6.28339200e-01     -2.22480592e+00     
O    -3.93694513e-01     -5.95756733e-01     -2.57180680e+00     
O    1.81233084e+00      -9.48579073e-01     -2.97919088e+00     
H    1.42634590e+00      -1.17244897e+00     -4.02161530e+00     
O    -1.29060068e+00     -2.38278396e+00     -1.89874186e-01     
H    -1.75108759e+00     -2.97894669e+00     4.06707589e-01      
H    -1.72810093e+00     -2.47291908e+00     -1.04141886e+00     
O    1.01187628e+00      1.11585769e+00      2.30765387e+00      
H    1.38687132e+00      6.43912793e-01      3.05565371e+00      
H    8.53908567e-01      2.00832143e+00      2.62599761e+00      
17
3696.166131
N    1.73329856e-02      4.58762810e-03      -1.68803023e-02     
H    -5.54119360e-01     -8.68207942e-01     7.46932681e-02      
H    -5.77441958e-01     6.75247234e-01      -5.15205124e-01     
H    2.90251090e-01      3.93858655e-01      9.10337135e-01      
C    1.22330472e+00      -2.87841464e-01     -8.24660303e-01     
H    1.88216458e+00      5.79310828e-01      -8.35412608e-01     
H    1.75642785e+00      -1.12614778e+00     -3.82245569e-01     
C    7.67424732e-01      -6.28308279e-01     -2.22467283e+00     
O    -3.93652995e-01     -5.95763998e-01     -2.57181408e+00     
O    1.81327396e+00      -9.47957143e-01     -2.97635671e+00     
H    1.41063378e+00      -1.18257011e+00     -4.06787111e+00     
O    -1.29060631e+00     -2.38278847e+00     -1.89877250e-01     
H    -1.75102409e+00     -2.97886311e+00     4.06621814e-01      
H    -1.72805506e+00     -2.47291158e+00     -1.04130542e+00     
O    1.01187603e+00      1.11585887e+00      2.30764947e+00      
H    1.38688739e+00      6.43876540e-01      3.05570421e+00      
H    8.53895443e-01      2.00833013e+00      2.62599517e+00      
