17
3205.180959
N    1.63098416e-02      3.98638616e-03      -1.78600866e-02     
H    -5.46130434e-01     -8.58844081e-01     7.25189290e-02      
H    -5.74259798e-01     6.71191732e-01      -5.11064340e-01     
H    2.92945240e-01      3.98504233e-01      9.21049911e-01      
C    1.22299521e+00      -3.06127067e-01     -8.19416927e-01     
H    1.96082737e+00      6.82592545e-01      -8.34797275e-01     
H    1.68288147e+00      -1.01161841e+00     -4.44668036e-01     
C    7.67353463e-01      -6.28529209e-01     -2.22515366e+00     
O    -3.93846563e-01     -5.95771053e-01     -2.57179084e+00     
O    1.80949968e+00      -9.50447860e-01     -2.98769763e+00     
H    1.47352621e+00      -1.14206927e+00     -3.88276570e+00     
O    -1.29061144e+00     -2.38278045e+00     -1.89853347e-01     
H    -1.75122090e+00     -2.97926038e+00     4.07283065e-01      
H    -1.72805049e+00     -2.47276347e+00     -1.04200527e+00     
O    1.01187523e+00      1.11586600e+00      2.30764194e+00      
H    1.38686910e+00      6.43999097e-01      3.05575671e+00      
H    8.54048399e-01      2.00829989e+00      2.62627023e+00      
17
3205.180959
N    1.64932909e-02      4.17969658e-03      -1.76704700e-02     
H    -5.47959561e-01     -8.61003944e-01     7.31297157e-02      
H    -5.74298672e-01     6.71427130e-01      -5.11493099e-01     
H    2.92275455e-01      3.97338385e-01      9.18442289e-01      
C    1.22312117e+00      -3.01550301e-01     -8.20713367e-01     
H    1.94095716e+00      6.56615058e-01      -8.34936859e-01     
H    1.70114620e+00      -1.04014032e+00     -4.29072604e-01     
C    7.67350968e-01      -6.28504897e-01     -2.22516655e+00     
O    -3.93839689e-01     -5.95762024e-01     -2.57178936e+00     
O    1.80950013e+00      -9.50447110e-01     -2.98769657e+00     
H    1.47351523e+00      -1.14207334e+00     -3.88278624e+00     
O    -1.29060453e+00     -2.38277794e+00     -1.89856259e-01     
H    -1.75123520e+00     -2.97924465e+00     4.07203528e-01      
H    -1.72809751e+00     -2.47280800e+00     -1.04194375e+00     
O    1.01187568e+00      1.11586303e+00      2.30764822e+00      
H    1.38685760e+00      6.44004711e-01      3.05569308e+00      
H    8.54023284e-01      2.00829875e+00      2.62620391e+00      
17
3205.180959
N    1.65850155e-02      4.27635179e-03      -1.75756617e-02     
H    -5.48874124e-01     -8.62083875e-01     7.34351091e-02      
H    -5.74318108e-01     6.71544829e-01      -5.11707478e-01     
H    2.91940562e-01      3.96755460e-01      9.17138477e-01      
C    1.22318415e+00      -2.99261918e-01     -8.21361587e-01     
H    1.93102206e+00      6.43626314e-01      -8.35006651e-01     
H    1.71027856e+00      -1.05440128e+00     -4.21274889e-01     
C    7.67349720e-01      -6.28492741e-01     -2.22517299e+00     
O    -3.93836252e-01     -5.95757509e-01     -2.57178863e+00     
O    1.80950036e+00      -9.50446735e-01     -2.98769604e+00     
H    1.47350974e+00      -1.14207538e+00     -3.88279650e+00     
O    -1.29060107e+00     -2.38277669e+00     -1.89857715e-01     
H    -1.75124234e+00     -2.97923678e+00     4.07163759e-01      
H    -1.72812102e+00     -2.47283027e+00     -1.04191298e+00     
O    1.01187590e+00      1.11586155e+00      2.30765136e+00      
H    1.38685185e+00      6.44007519e-01      3.05566127e+00      
H    8.54010727e-01      2.00829817e+00      2.62617074e+00      
17
3205.180959
N    1.66767402e-02      4.37300700e-03      -1.74808534e-02     
H    -5.49788688e-01     -8.63163807e-01     7.37405025e-02      
H    -5.74337545e-01     6.71662528e-01      -5.11921857e-01     
H    2.91605669e-01      3.96172536e-01      9.15834666e-01      
C    1.22324714e+00      -2.96973535e-01     -8.22009807e-01     
H    1.92108695e+00      6.30637571e-01      -8.35076443e-01     
H    1.71941093e+00      -1.06866224e+00     -4.13477173e-01     
C    7.67348472e-01      -6.28480585e-01     -2.22517944e+00     
O    -3.93832814e-01     -5.95752995e-01     -2.57178789e+00     
O    1.80950059e+00      -9.50446361e-01     -2.98769552e+00     
H    1.47350424e+00      -1.14207741e+00     -3.88280677e+00     
O    -1.29059762e+00     -2.38277544e+00     -1.89859171e-01     
H    -1.75124949e+00     -2.97922891e+00     4.07123991e-01      
H    -1.72814453e+00     -2.47285253e+00     -1.04188222e+00     
O    1.01187613e+00      1.11586007e+00      2.30765450e+00      
H    1.38684610e+00      6.44010326e-01      3.05562946e+00      
H    8.53998169e-01      2.00829760e+00      2.62613758e+00      
17
3205.180959
N    1.67684648e-02      4.46966221e-03      -1.73860451e-02     
H    -5.50703251e-01     -8.64243738e-01     7.40458959e-02      
H    -5.74356982e-01     6.71780227e-01      -5.12136236e-01     
H    2.91270777e-01      3.95589612e-01      9.14530855e-01      
C    1.22331012e+00      -2.94685152e-01     -8.22658027e-01     
H    1.91115185e+00      6.17648827e-01      -8.35146235e-01     
H    1.72854329e+00      -1.08292320e+00     -4.05679458e-01     
C    7.67347224e-01      -6.28468429e-01     -2.22518588e+00     
O    -3.93829377e-01     -5.95748480e-01     -2.57178715e+00     
O    1.80950081e+00      -9.50445986e-01     -2.98769499e+00     
H    1.47349875e+00      -1.14207945e+00     -3.88281704e+00     
O    -1.29059416e+00     -2.38277419e+00     -1.89860627e-01     
H    -1.75125664e+00     -2.97922104e+00     4.07084222e-01      
H    -1.72816804e+00     -2.47287480e+00     -1.04185146e+00     
O    1.01187635e+00      1.11585859e+00      2.30765764e+00      
H    1.38684035e+00      6.44013133e-01      3.05559764e+00      
H    8.53985612e-01      2.00829703e+00      2.62610442e+00      
17
3205.180959
N    1.68601895e-02      4.56631742e-03      -1.72912369e-02     
H    -5.51617815e-01     -8.65323670e-01     7.43512892e-02      
H    -5.74376419e-01     6.71897926e-01      -5.12350615e-01     
H    2.90935884e-01      3.95006688e-01      9.13227044e-01      
C    1.22337310e+00      -2.92396768e-01     -8.23306247e-01     
H    1.90121674e+00      6.04660084e-01      -8.35216028e-01     
H    1.73767565e+00      -1.09718415e+00     -3.97881742e-01     
C    7.67345977e-01      -6.28456273e-01     -2.22519232e+00     
O    -3.93825940e-01     -5.95743965e-01     -2.57178641e+00     
O    1.80950104e+00      -9.50445611e-01     -2.98769446e+00     
H    1.47349326e+00      -1.14208148e+00     -3.88282731e+00     
O    -1.29059070e+00     -2.38277293e+00     -1.89862083e-01     
H    -1.75126379e+00     -2.97921318e+00     4.07044453e-01      
H    -1.72819155e+00     -2.47289707e+00     -1.04182070e+00     
O    1.01187658e+00      1.11585711e+00      2.30766078e+00      
H    1.38683460e+00      6.44015940e-01      3.05556583e+00      
H    8.53973055e-01      2.00829646e+00      2.62607126e+00      
17
3205.180959
N    1.69060518e-02      4.61464503e-03      -1.72438327e-02     
H    -5.52075097e-01     -8.65863636e-01     7.45039859e-02      
H    -5.74386138e-01     6.71956776e-01      -5.12457804e-01     
H    2.90768438e-01      3.94715225e-01      9.12575139e-01      
C    1.22340460e+00      -2.91252577e-01     -8.23630357e-01     
H    1.89624919e+00      5.98165712e-01      -8.35250924e-01     
H    1.74224183e+00      -1.10431463e+00     -3.93982884e-01     
C    7.67345353e-01      -6.28450195e-01     -2.22519554e+00     
O    -3.93824222e-01     -5.95741708e-01     -2.57178605e+00     
O    1.80950115e+00      -9.50445423e-01     -2.98769420e+00     
H    1.47349052e+00      -1.14208250e+00     -3.88283245e+00     
O    -1.29058897e+00     -2.38277231e+00     -1.89862811e-01     
H    -1.75126736e+00     -2.97920924e+00     4.07024569e-01      
H    -1.72820330e+00     -2.47290820e+00     -1.04180531e+00     
O    1.01187669e+00      1.11585637e+00      2.30766235e+00      
H    1.38683173e+00      6.44017344e-01      3.05554992e+00      
H    8.53966776e-01      2.00829617e+00      2.62605467e+00      
17
3205.180959
N    1.69519141e-02      4.66297263e-03      -1.71964286e-02     
H    -5.52532378e-01     -8.66403601e-01     7.46566826e-02      
H    -5.74395856e-01     6.72015625e-01      -5.12564994e-01     
H    2.90600992e-01      3.94423763e-01      9.11923233e-01      
C    1.22343609e+00      -2.90108385e-01     -8.23954467e-01     
H    1.89128164e+00      5.91671340e-01      -8.35285820e-01     
H    1.74680802e+00      -1.11144511e+00     -3.90084027e-01     
C    7.67344729e-01      -6.28444117e-01     -2.22519877e+00     
O    -3.93822503e-01     -5.95739451e-01     -2.57178568e+00     
O    1.80950126e+00      -9.50445236e-01     -2.98769394e+00     
H    1.47348777e+00      -1.14208352e+00     -3.88283758e+00     
O    -1.29058725e+00     -2.38277168e+00     -1.89863539e-01     
H    -1.75127093e+00     -2.97920531e+00     4.07004685e-01      
H    -1.72821506e+00     -2.47291933e+00     -1.04178993e+00     
O    1.01187680e+00      1.11585563e+00      2.30766392e+00      
H    1.38682885e+00      6.44018748e-01      3.05553401e+00      
H    8.53960497e-01      2.00829588e+00      2.62603809e+00      
17
3205.180959
N    1.71353635e-02      4.85628305e-03      -1.70068120e-02     
H    -5.54361506e-01     -8.68563465e-01     7.52674694e-02      
H    -5.74434730e-01     6.72251023e-01      -5.12993752e-01     
H    2.89931206e-01      3.93257915e-01      9.09315611e-01      
C    1.22356205e+00      -2.85531619e-01     -8.25250907e-01     
H    1.87141142e+00      5.65693854e-01      -8.35425404e-01     
H    1.76507274e+00      -1.13996703e+00     -3.74488595e-01     
C    7.67342233e-01      -6.28419805e-01     -2.22521165e+00     
O    -3.93815629e-01     -5.95730421e-01     -2.57178420e+00     
O    1.80950172e+00      -9.50444486e-01     -2.98769288e+00     
H    1.47347679e+00      -1.14208758e+00     -3.88285812e+00     
O    -1.29058033e+00     -2.38276918e+00     -1.89866451e-01     
H    -1.75128523e+00     -2.97918957e+00     4.06925147e-01      
H    -1.72826208e+00     -2.47296387e+00     -1.04172841e+00     
O    1.01187726e+00      1.11585267e+00      2.30767020e+00      
H    1.38681735e+00      6.44024362e-01      3.05547039e+00      
H    8.53935383e-01      2.00829474e+00      2.62597177e+00      
17
3205.180959
N    1.71812258e-02      4.90461065e-03      -1.69594079e-02     
H    -5.54818787e-01     -8.69103430e-01     7.54201661e-02      
H    -5.74444448e-01     6.72309872e-01      -5.13100942e-01     
H    2.89763760e-01      3.92966453e-01      9.08663705e-01      
C    1.22359354e+00      -2.84387427e-01     -8.25575017e-01     
H    1.86644387e+00      5.59199482e-01      -8.35460300e-01     
H    1.76963893e+00      -1.14709751e+00     -3.70589738e-01     
C    7.67341609e-01      -6.28413727e-01     -2.22521488e+00     
O    -3.93813910e-01     -5.95728164e-01     -2.57178383e+00     
O    1.80950183e+00      -9.50444299e-01     -2.98769262e+00     
H    1.47347404e+00      -1.14208860e+00     -3.88286325e+00     
O    -1.29057861e+00     -2.38276855e+00     -1.89867179e-01     
H    -1.75128880e+00     -2.97918564e+00     4.06905263e-01      
H    -1.72827384e+00     -2.47297500e+00     -1.04171303e+00     
O    1.01187737e+00      1.11585193e+00      2.30767177e+00      
H    1.38681447e+00      6.44025766e-01      3.05545448e+00      
H    8.53929104e-01      2.00829445e+00      2.62595519e+00      
17
3205.180959
N    1.72270881e-02      4.95293826e-03      -1.69120037e-02     
H    -5.55276069e-01     -8.69643396e-01     7.55728628e-02      
H    -5.74454167e-01     6.72368722e-01      -5.13208131e-01     
H    2.89596314e-01      3.92674990e-01      9.08011800e-01      
C    1.22362504e+00      -2.83243236e-01     -8.25899127e-01     
H    1.86147632e+00      5.52705110e-01      -8.35495196e-01     
H    1.77420511e+00      -1.15422799e+00     -3.66690880e-01     
C    7.67340985e-01      -6.28407649e-01     -2.22521810e+00     
O    -3.93812192e-01     -5.95725907e-01     -2.57178347e+00     
O    1.80950194e+00      -9.50444111e-01     -2.98769236e+00     
H    1.47347130e+00      -1.14208962e+00     -3.88286839e+00     
O    -1.29057688e+00     -2.38276793e+00     -1.89867907e-01     
H    -1.75129237e+00     -2.97918170e+00     4.06885379e-01      
H    -1.72828559e+00     -2.47298613e+00     -1.04169764e+00     
O    1.01187748e+00      1.11585119e+00      2.30767334e+00      
H    1.38681160e+00      6.44027170e-01      3.05543857e+00      
H    8.53922825e-01      2.00829416e+00      2.62593860e+00      
17
3205.180959
N    1.73188128e-02      5.04959347e-03      -1.68171955e-02     
H    -5.56190633e-01     -8.70723328e-01     7.58782561e-02      
H    -5.74473604e-01     6.72486421e-01      -5.13422510e-01     
H    2.89261421e-01      3.92092066e-01      9.06707989e-01      
C    1.22368802e+00      -2.80954852e-01     -8.26547347e-01     
H    1.85154121e+00      5.39716367e-01      -8.35564989e-01     
H    1.78333747e+00      -1.16848894e+00     -3.58893164e-01     
C    7.67339738e-01      -6.28395493e-01     -2.22522454e+00     
O    -3.93808755e-01     -5.95721392e-01     -2.57178273e+00     
O    1.80950217e+00      -9.50443736e-01     -2.98769183e+00     
H    1.47346581e+00      -1.14209165e+00     -3.88287866e+00     
O    -1.29057342e+00     -2.38276667e+00     -1.89869363e-01     
H    -1.75129952e+00     -2.97917384e+00     4.06845610e-01      
H    -1.72830910e+00     -2.47300840e+00     -1.04166688e+00     
O    1.01187771e+00      1.11584971e+00      2.30767648e+00      
H    1.38680585e+00      6.44029977e-01      3.05540676e+00      
H    8.53910268e-01      2.00829359e+00      2.62590544e+00      
17
3205.180959
N    1.74105374e-02      5.14624868e-03      -1.67223872e-02     
H    -5.57105196e-01     -8.71803259e-01     7.61836495e-02      
H    -5.74493041e-01     6.72604120e-01      -5.13636889e-01     
H    2.88926529e-01      3.91509142e-01      9.05404178e-01      
C    1.22375100e+00      -2.78666469e-01     -8.27195567e-01     
H    1.84160611e+00      5.26727623e-01      -8.35634781e-01     
H    1.79246983e+00      -1.18274990e+00     -3.51095449e-01     
C    7.67338490e-01      -6.28383337e-01     -2.22523098e+00     
O    -3.93805318e-01     -5.95716877e-01     -2.57178199e+00     
O    1.80950239e+00      -9.50443361e-01     -2.98769130e+00     
H    1.47346032e+00      -1.14209369e+00     -3.88288893e+00     
O    -1.29056996e+00     -2.38276542e+00     -1.89870819e-01     
H    -1.75130667e+00     -2.97916597e+00     4.06805841e-01      
H    -1.72833261e+00     -2.47303067e+00     -1.04163612e+00     
O    1.01187793e+00      1.11584823e+00      2.30767962e+00      
H    1.38680010e+00      6.44032784e-01      3.05537494e+00      
H    8.53897711e-01      2.00829302e+00      2.62587228e+00      
17
3205.180959
N    1.75022621e-02      5.24290389e-03      -1.66275789e-02     
H    -5.58019760e-01     -8.72883191e-01     7.64890429e-02      
H    -5.74512478e-01     6.72721819e-01      -5.13851268e-01     
H    2.88591636e-01      3.90926218e-01      9.04100367e-01      
C    1.22381399e+00      -2.76378086e-01     -8.27843787e-01     
H    1.83167100e+00      5.13738880e-01      -8.35704573e-01     
H    1.80160220e+00      -1.19701086e+00     -3.43297733e-01     
C    7.67337242e-01      -6.28371181e-01     -2.22523743e+00     
O    -3.93801880e-01     -5.95712363e-01     -2.57178125e+00     
O    1.80950262e+00      -9.50442987e-01     -2.98769078e+00     
H    1.47345482e+00      -1.14209572e+00     -3.88289920e+00     
O    -1.29056651e+00     -2.38276417e+00     -1.89872275e-01     
H    -1.75131382e+00     -2.97915810e+00     4.06766073e-01      
H    -1.72835612e+00     -2.47305293e+00     -1.04160536e+00     
O    1.01187816e+00      1.11584675e+00      2.30768276e+00      
H    1.38679435e+00      6.44035591e-01      3.05534313e+00      
H    8.53885153e-01      2.00829245e+00      2.62583912e+00      
17
3205.180959
N    1.75939867e-02      5.33955910e-03      -1.65327706e-02     
H    -5.58934323e-01     -8.73963122e-01     7.67944363e-02      
H    -5.74531914e-01     6.72839518e-01      -5.14065647e-01     
H    2.88256743e-01      3.90343293e-01      9.02796555e-01      
C    1.22387697e+00      -2.74089703e-01     -8.28492007e-01     
H    1.82173590e+00      5.00750136e-01      -8.35774365e-01     
H    1.81073456e+00      -1.21127182e+00     -3.35500018e-01     
C    7.67335994e-01      -6.28359025e-01     -2.22524387e+00     
O    -3.93798443e-01     -5.95707848e-01     -2.57178052e+00     
O    1.80950285e+00      -9.50442612e-01     -2.98769025e+00     
H    1.47344933e+00      -1.14209776e+00     -3.88290946e+00     
O    -1.29056305e+00     -2.38276292e+00     -1.89873731e-01     
H    -1.75132096e+00     -2.97915023e+00     4.06726304e-01      
H    -1.72837963e+00     -2.47307520e+00     -1.04157459e+00     
O    1.01187838e+00      1.11584527e+00      2.30768590e+00      
H    1.38678860e+00      6.44038399e-01      3.05531132e+00      
H    8.53872596e-01      2.00829187e+00      2.62580595e+00      
17
3205.180959
N    1.77774360e-02      5.53286952e-03      -1.63431540e-02     
H    -5.60763450e-01     -8.76122985e-01     7.74052230e-02      
H    -5.74570788e-01     6.73074916e-01      -5.14494406e-01     
H    2.87586958e-01      3.89177445e-01      9.00188933e-01      
C    1.22400293e+00      -2.69512937e-01     -8.29788447e-01     
H    1.80186569e+00      4.74772649e-01      -8.35913949e-01     
H    1.82899929e+00      -1.23979373e+00     -3.19904586e-01     
C    7.67333499e-01      -6.28334713e-01     -2.22525676e+00     
O    -3.93791569e-01     -5.95698819e-01     -2.57177904e+00     
O    1.80950330e+00      -9.50441862e-01     -2.98768919e+00     
H    1.47343835e+00      -1.14210183e+00     -3.88293000e+00     
O    -1.29055614e+00     -2.38276041e+00     -1.89876643e-01     
H    -1.75133526e+00     -2.97913450e+00     4.06646767e-01      
H    -1.72842665e+00     -2.47311973e+00     -1.04151307e+00     
O    1.01187883e+00      1.11584230e+00      2.30769218e+00      
H    1.38677710e+00      6.44044013e-01      3.05524769e+00      
H    8.53847481e-01      2.00829073e+00      2.62573963e+00      
