17
3810.306941
N    1.69537284e-02      4.69955439e-03      -1.72949067e-02     
H    -5.53055505e-01     -8.66860489e-01     7.48868112e-02      
H    -5.73934945e-01     6.71516622e-01      -5.12402909e-01     
H    2.90831320e-01      3.94956789e-01      9.13661202e-01      
C    1.22351670e+00      -2.87808531e-01     -8.24594889e-01     
H    1.88109141e+00      5.78429650e-01      -8.35297317e-01     
H    1.75577896e+00      -1.12552721e+00     -3.82348463e-01     
C    7.67357965e-01      -6.28425313e-01     -2.22518301e+00     
O    -3.93826130e-01     -5.95735246e-01     -2.57178773e+00     
O    1.80951110e+00      -9.50443014e-01     -2.98768170e+00     
H    1.47333954e+00      -1.14213406e+00     -3.88308926e+00     
O    -1.29018110e+00     -2.38243826e+00     -1.89818353e-01     
H    -1.75494863e+00     -2.98422250e+00     4.12472365e-01      
H    -1.73104634e+00     -2.47329397e+00     -1.04801202e+00     
O    1.01369706e+00      1.11961103e+00      2.31658086e+00      
H    1.33177370e+00      7.19201523e-01      2.95255790e+00      
H    8.80148115e-01      1.87319137e+00      2.58657498e+00      
17
3810.306941
N    1.69762060e-02      4.71457276e-03      -1.72465851e-02     
H    -5.53153364e-01     -8.67016250e-01     7.49056274e-02      
H    -5.74055032e-01     6.71670798e-01      -5.12497025e-01     
H    2.90690015e-01      3.94677801e-01      9.12900757e-01      
C    1.22351229e+00      -2.87811399e-01     -8.24596839e-01     
H    1.88115519e+00      5.78492887e-01      -8.35311891e-01     
H    1.75581931e+00      -1.12557192e+00     -3.82332925e-01     
C    7.67354344e-01      -6.28426975e-01     -2.22518856e+00     
O    -3.93824364e-01     -5.95735168e-01     -2.57178703e+00     
O    1.80950870e+00      -9.50443476e-01     -2.98768463e+00     
H    1.47337523e+00      -1.14212193e+00     -3.88302890e+00     
O    -1.29028177e+00     -2.38252130e+00     -1.89830013e-01     
H    -1.75403099e+00     -2.98296624e+00     4.11095503e-01      
H    -1.73034439e+00     -2.47320588e+00     -1.04644881e+00     
O    1.01324205e+00      1.11867181e+00      2.31435241e+00      
H    1.34553605e+00      7.00406531e-01      2.97829397e+00      
H    8.73598071e-01      1.90696736e+00      2.59643247e+00      
17
3810.306941
N    1.69874448e-02      4.72208194e-03      -1.72224243e-02     
H    -5.53202294e-01     -8.67094130e-01     7.49150355e-02      
H    -5.74115075e-01     6.71747885e-01      -5.12544083e-01     
H    2.90619362e-01      3.94538308e-01      9.12520535e-01      
C    1.22351009e+00      -2.87812833e-01     -8.24597813e-01     
H    1.88118708e+00      5.78524505e-01      -8.35319178e-01     
H    1.75583949e+00      -1.12559428e+00     -3.82325156e-01     
C    7.67352534e-01      -6.28427806e-01     -2.22519133e+00     
O    -3.93823481e-01     -5.95735130e-01     -2.57178668e+00     
O    1.80950750e+00      -9.50443707e-01     -2.98768609e+00     
H    1.47339307e+00      -1.14211587e+00     -3.88299873e+00     
O    -1.29033211e+00     -2.38256282e+00     -1.89835844e-01     
H    -1.75357217e+00     -2.98233810e+00     4.10407072e-01      
H    -1.72999342e+00     -2.47316183e+00     -1.04566720e+00     
O    1.01301455e+00      1.11820220e+00      2.31323819e+00      
H    1.35241722e+00      6.91009035e-01      2.99116201e+00      
H    8.70323049e-01      1.92385535e+00      2.60136121e+00      
17
3810.306941
N    1.69986836e-02      4.72959112e-03      -1.71982635e-02     
H    -5.53251224e-01     -8.67172011e-01     7.49244436e-02      
H    -5.74175119e-01     6.71824973e-01      -5.12591141e-01     
H    2.90548710e-01      3.94398814e-01      9.12140312e-01      
C    1.22350789e+00      -2.87814267e-01     -8.24598788e-01     
H    1.88121897e+00      5.78556124e-01      -8.35326464e-01     
H    1.75585967e+00      -1.12561664e+00     -3.82317387e-01     
C    7.67350723e-01      -6.28428637e-01     -2.22519411e+00     
O    -3.93822598e-01     -5.95735091e-01     -2.57178633e+00     
O    1.80950630e+00      -9.50443937e-01     -2.98768756e+00     
H    1.47341091e+00      -1.14210980e+00     -3.88296855e+00     
O    -1.29038245e+00     -2.38260434e+00     -1.89841674e-01     
H    -1.75311335e+00     -2.98170997e+00     4.09718640e-01      
H    -1.72964245e+00     -2.47311778e+00     -1.04488559e+00     
O    1.01278705e+00      1.11773259e+00      2.31212396e+00      
H    1.35929840e+00      6.81611539e-01      3.00403005e+00      
H    8.67048028e-01      1.94074334e+00      2.60628996e+00      
17
3810.306941
N    1.70099224e-02      4.73710030e-03      -1.71741027e-02     
H    -5.53300153e-01     -8.67249891e-01     7.49338517e-02      
H    -5.74235162e-01     6.71902061e-01      -5.12638199e-01     
H    2.90478057e-01      3.94259320e-01      9.11760090e-01      
C    1.22350568e+00      -2.87815700e-01     -8.24599763e-01     
H    1.88125086e+00      5.78587742e-01      -8.35333751e-01     
H    1.75587985e+00      -1.12563900e+00     -3.82309618e-01     
C    7.67348913e-01      -6.28429468e-01     -2.22519688e+00     
O    -3.93821715e-01     -5.95735052e-01     -2.57178599e+00     
O    1.80950510e+00      -9.50444168e-01     -2.98768902e+00     
H    1.47342875e+00      -1.14210374e+00     -3.88293838e+00     
O    -1.29043278e+00     -2.38264587e+00     -1.89847504e-01     
H    -1.75265454e+00     -2.98108184e+00     4.09030209e-01      
H    -1.72929148e+00     -2.47307374e+00     -1.04410399e+00     
O    1.01255954e+00      1.11726298e+00      2.31100974e+00      
H    1.36617957e+00      6.72214043e-01      3.01689809e+00      
H    8.63773006e-01      1.95763133e+00      2.61121870e+00      
17
3810.306941
N    1.70211612e-02      4.74460948e-03      -1.71499419e-02     
H    -5.53349083e-01     -8.67327772e-01     7.49432598e-02      
H    -5.74295206e-01     6.71979149e-01      -5.12685257e-01     
H    2.90407404e-01      3.94119826e-01      9.11379867e-01      
C    1.22350348e+00      -2.87817134e-01     -8.24600738e-01     
H    1.88128275e+00      5.78619360e-01      -8.35341038e-01     
H    1.75590002e+00      -1.12566135e+00     -3.82301849e-01     
C    7.67347102e-01      -6.28430299e-01     -2.22519966e+00     
O    -3.93820832e-01     -5.95735013e-01     -2.57178564e+00     
O    1.80950389e+00      -9.50444399e-01     -2.98769048e+00     
H    1.47344660e+00      -1.14209768e+00     -3.88290820e+00     
O    -1.29048312e+00     -2.38268739e+00     -1.89853334e-01     
H    -1.75219572e+00     -2.98045371e+00     4.08341778e-01      
H    -1.72894051e+00     -2.47302969e+00     -1.04332238e+00     
O    1.01233204e+00      1.11679337e+00      2.30989551e+00      
H    1.37306075e+00      6.62816547e-01      3.02976612e+00      
H    8.60497984e-01      1.97451933e+00      2.61614744e+00      
17
3810.306941
N    1.70267806e-02      4.74836407e-03      -1.71378615e-02     
H    -5.53373548e-01     -8.67366712e-01     7.49479638e-02      
H    -5.74325228e-01     6.72017692e-01      -5.12708786e-01     
H    2.90372078e-01      3.94050080e-01      9.11189756e-01      
C    1.22350238e+00      -2.87817851e-01     -8.24601225e-01     
H    1.88129869e+00      5.78635169e-01      -8.35344682e-01     
H    1.75591011e+00      -1.12567253e+00     -3.82297964e-01     
C    7.67346197e-01      -6.28430714e-01     -2.22520105e+00     
O    -3.93820391e-01     -5.95734994e-01     -2.57178546e+00     
O    1.80950329e+00      -9.50444515e-01     -2.98769121e+00     
H    1.47345552e+00      -1.14209465e+00     -3.88289311e+00     
O    -1.29050829e+00     -2.38270815e+00     -1.89856250e-01     
H    -1.75196631e+00     -2.98013964e+00     4.07997563e-01      
H    -1.72876503e+00     -2.47300767e+00     -1.04293158e+00     
O    1.01221829e+00      1.11655857e+00      2.30933840e+00      
H    1.37650134e+00      6.58117799e-01      3.03620014e+00      
H    8.58860473e-01      1.98296332e+00      2.61861181e+00      
17
3810.306941
N    1.70324000e-02      4.75211866e-03      -1.71257811e-02     
H    -5.53398012e-01     -8.67405652e-01     7.49526679e-02      
H    -5.74355249e-01     6.72056236e-01      -5.12732315e-01     
H    2.90336752e-01      3.93980333e-01      9.10999645e-01      
C    1.22350127e+00      -2.87818568e-01     -8.24601712e-01     
H    1.88131464e+00      5.78650979e-01      -8.35348325e-01     
H    1.75592020e+00      -1.12568371e+00     -3.82294080e-01     
C    7.67345292e-01      -6.28431130e-01     -2.22520243e+00     
O    -3.93819949e-01     -5.95734975e-01     -2.57178529e+00     
O    1.80950269e+00      -9.50444630e-01     -2.98769195e+00     
H    1.47346444e+00      -1.14209161e+00     -3.88287803e+00     
O    -1.29053345e+00     -2.38272891e+00     -1.89859165e-01     
H    -1.75173690e+00     -2.97982557e+00     4.07653347e-01      
H    -1.72858954e+00     -2.47298565e+00     -1.04254078e+00     
O    1.01210453e+00      1.11632376e+00      2.30878129e+00      
H    1.37994192e+00      6.53419051e-01      3.04263416e+00      
H    8.57222962e-01      1.99140732e+00      2.62107619e+00      
17
3810.306941
N    1.70548776e-02      4.76713702e-03      -1.70774595e-02     
H    -5.53495872e-01     -8.67561414e-01     7.49714841e-02      
H    -5.74475337e-01     6.72210412e-01      -5.12826431e-01     
H    2.90195446e-01      3.93701345e-01      9.10239199e-01      
C    1.22349687e+00      -2.87821436e-01     -8.24603662e-01     
H    1.88137842e+00      5.78714215e-01      -8.35362899e-01     
H    1.75596056e+00      -1.12572843e+00     -3.82278542e-01     
C    7.67341670e-01      -6.28432792e-01     -2.22520799e+00     
O    -3.93818183e-01     -5.95734897e-01     -2.57178459e+00     
O    1.80950029e+00      -9.50445092e-01     -2.98769487e+00     
H    1.47350012e+00      -1.14207949e+00     -3.88281767e+00     
O    -1.29063413e+00     -2.38281195e+00     -1.89870825e-01     
H    -1.75081926e+00     -2.97856931e+00     4.06276485e-01      
H    -1.72788760e+00     -2.47289755e+00     -1.04097756e+00     
O    1.01164953e+00      1.11538454e+00      2.30655283e+00      
H    1.39370428e+00      6.34624059e-01      3.06837024e+00      
H    8.50672918e-01      2.02518330e+00      2.63093367e+00      
17
3810.306941
N    1.70604970e-02      4.77089161e-03      -1.70653791e-02     
H    -5.53520336e-01     -8.67600354e-01     7.49761882e-02      
H    -5.74505358e-01     6.72248956e-01      -5.12849960e-01     
H    2.90160120e-01      3.93631598e-01      9.10049088e-01      
C    1.22349576e+00      -2.87822153e-01     -8.24604149e-01     
H    1.88139437e+00      5.78730025e-01      -8.35366542e-01     
H    1.75597065e+00      -1.12573961e+00     -3.82274658e-01     
C    7.67340765e-01      -6.28433208e-01     -2.22520937e+00     
O    -3.93817741e-01     -5.95734878e-01     -2.57178442e+00     
O    1.80949969e+00      -9.50445207e-01     -2.98769561e+00     
H    1.47350904e+00      -1.14207645e+00     -3.88280259e+00     
O    -1.29065929e+00     -2.38283271e+00     -1.89873740e-01     
H    -1.75058985e+00     -2.97825524e+00     4.05932269e-01      
H    -1.72771211e+00     -2.47287553e+00     -1.04058676e+00     
O    1.01153577e+00      1.11514973e+00      2.30599572e+00      
H    1.39714486e+00      6.29925311e-01      3.07480426e+00      
H    8.49035407e-01      2.03362730e+00      2.63339805e+00      
17
3810.306941
N    1.70661164e-02      4.77464620e-03      -1.70532987e-02     
H    -5.53544801e-01     -8.67639294e-01     7.49808922e-02      
H    -5.74535380e-01     6.72287499e-01      -5.12873489e-01     
H    2.90124794e-01      3.93561852e-01      9.09858977e-01      
C    1.22349466e+00      -2.87822870e-01     -8.24604636e-01     
H    1.88141031e+00      5.78745834e-01      -8.35370186e-01     
H    1.75598074e+00      -1.12575079e+00     -3.82270773e-01     
C    7.67339860e-01      -6.28433623e-01     -2.22521076e+00     
O    -3.93817300e-01     -5.95734859e-01     -2.57178424e+00     
O    1.80949909e+00      -9.50445323e-01     -2.98769634e+00     
H    1.47351796e+00      -1.14207342e+00     -3.88278750e+00     
O    -1.29068446e+00     -2.38285347e+00     -1.89876656e-01     
H    -1.75036044e+00     -2.97794117e+00     4.05588054e-01      
H    -1.72753663e+00     -2.47285351e+00     -1.04019596e+00     
O    1.01142202e+00      1.11491493e+00      2.30543861e+00      
H    1.40058545e+00      6.25226563e-01      3.08123828e+00      
H    8.47397896e-01      2.04207129e+00      2.63586242e+00      
17
3810.306941
N    1.70773552e-02      4.78215538e-03      -1.70291379e-02     
H    -5.53593731e-01     -8.67717175e-01     7.49903003e-02      
H    -5.74595424e-01     6.72364587e-01      -5.12920547e-01     
H    2.90054141e-01      3.93422358e-01      9.09478754e-01      
C    1.22349246e+00      -2.87824304e-01     -8.24605611e-01     
H    1.88144220e+00      5.78777452e-01      -8.35377473e-01     
H    1.75600091e+00      -1.12577314e+00     -3.82263004e-01     
C    7.67338049e-01      -6.28434454e-01     -2.22521354e+00     
O    -3.93816417e-01     -5.95734820e-01     -2.57178389e+00     
O    1.80949788e+00      -9.50445554e-01     -2.98769780e+00     
H    1.47353581e+00      -1.14206736e+00     -3.88275732e+00     
O    -1.29073480e+00     -2.38289499e+00     -1.89882486e-01     
H    -1.74990162e+00     -2.97731304e+00     4.04899623e-01      
H    -1.72718566e+00     -2.47280946e+00     -1.03941435e+00     
O    1.01119452e+00      1.11444532e+00      2.30432438e+00      
H    1.40746663e+00      6.15829067e-01      3.09410631e+00      
H    8.44122874e-01      2.05895929e+00      2.64079116e+00      
17
3810.306941
N    1.70885940e-02      4.78966456e-03      -1.70049771e-02     
H    -5.53642660e-01     -8.67795055e-01     7.49997084e-02      
H    -5.74655467e-01     6.72441675e-01      -5.12967605e-01     
H    2.89983488e-01      3.93282864e-01      9.09098532e-01      
C    1.22349025e+00      -2.87825737e-01     -8.24606586e-01     
H    1.88147409e+00      5.78809070e-01      -8.35384760e-01     
H    1.75602109e+00      -1.12579550e+00     -3.82255235e-01     
C    7.67336239e-01      -6.28435285e-01     -2.22521631e+00     
O    -3.93815534e-01     -5.95734781e-01     -2.57178355e+00     
O    1.80949668e+00      -9.50445785e-01     -2.98769926e+00     
H    1.47355365e+00      -1.14206130e+00     -3.88272715e+00     
O    -1.29078513e+00     -2.38293652e+00     -1.89888316e-01     
H    -1.74944281e+00     -2.97668491e+00     4.04211192e-01      
H    -1.72683469e+00     -2.47276542e+00     -1.03863275e+00     
O    1.01096701e+00      1.11397571e+00      2.30321016e+00      
H    1.41434780e+00      6.06431571e-01      3.10697435e+00      
H    8.40847852e-01      2.07584728e+00      2.64571990e+00      
17
3810.306941
N    1.70998328e-02      4.79717374e-03      -1.69808163e-02     
H    -5.53691590e-01     -8.67872936e-01     7.50091165e-02      
H    -5.74715511e-01     6.72518763e-01      -5.13014663e-01     
H    2.89912836e-01      3.93143370e-01      9.08718309e-01      
C    1.22348805e+00      -2.87827171e-01     -8.24607561e-01     
H    1.88150598e+00      5.78840689e-01      -8.35392046e-01     
H    1.75604127e+00      -1.12581786e+00     -3.82247466e-01     
C    7.67334428e-01      -6.28436116e-01     -2.22521909e+00     
O    -3.93814651e-01     -5.95734742e-01     -2.57178320e+00     
O    1.80949548e+00      -9.50446015e-01     -2.98770073e+00     
H    1.47357149e+00      -1.14205523e+00     -3.88269697e+00     
O    -1.29083547e+00     -2.38297804e+00     -1.89894146e-01     
H    -1.74898399e+00     -2.97605678e+00     4.03522760e-01      
H    -1.72648372e+00     -2.47272137e+00     -1.03785114e+00     
O    1.01073951e+00      1.11350610e+00      2.30209593e+00      
H    1.42122898e+00      5.97034075e-01      3.11984239e+00      
H    8.37572831e-01      2.09273527e+00      2.65064865e+00      
17
3810.306941
N    1.71110716e-02      4.80468292e-03      -1.69566555e-02     
H    -5.53740520e-01     -8.67950816e-01     7.50185246e-02      
H    -5.74775554e-01     6.72595850e-01      -5.13061721e-01     
H    2.89842183e-01      3.93003877e-01      9.08338087e-01      
C    1.22348585e+00      -2.87828605e-01     -8.24608535e-01     
H    1.88153787e+00      5.78872307e-01      -8.35399333e-01     
H    1.75606145e+00      -1.12584022e+00     -3.82239697e-01     
C    7.67332618e-01      -6.28436947e-01     -2.22522186e+00     
O    -3.93813768e-01     -5.95734704e-01     -2.57178285e+00     
O    1.80949428e+00      -9.50446246e-01     -2.98770219e+00     
H    1.47358933e+00      -1.14204917e+00     -3.88266680e+00     
O    -1.29088581e+00     -2.38301956e+00     -1.89899977e-01     
H    -1.74852517e+00     -2.97542864e+00     4.02834329e-01      
H    -1.72613275e+00     -2.47267732e+00     -1.03706953e+00     
O    1.01051201e+00      1.11303649e+00      2.30098171e+00      
H    1.42811015e+00      5.87636579e-01      3.13271043e+00      
H    8.34297809e-01      2.10962326e+00      2.65557739e+00      
17
3810.306941
N    1.71335492e-02      4.81970129e-03      -1.69083339e-02     
H    -5.53838379e-01     -8.68106577e-01     7.50373408e-02      
H    -5.74895641e-01     6.72750026e-01      -5.13155837e-01     
H    2.89700878e-01      3.92724889e-01      9.07577642e-01      
C    1.22348144e+00      -2.87831473e-01     -8.24610485e-01     
H    1.88160165e+00      5.78935544e-01      -8.35413907e-01     
H    1.75610180e+00      -1.12588493e+00     -3.82224159e-01     
C    7.67328997e-01      -6.28438609e-01     -2.22522741e+00     
O    -3.93812002e-01     -5.95734626e-01     -2.57178215e+00     
O    1.80949188e+00      -9.50446708e-01     -2.98770512e+00     
H    1.47362502e+00      -1.14203704e+00     -3.88260644e+00     
O    -1.29098648e+00     -2.38310260e+00     -1.89911637e-01     
H    -1.74760753e+00     -2.97417238e+00     4.01457467e-01      
H    -1.72543080e+00     -2.47258923e+00     -1.03550632e+00     
O    1.01005700e+00      1.11209727e+00      2.29875326e+00      
H    1.44187250e+00      5.68841587e-01      3.15844650e+00      
H    8.27747765e-01      2.14339925e+00      2.66543488e+00      
