17
35.611344
N    2.09660365e-02      -1.79132633e-02     -4.18588602e-03     
H    -5.51421560e-01     -8.87183599e-01     9.27168018e-02      
H    -5.67221218e-01     6.45290922e-01      -5.10438982e-01     
H    2.93627168e-01      3.80974954e-01      9.19463841e-01      
C    1.22485668e+00      -3.23195656e-01     -8.11029736e-01     
H    1.90281651e+00      5.28392992e-01      -8.01752047e-01     
H    1.73543405e+00      -1.18328618e+00     -3.84638914e-01     
C    7.64026918e-01      -6.20422664e-01     -2.22069904e+00     
O    -3.93386855e-01     -5.24908793e-01     -2.57452776e+00     
O    1.79557695e+00      -9.79472207e-01     -2.98151399e+00     
H    1.45663368e+00      -1.13684022e+00     -3.88292085e+00     
O    -1.27624200e+00     -2.41082193e+00     -2.06361698e-01     
H    -1.70735338e+00     -3.03022160e+00     3.90496913e-01      
H    -1.74205521e+00     -2.48667742e+00     -1.04520066e+00     
O    1.00774477e+00      1.15137517e+00      2.29527735e+00      
H    1.44897145e+00      7.08613281e-01      3.02822742e+00      
H    7.85922146e-01      2.02944391e+00      2.62225797e+00      
17
35.611344
N    1.99854371e-02      -1.22450405e-02     -7.41481959e-03     
H    -5.51927906e-01     -8.82258583e-01     8.82781203e-02      
H    -5.69019736e-01     6.52001523e-01      -5.11024079e-01     
H    2.92786901e-01      3.84191425e-01      9.17252736e-01      
C    1.22451728e+00      -3.14351742e-01     -8.14422974e-01     
H    1.89744902e+00      5.40965393e-01      -8.10152939e-01     
H    1.74056063e+00      -1.16889115e+00     -3.84050763e-01     
C    7.64856059e-01      -6.22424988e-01     -2.22182558e+00     
O    -3.93494908e-01     -5.42615329e-01     -2.57384206e+00     
O    1.79905808e+00      -9.72215370e-01     -2.98305884e+00     
H    1.46084583e+00      -1.13815155e+00     -3.88290260e+00     
O    -1.27982744e+00     -2.40380905e+00     -2.02237522e-01     
H    -1.71833455e+00     -3.01746556e+00     3.94613914e-01      
H    -1.73860105e+00     -2.48324346e+00     -1.04434029e+00     
O    1.00877783e+00      1.14249492e+00      2.29837478e+00      
H    1.43343436e+00      6.92465349e-01      3.03504612e+00      
H    8.02928595e-01      2.02415676e+00      2.62319471e+00      
17
35.611344
N    1.94951374e-02      -9.41092913e-03     -9.02928638e-03     
H    -5.52181078e-01     -8.79796075e-01     8.60587796e-02      
H    -5.69918996e-01     6.55356823e-01      -5.11316628e-01     
H    2.92366767e-01      3.85799661e-01      9.16147184e-01      
C    1.22434757e+00      -3.09929786e-01     -8.16119593e-01     
H    1.89476527e+00      5.47251594e-01      -8.14353384e-01     
H    1.74312392e+00      -1.16169364e+00     -3.83756688e-01     
C    7.65270629e-01      -6.23426150e-01     -2.22238885e+00     
O    -3.93548934e-01     -5.51468597e-01     -2.57349920e+00     
O    1.80079865e+00      -9.68586952e-01     -2.98383127e+00     
H    1.46295191e+00      -1.13880722e+00     -3.88289348e+00     
O    -1.28162017e+00     -2.40030262e+00     -2.00175435e-01     
H    -1.72382514e+00     -3.01108754e+00     3.96672414e-01      
H    -1.73687397e+00     -2.48152648e+00     -1.04391010e+00     
O    1.00929436e+00      1.13805479e+00      2.29992349e+00      
H    1.42566582e+00      6.84391384e-01      3.03845547e+00      
H    8.11431819e-01      2.02151318e+00      2.62366308e+00      
17
35.611344
N    1.90048377e-02      -6.57681774e-03     -1.06437532e-02     
H    -5.52434251e-01     -8.77333566e-01     8.38394389e-02      
H    -5.70818255e-01     6.58712123e-01      -5.11609177e-01     
H    2.91946634e-01      3.87407896e-01      9.15041631e-01      
C    1.22417787e+00      -3.05507829e-01     -8.17816212e-01     
H    1.89208152e+00      5.53537794e-01      -8.18553830e-01     
H    1.74568721e+00      -1.15449613e+00     -3.83462612e-01     
C    7.65685199e-01      -6.24427312e-01     -2.22295212e+00     
O    -3.93602960e-01     -5.60321865e-01     -2.57315635e+00     
O    1.80253922e+00      -9.64958534e-01     -2.98460370e+00     
H    1.46505798e+00      -1.13946288e+00     -3.88288435e+00     
O    -1.28341289e+00     -2.39679618e+00     -1.98113347e-01     
H    -1.72931573e+00     -3.00470952e+00     3.98730915e-01      
H    -1.73514689e+00     -2.47980951e+00     -1.04347992e+00     
O    1.00981090e+00      1.13361466e+00      2.30147221e+00      
H    1.41789728e+00      6.76317418e-01      3.04186481e+00      
H    8.19935043e-01      2.01886961e+00      2.62413145e+00      
17
35.611344
N    1.85145379e-02      -3.74270634e-03     -1.22582199e-02     
H    -5.52687424e-01     -8.74871058e-01     8.16200982e-02      
H    -5.71717515e-01     6.62067423e-01      -5.11901726e-01     
H    2.91526500e-01      3.89016132e-01      9.13936079e-01      
C    1.22400817e+00      -3.01085872e-01     -8.19512830e-01     
H    1.88939777e+00      5.59823995e-01      -8.22754275e-01     
H    1.74825051e+00      -1.14729861e+00     -3.83168537e-01     
C    7.66099770e-01      -6.25428475e-01     -2.22351540e+00     
O    -3.93656987e-01     -5.69175133e-01     -2.57281350e+00     
O    1.80427979e+00      -9.61330116e-01     -2.98537613e+00     
H    1.46716406e+00      -1.14011855e+00     -3.88287523e+00     
O    -1.28520562e+00     -2.39328974e+00     -1.96051259e-01     
H    -1.73480632e+00     -2.99833150e+00     4.00789415e-01      
H    -1.73341981e+00     -2.47809253e+00     -1.04304973e+00     
O    1.01032743e+00      1.12917453e+00      2.30302092e+00      
H    1.41012873e+00      6.68243452e-01      3.04527416e+00      
H    8.28438267e-01      2.01622603e+00      2.62459982e+00      
17
35.611344
N    1.80242382e-02      -9.08594948e-04     -1.38726867e-02     
H    -5.52940597e-01     -8.72408550e-01     7.94007574e-02      
H    -5.72616774e-01     6.65422724e-01      -5.12194275e-01     
H    2.91106366e-01      3.90624368e-01      9.12830527e-01      
C    1.22383847e+00      -2.96663915e-01     -8.21209449e-01     
H    1.88671403e+00      5.66110196e-01      -8.26954721e-01     
H    1.75081380e+00      -1.14010110e+00     -3.82874462e-01     
C    7.66514340e-01      -6.26429637e-01     -2.22407867e+00     
O    -3.93711013e-01     -5.78028400e-01     -2.57247065e+00     
O    1.80602035e+00      -9.57701697e-01     -2.98614855e+00     
H    1.46927013e+00      -1.14077422e+00     -3.88286610e+00     
O    -1.28699834e+00     -2.38978330e+00     -1.93989171e-01     
H    -1.74029690e+00     -2.99195348e+00     4.02847915e-01      
H    -1.73169273e+00     -2.47637555e+00     -1.04261954e+00     
O    1.01084396e+00      1.12473441e+00      2.30456963e+00      
H    1.40236019e+00      6.60169486e-01      3.04868351e+00      
H    8.36941492e-01      2.01358246e+00      2.62506819e+00      
17
35.611344
N    1.77790884e-02      5.08460749e-04      -1.46799201e-02     
H    -5.53067183e-01     -8.71177295e-01     7.82910871e-02      
H    -5.73066404e-01     6.67100374e-01      -5.12340550e-01     
H    2.90896299e-01      3.91428486e-01      9.12277751e-01      
C    1.22375362e+00      -2.94452937e-01     -8.22057759e-01     
H    1.88537215e+00      5.69253296e-01      -8.29054944e-01     
H    1.75209544e+00      -1.13650234e+00     -3.82727424e-01     
C    7.66721625e-01      -6.26930218e-01     -2.22436030e+00     
O    -3.93738026e-01     -5.82455034e-01     -2.57229922e+00     
O    1.80689064e+00      -9.55887488e-01     -2.98653477e+00     
H    1.47032317e+00      -1.14110205e+00     -3.88286154e+00     
O    -1.28789470e+00     -2.38803009e+00     -1.92958127e-01     
H    -1.74304220e+00     -2.98876447e+00     4.03877165e-01      
H    -1.73082919e+00     -2.47551707e+00     -1.04240445e+00     
O    1.01110223e+00      1.12251434e+00      2.30534399e+00      
H    1.39847592e+00      6.56132504e-01      3.05038818e+00      
H    8.41193104e-01      2.01226067e+00      2.62530238e+00      
17
35.611344
N    1.75339385e-02      1.92551645e-03      -1.54871535e-02     
H    -5.53193769e-01     -8.69946041e-01     7.71814167e-02      
H    -5.73516034e-01     6.68778024e-01      -5.12486824e-01     
H    2.90686233e-01      3.92232603e-01      9.11724974e-01      
C    1.22366877e+00      -2.92241959e-01     -8.22906068e-01     
H    1.88403028e+00      5.72396396e-01      -8.31155166e-01     
H    1.75337709e+00      -1.13290358e+00     -3.82580386e-01     
C    7.66928911e-01      -6.27430799e-01     -2.22464194e+00     
O    -3.93765040e-01     -5.86881668e-01     -2.57212779e+00     
O    1.80776092e+00      -9.54073279e-01     -2.98692098e+00     
H    1.47137621e+00      -1.14142988e+00     -3.88285698e+00     
O    -1.28879107e+00     -2.38627687e+00     -1.91927083e-01     
H    -1.74578749e+00     -2.98557546e+00     4.04906416e-01      
H    -1.72996565e+00     -2.47465858e+00     -1.04218936e+00     
O    1.01136050e+00      1.12029428e+00      2.30611835e+00      
H    1.39459164e+00      6.52095521e-01      3.05209285e+00      
H    8.45444716e-01      2.01093888e+00      2.62553656e+00      
17
35.611344
N    1.65533391e-02      7.59373923e-03      -1.87160871e-02     
H    -5.53700115e-01     -8.65021025e-01     7.27427353e-02      
H    -5.75314552e-01     6.75488624e-01      -5.13071922e-01     
H    2.89845965e-01      3.95449075e-01      9.09513870e-01      
C    1.22332937e+00      -2.83398045e-01     -8.26299306e-01     
H    1.87866278e+00      5.84968798e-01      -8.39556058e-01     
H    1.75850367e+00      -1.11850856e+00     -3.81992236e-01     
C    7.67758051e-01      -6.29433123e-01     -2.22576848e+00     
O    -3.93873092e-01     -6.04588204e-01     -2.57144209e+00     
O    1.81124206e+00      -9.46816443e-01     -2.98846584e+00     
H    1.47558835e+00      -1.14274122e+00     -3.88283872e+00     
O    -1.29237651e+00     -2.37926399e+00     -1.87802907e-01     
H    -1.75676867e+00     -2.97281942e+00     4.09023416e-01      
H    -1.72651149e+00     -2.47122462e+00     -1.04132898e+00     
O    1.01239356e+00      1.11141402e+00      2.30921577e+00      
H    1.37905456e+00      6.35947589e-01      3.05891155e+00      
H    8.62451164e-01      2.00565174e+00      2.62647330e+00      
17
35.611344
N    1.63081892e-02      9.01079493e-03      -1.95233205e-02     
H    -5.53826701e-01     -8.63789771e-01     7.16330649e-02      
H    -5.75764182e-01     6.77166274e-01      -5.13218196e-01     
H    2.89635899e-01      3.96253192e-01      9.08961093e-01      
C    1.22324452e+00      -2.81187067e-01     -8.27147615e-01     
H    1.87732091e+00      5.88111898e-01      -8.41656280e-01     
H    1.75978532e+00      -1.11490980e+00     -3.81845198e-01     
C    7.67965337e-01      -6.29933704e-01     -2.22605012e+00     
O    -3.93900106e-01     -6.09014838e-01     -2.57127066e+00     
O    1.81211234e+00      -9.45002234e-01     -2.98885205e+00     
H    1.47664139e+00      -1.14306905e+00     -3.88283416e+00     
O    -1.29327288e+00     -2.37751077e+00     -1.86771863e-01     
H    -1.75951396e+00     -2.96963041e+00     4.10052667e-01      
H    -1.72564795e+00     -2.47036613e+00     -1.04111389e+00     
O    1.01265183e+00      1.10919396e+00      2.30999013e+00      
H    1.37517028e+00      6.31910606e-01      3.06061622e+00      
H    8.66702776e-01      2.00432995e+00      2.62670748e+00      
17
35.611344
N    1.60630394e-02      1.04278506e-02      -2.03305539e-02     
H    -5.53953287e-01     -8.62558516e-01     7.05233946e-02      
H    -5.76213812e-01     6.78843924e-01      -5.13364471e-01     
H    2.89425832e-01      3.97057310e-01      9.08408317e-01      
C    1.22315967e+00      -2.78976089e-01     -8.27995925e-01     
H    1.87597903e+00      5.91254998e-01      -8.43756503e-01     
H    1.76106696e+00      -1.11131104e+00     -3.81698160e-01     
C    7.68172622e-01      -6.30434285e-01     -2.22633175e+00     
O    -3.93927119e-01     -6.13441472e-01     -2.57109923e+00     
O    1.81298263e+00      -9.43188025e-01     -2.98923827e+00     
H    1.47769443e+00      -1.14339688e+00     -3.88282960e+00     
O    -1.29416924e+00     -2.37575756e+00     -1.85740819e-01     
H    -1.76225926e+00     -2.96644140e+00     4.11081917e-01      
H    -1.72478441e+00     -2.46950765e+00     -1.04089880e+00     
O    1.01291010e+00      1.10697389e+00      2.31076449e+00      
H    1.37128601e+00      6.27873624e-01      3.06232089e+00      
H    8.70954388e-01      2.00300816e+00      2.62694167e+00      
17
35.611344
N    1.55727397e-02      1.32619620e-02      -2.19450207e-02     
H    -5.54206460e-01     -8.60096008e-01     6.83040538e-02      
H    -5.77113071e-01     6.82199225e-01      -5.13657020e-01     
H    2.89005698e-01      3.98665546e-01      9.07302765e-01      
C    1.22298997e+00      -2.74554132e-01     -8.29692544e-01     
H    1.87329529e+00      5.97541199e-01      -8.47956949e-01     
H    1.76363025e+00      -1.10411353e+00     -3.81404085e-01     
C    7.68587192e-01      -6.31435447e-01     -2.22689502e+00     
O    -3.93981145e-01     -6.22294739e-01     -2.57075638e+00     
O    1.81472319e+00      -9.39559606e-01     -2.99001069e+00     
H    1.47980050e+00      -1.14405255e+00     -3.88282047e+00     
O    -1.29596196e+00     -2.37225112e+00     -1.83678731e-01     
H    -1.76774984e+00     -2.96006338e+00     4.13140417e-01      
H    -1.72305733e+00     -2.46779067e+00     -1.04046861e+00     
O    1.01342663e+00      1.10253377e+00      2.31231320e+00      
H    1.36351747e+00      6.19799658e-01      3.06573024e+00      
H    8.79457613e-01      2.00036459e+00      2.62741004e+00      
17
35.611344
N    1.50824399e-02      1.60960734e-02      -2.35594874e-02     
H    -5.54459633e-01     -8.57633500e-01     6.60847131e-02      
H    -5.78012331e-01     6.85554525e-01      -5.13949569e-01     
H    2.88585564e-01      4.00273782e-01      9.06197213e-01      
C    1.22282027e+00      -2.70132175e-01     -8.31389162e-01     
H    1.87061154e+00      6.03827400e-01      -8.52157394e-01     
H    1.76619355e+00      -1.09691601e+00     -3.81110010e-01     
C    7.69001763e-01      -6.32436610e-01     -2.22745830e+00     
O    -3.94035172e-01     -6.31148007e-01     -2.57041353e+00     
O    1.81646376e+00      -9.35931188e-01     -2.99078312e+00     
H    1.48190658e+00      -1.14470822e+00     -3.88281135e+00     
O    -1.29775469e+00     -2.36874468e+00     -1.81616643e-01     
H    -1.77324043e+00     -2.95368536e+00     4.15198917e-01      
H    -1.72133025e+00     -2.46607369e+00     -1.04003842e+00     
O    1.01394316e+00      1.09809364e+00      2.31386191e+00      
H    1.35574892e+00      6.11725692e-01      3.06913959e+00      
H    8.87960837e-01      1.99772101e+00      2.62787841e+00      
17
35.611344
N    1.45921402e-02      1.89301848e-02      -2.51739542e-02     
H    -5.54712806e-01     -8.55170991e-01     6.38653724e-02      
H    -5.78911590e-01     6.88909825e-01      -5.14242118e-01     
H    2.88165431e-01      4.01882017e-01      9.05091660e-01      
C    1.22265057e+00      -2.65710218e-01     -8.33085781e-01     
H    1.86792779e+00      6.10113600e-01      -8.56357840e-01     
H    1.76875684e+00      -1.08971850e+00     -3.80815934e-01     
C    7.69416333e-01      -6.33437772e-01     -2.22802157e+00     
O    -3.94089198e-01     -6.40001275e-01     -2.57007068e+00     
O    1.81820433e+00      -9.32302770e-01     -2.99155555e+00     
H    1.48401265e+00      -1.14536388e+00     -3.88280222e+00     
O    -1.29954741e+00     -2.36523824e+00     -1.79554555e-01     
H    -1.77873102e+00     -2.94730734e+00     4.17257418e-01      
H    -1.71960317e+00     -2.46435672e+00     -1.03960824e+00     
O    1.01445970e+00      1.09365351e+00      2.31541063e+00      
H    1.34798038e+00      6.03651726e-01      3.07254893e+00      
H    8.96464061e-01      1.99507744e+00      2.62834678e+00      
17
35.611344
N    1.41018405e-02      2.17642962e-02      -2.67884210e-02     
H    -5.54965978e-01     -8.52708483e-01     6.16460317e-02      
H    -5.79810850e-01     6.92265125e-01      -5.14534667e-01     
H    2.87745297e-01      4.03490253e-01      9.03986108e-01      
C    1.22248086e+00      -2.61288262e-01     -8.34782400e-01     
H    1.86524404e+00      6.16399801e-01      -8.60558285e-01     
H    1.77132013e+00      -1.08252099e+00     -3.80521859e-01     
C    7.69830903e-01      -6.34438934e-01     -2.22858484e+00     
O    -3.94143224e-01     -6.48854543e-01     -2.56972782e+00     
O    1.81994490e+00      -9.28674352e-01     -2.99232798e+00     
H    1.48611873e+00      -1.14601955e+00     -3.88279310e+00     
O    -1.30134014e+00     -2.36173181e+00     -1.77492468e-01     
H    -1.78422161e+00     -2.94092932e+00     4.19315918e-01      
H    -1.71787609e+00     -2.46263974e+00     -1.03917805e+00     
O    1.01497623e+00      1.08921338e+00      2.31695934e+00      
H    1.34021184e+00      5.95577761e-01      3.07595828e+00      
H    9.04967285e-01      1.99243386e+00      2.62881515e+00      
17
35.611344
N    1.31212411e-02      2.74325190e-02      -3.00173546e-02     
H    -5.55472324e-01     -8.47783467e-01     5.72073502e-02      
H    -5.81609368e-01     6.98975726e-01      -5.15119764e-01     
H    2.86905030e-01      4.06706724e-01      9.01775003e-01      
C    1.22214146e+00      -2.52444348e-01     -8.38175638e-01     
H    1.85987655e+00      6.28972202e-01      -8.68959177e-01     
H    1.77644671e+00      -1.06812596e+00     -3.79933708e-01     
C    7.70660044e-01      -6.36441258e-01     -2.22971138e+00     
O    -3.94251277e-01     -6.66561079e-01     -2.56904212e+00     
O    1.82342603e+00      -9.21417515e-01     -2.99387283e+00     
H    1.49033088e+00      -1.14733088e+00     -3.88277485e+00     
O    -1.30492558e+00     -2.35471893e+00     -1.73368292e-01     
H    -1.79520278e+00     -2.92817328e+00     4.23432919e-01      
H    -1.71442193e+00     -2.45920578e+00     -1.03831768e+00     
O    1.01600929e+00      1.08033313e+00      2.32005677e+00      
H    1.32467475e+00      5.79429829e-01      3.08277698e+00      
H    9.21973734e-01      1.98714671e+00      2.62975189e+00      
