11
4.92430127e+00
N    -2.42031980e-03     -1.89526267e-05     6.82948855e-03      
H    5.06178771e-01      8.20473867e-01      3.44704613e-01      
H    9.18661832e-03      -2.27007374e-05     -1.01325384e+00     
H    5.06505317e-01      -8.20305051e-01     3.44715329e-01      
C    -1.39962578e+00     -2.96077331e-04     5.47259981e-01      
H    -1.91644149e+00     8.85044604e-01      1.81996011e-01      
H    -1.91609940e+00     -8.85825301e-01     1.81969299e-01      
C    -1.39225427e+00     -3.18886404e-04     2.06537907e+00      
O    -2.39210093e+00     -5.01850296e-04     2.72259114e+00      
O    -1.18341402e-01     -1.09005531e-04     2.52400401e+00      
H    -1.55621123e-01     -1.29646552e-04     3.49902990e+00      
