14
444.141629
N    -4.65607467e-02     1.87245977e-01      7.00512357e-02      
H    4.03563765e-01      1.32514031e-01      -8.77808769e-01     
H    -6.09521080e-01     1.03337379e+00      1.68498591e-01      
H    -6.51713329e-01     -6.39463791e-01     1.18879889e-01      
C    1.00134402e+00      8.31903163e-02      1.11142761e+00      
H    1.77788024e+00      8.20082278e-01      9.22268778e-01      
H    5.75067481e-01      2.57261466e-01      2.09785235e+00      
C    1.55458417e+00      -1.32170480e+00     1.02410796e+00      
O    1.12790868e+00      -2.16878846e+00     2.70167405e-01      
O    2.53269077e+00      -1.44392847e+00     1.91276339e+00      
H    2.87001216e+00      -2.35906092e+00     1.88190976e+00      
O    1.35850692e+00      -2.60000293e-01     -2.20648485e+00     
H    1.37685075e+00      2.59873153e-01      -3.02248846e+00     
H    1.63757290e+00      -1.15507201e+00     -2.44952216e+00     
14
444.141629
N    -4.89471123e-02     1.85459201e-01      6.69775010e-02      
H    3.99738582e-01      1.20676986e-01      -8.80696841e-01     
H    -5.98832229e-01     1.03990240e+00      1.56195419e-01      
H    -6.66560677e-01     -6.29410311e-01     1.25274452e-01      
C    9.99083143e-01      8.36654780e-02      1.11050082e+00      
H    1.77443359e+00      8.20983790e-01      9.18242784e-01      
H    5.71125933e-01      2.62164196e-01      2.09528887e+00      
C    1.55556872e+00      -1.32090743e+00     1.02767221e+00      
O    1.12893330e+00      -2.16650260e+00     2.72148562e-01      
O    2.53607280e+00      -1.44844015e+00     1.91327711e+00      
H    2.87020656e+00      -2.36435768e+00     1.87593511e+00      
O    1.35839602e+00      -2.56205866e-01     -2.20752476e+00     
H    1.39289271e+00      2.43770408e-01      -3.03221572e+00     
H    1.61688575e+00      -1.15944251e+00     -2.43022148e+00     
14
444.141629
N    -5.01402952e-02     1.84565813e-01      6.54406337e-02      
H    3.97825990e-01      1.14758464e-01      -8.82140878e-01     
H    -5.93487803e-01     1.04316670e+00      1.50043833e-01      
H    -6.73984351e-01     -6.24383570e-01     1.28471734e-01      
C    9.97952705e-01      8.39030589e-02      1.11003743e+00      
H    1.77271027e+00      8.21434547e-01      9.16229787e-01      
H    5.69155159e-01      2.64615560e-01      2.09400713e+00      
C    1.55606099e+00      -1.32050874e+00     1.02945433e+00      
O    1.12944561e+00      -2.16535967e+00     2.73139140e-01      
O    2.53776382e+00      -1.45069600e+00     1.91353397e+00      
H    2.87030376e+00      -2.36700606e+00     1.87294779e+00      
O    1.35834058e+00      -2.54308652e-01     -2.20804472e+00     
H    1.40091369e+00      2.35719035e-01      -3.03707935e+00     
H    1.60654217e+00      -1.16162775e+00     -2.42057114e+00     
14
444.141629
N    -5.13334780e-02     1.83672425e-01      6.39037663e-02      
H    3.95913398e-01      1.08839942e-01      -8.83584914e-01     
H    -5.88143378e-01     1.04643101e+00      1.43892247e-01      
H    -6.81408026e-01     -6.19356830e-01     1.31669016e-01      
C    9.96822268e-01      8.41406397e-02      1.10957403e+00      
H    1.77098695e+00      8.21885303e-01      9.14216790e-01      
H    5.67184385e-01      2.67066925e-01      2.09272538e+00      
C    1.55655326e+00      -1.32011005e+00     1.03123645e+00      
O    1.12995791e+00      -2.16421673e+00     2.74129719e-01      
O    2.53945484e+00      -1.45295184e+00     1.91379083e+00      
H    2.87040096e+00      -2.36965444e+00     1.86996047e+00      
O    1.35828513e+00      -2.52411438e-01     -2.20856468e+00     
H    1.40893467e+00      2.27667662e-01      -3.04194298e+00     
H    1.59619859e+00      -1.16381300e+00     -2.41092080e+00     
14
444.141629
N    -5.25266608e-02     1.82779037e-01      6.23668990e-02      
H    3.94000806e-01      1.02921420e-01      -8.85028950e-01     
H    -5.82798952e-01     1.04969531e+00      1.37740661e-01      
H    -6.88831700e-01     -6.14330090e-01     1.34866298e-01      
C    9.95691831e-01      8.43782206e-02      1.10911064e+00      
H    1.76926362e+00      8.22336059e-01      9.12203794e-01      
H    5.65213611e-01      2.69518290e-01      2.09144364e+00      
C    1.55704553e+00      -1.31971136e+00     1.03301857e+00      
O    1.13047022e+00      -2.16307380e+00     2.75120297e-01      
O    2.54114585e+00      -1.45520768e+00     1.91404769e+00      
H    2.87049816e+00      -2.37230282e+00     1.86697314e+00      
O    1.35822968e+00      -2.50514225e-01     -2.20908464e+00     
H    1.41695565e+00      2.19616289e-01      -3.04680661e+00     
H    1.58585501e+00      -1.16599825e+00     -2.40127045e+00     
14
444.141629
N    -5.37198436e-02     1.81885649e-01      6.08300316e-02      
H    3.92088215e-01      9.70028980e-02      -8.86472986e-01     
H    -5.77454526e-01     1.05295962e+00      1.31589075e-01      
H    -6.96255374e-01     -6.09303350e-01     1.38063579e-01      
C    9.94561394e-01      8.46158014e-02      1.10864724e+00      
H    1.76754030e+00      8.22786815e-01      9.10190797e-01      
H    5.63242837e-01      2.71969655e-01      2.09016190e+00      
C    1.55753780e+00      -1.31931267e+00     1.03480070e+00      
O    1.13098253e+00      -2.16193087e+00     2.76110876e-01      
O    2.54283687e+00      -1.45746352e+00     1.91430455e+00      
H    2.87059536e+00      -2.37495120e+00     1.86398582e+00      
O    1.35817423e+00      -2.48617011e-01     -2.20960460e+00     
H    1.42497663e+00      2.11564917e-01      -3.05167024e+00     
H    1.57551143e+00      -1.16818350e+00     -2.39162011e+00     
14
444.141629
N    -5.43164350e-02     1.81438955e-01      6.00615979e-02      
H    3.91131919e-01      9.40436369e-02      -8.87195005e-01     
H    -5.74782313e-01     1.05459177e+00      1.28513282e-01      
H    -6.99967211e-01     -6.06789979e-01     1.39662220e-01      
C    9.93996175e-01      8.47345918e-02      1.10841554e+00      
H    1.76667864e+00      8.23012194e-01      9.09184298e-01      
H    5.62257450e-01      2.73195338e-01      2.08952102e+00      
C    1.55778393e+00      -1.31911332e+00     1.03569176e+00      
O    1.13123869e+00      -2.16135941e+00     2.76606165e-01      
O    2.54368238e+00      -1.45859145e+00     1.91443298e+00      
H    2.87064396e+00      -2.37627539e+00     1.86249216e+00      
O    1.35814651e+00      -2.47668404e-01     -2.20986458e+00     
H    1.42898712e+00      2.07539230e-01      -3.05410205e+00     
H    1.57033964e+00      -1.16927612e+00     -2.38679494e+00     
14
444.141629
N    -5.49130264e-02     1.80992261e-01      5.92931643e-02      
H    3.90175623e-01      9.10843758e-02      -8.87917023e-01     
H    -5.72110101e-01     1.05622392e+00      1.25437489e-01      
H    -7.03679048e-01     -6.04276609e-01     1.41260861e-01      
C    9.93430956e-01      8.48533823e-02      1.10818385e+00      
H    1.76581697e+00      8.23237572e-01      9.08177800e-01      
H    5.61272063e-01      2.74421020e-01      2.08888015e+00      
C    1.55803007e+00      -1.31891398e+00     1.03658282e+00      
O    1.13149484e+00      -2.16078794e+00     2.77101454e-01      
O    2.54452788e+00      -1.45971937e+00     1.91456141e+00      
H    2.87069256e+00      -2.37759958e+00     1.86099849e+00      
O    1.35811879e+00      -2.46719798e-01     -2.21012456e+00     
H    1.43299761e+00      2.03513544e-01      -3.05653387e+00     
H    1.56516785e+00      -1.17036874e+00     -2.38196977e+00     
14
444.141629
N    -5.72993920e-02     1.79205485e-01      5.62194295e-02      
H    3.86350439e-01      7.92473316e-02      -8.90805095e-01     
H    -5.61421249e-01     1.06275254e+00      1.13134317e-01      
H    -7.18526396e-01     -5.94223129e-01     1.47655425e-01      
C    9.91170082e-01      8.53285439e-02      1.10725705e+00      
H    1.76237033e+00      8.24139084e-01      9.04151806e-01      
H    5.57330515e-01      2.79323750e-01      2.08631667e+00      
C    1.55901461e+00      -1.31811660e+00     1.04014706e+00      
O    1.13251946e+00      -2.15850208e+00     2.79082612e-01      
O    2.54790992e+00      -1.46423105e+00     1.91507513e+00      
H    2.87088696e+00      -2.38289634e+00     1.85502385e+00      
O    1.35800789e+00      -2.42925370e-01     -2.21116448e+00     
H    1.44903957e+00      1.87410798e-01      -3.06626113e+00     
H    1.54448069e+00      -1.17473924e+00     -2.36266909e+00     
14
444.141629
N    -5.78959834e-02     1.78758791e-01      5.54509959e-02      
H    3.85394143e-01      7.62880705e-02      -8.91527113e-01     
H    -5.58749037e-01     1.06438469e+00      1.10058524e-01      
H    -7.22238233e-01     -5.91709759e-01     1.49254066e-01      
C    9.90604863e-01      8.54473344e-02      1.10702536e+00      
H    1.76150866e+00      8.24364462e-01      9.03145308e-01      
H    5.56345128e-01      2.80549432e-01      2.08567580e+00      
C    1.55926075e+00      -1.31791726e+00     1.04103812e+00      
O    1.13277561e+00      -2.15793061e+00     2.79577901e-01      
O    2.54875542e+00      -1.46535897e+00     1.91520356e+00      
H    2.87093556e+00      -2.38422053e+00     1.85353018e+00      
O    1.35798017e+00      -2.41976764e-01     -2.21142446e+00     
H    1.45305006e+00      1.83385112e-01      -3.06869295e+00     
H    1.53930890e+00      -1.17583186e+00     -2.35784392e+00     
14
444.141629
N    -5.84925748e-02     1.78312097e-01      5.46825622e-02      
H    3.84437847e-01      7.33288094e-02      -8.92249132e-01     
H    -5.56076824e-01     1.06601684e+00      1.06982731e-01      
H    -7.25950070e-01     -5.89196388e-01     1.50852707e-01      
C    9.90039644e-01      8.55661248e-02      1.10679366e+00      
H    1.76064700e+00      8.24589841e-01      9.02138809e-01      
H    5.55359741e-01      2.81775115e-01      2.08503492e+00      
C    1.55950688e+00      -1.31771791e+00     1.04192918e+00      
O    1.13303177e+00      -2.15735915e+00     2.80073190e-01      
O    2.54960093e+00      -1.46648690e+00     1.91533199e+00      
H    2.87098416e+00      -2.38554472e+00     1.85203652e+00      
O    1.35795245e+00      -2.41028157e-01     -2.21168444e+00     
H    1.45706055e+00      1.79359425e-01      -3.07112476e+00     
H    1.53413711e+00      -1.17692448e+00     -2.35301875e+00     
14
444.141629
N    -5.96857576e-02     1.77418709e-01      5.31456948e-02      
H    3.82525256e-01      6.74102873e-02      -8.93693168e-01     
H    -5.50732398e-01     1.06928115e+00      1.00831145e-01      
H    -7.33373744e-01     -5.84169648e-01     1.54049988e-01      
C    9.88909207e-01      8.58037056e-02      1.10633026e+00      
H    1.75892368e+00      8.25040597e-01      9.00125812e-01      
H    5.53388967e-01      2.84226480e-01      2.08375318e+00      
C    1.55999915e+00      -1.31731922e+00     1.04371131e+00      
O    1.13354408e+00      -2.15621622e+00     2.81063769e-01      
O    2.55129195e+00      -1.46874274e+00     1.91558885e+00      
H    2.87108136e+00      -2.38819310e+00     1.84904920e+00      
O    1.35789700e+00      -2.39130943e-01     -2.21220440e+00     
H    1.46508153e+00      1.71308053e-01      -3.07598839e+00     
H    1.52379353e+00      -1.17910973e+00     -2.34336841e+00     
14
444.141629
N    -6.08789404e-02     1.76525321e-01      5.16088275e-02      
H    3.80612664e-01      6.14917652e-02      -8.95137204e-01     
H    -5.45387972e-01     1.07254545e+00      9.46795592e-02      
H    -7.40797418e-01     -5.79142908e-01     1.57247270e-01      
C    9.87778770e-01      8.60412865e-02      1.10586687e+00      
H    1.75720035e+00      8.25491353e-01      8.98112816e-01      
H    5.51418193e-01      2.86677845e-01      2.08247144e+00      
C    1.56049142e+00      -1.31692053e+00     1.04549343e+00      
O    1.13405639e+00      -2.15507329e+00     2.82054347e-01      
O    2.55298296e+00      -1.47099858e+00     1.91584571e+00      
H    2.87117856e+00      -2.39084148e+00     1.84606187e+00      
O    1.35784155e+00      -2.37233730e-01     -2.21272436e+00     
H    1.47310251e+00      1.63256680e-01      -3.08085202e+00     
H    1.51344995e+00      -1.18129498e+00     -2.33371806e+00     
14
444.141629
N    -6.20721232e-02     1.75631933e-01      5.00719601e-02      
H    3.78700072e-01      5.55732430e-02      -8.96581240e-01     
H    -5.40043547e-01     1.07580976e+00      8.85279732e-02      
H    -7.48221093e-01     -5.74116168e-01     1.60444552e-01      
C    9.86648333e-01      8.62788673e-02      1.10540347e+00      
H    1.75547703e+00      8.25942109e-01      8.96099819e-01      
H    5.49447419e-01      2.89129210e-01      2.08118969e+00      
C    1.56098369e+00      -1.31652184e+00     1.04727555e+00      
O    1.13456869e+00      -2.15393035e+00     2.83044926e-01      
O    2.55467398e+00      -1.47325442e+00     1.91610257e+00      
H    2.87127576e+00      -2.39348986e+00     1.84307455e+00      
O    1.35778610e+00      -2.35336516e-01     -2.21324432e+00     
H    1.48112349e+00      1.55205307e-01      -3.08571565e+00     
H    1.50310637e+00      -1.18348023e+00     -2.32406772e+00     
14
444.141629
N    -6.32653061e-02     1.74738545e-01      4.85350928e-02      
H    3.76787480e-01      4.96547209e-02      -8.98025277e-01     
H    -5.34699121e-01     1.07907406e+00      8.23763873e-02      
H    -7.55644767e-01     -5.69089427e-01     1.63641834e-01      
C    9.85517895e-01      8.65164482e-02      1.10494008e+00      
H    1.75375371e+00      8.26392866e-01      8.94086822e-01      
H    5.47476645e-01      2.91580574e-01      2.07990795e+00      
C    1.56147596e+00      -1.31612315e+00     1.04905767e+00      
O    1.13508100e+00      -2.15278742e+00     2.84035504e-01      
O    2.55636500e+00      -1.47551027e+00     1.91635943e+00      
H    2.87137296e+00      -2.39613824e+00     1.84008723e+00      
O    1.35773066e+00      -2.33439302e-01     -2.21376428e+00     
H    1.48914447e+00      1.47153934e-01      -3.09057928e+00     
H    1.49276279e+00      -1.18566547e+00     -2.31441738e+00     
14
444.141629
N    -6.56516717e-02     1.72951769e-01      4.54613581e-02      
H    3.72962297e-01      3.78176766e-02      -9.00913349e-01     
H    -5.24010270e-01     1.08560267e+00      7.00732153e-02      
H    -7.70492115e-01     -5.59035947e-01     1.70036397e-01      
C    9.83257021e-01      8.69916099e-02      1.10401329e+00      
H    1.75030706e+00      8.27294378e-01      8.90060828e-01      
H    5.43535097e-01      2.96483304e-01      2.07734447e+00      
C    1.56246051e+00      -1.31532578e+00     1.05262192e+00      
O    1.13610562e+00      -2.15050156e+00     2.86016661e-01      
O    2.55974703e+00      -1.48002195e+00     1.91687315e+00      
H    2.87156736e+00      -2.40143500e+00     1.83411258e+00      
O    1.35761976e+00      -2.29644875e-01     -2.21480419e+00     
H    1.50518643e+00      1.31051189e-01      -3.10030654e+00     
H    1.47207564e+00      -1.19003597e+00     -2.29511670e+00     
