14
672.211949
N    -5.59160787e-02     1.79602229e-01      5.74382851e-02      
H    3.79369431e-01      7.90816044e-02      -8.92827084e-01     
H    -5.62019867e-01     1.06151034e+00      1.19907233e-01      
H    -7.12239306e-01     -5.97110897e-01     1.58180241e-01      
C    9.97410804e-01      8.62900038e-02      1.10174737e+00      
H    1.74679948e+00      8.56043897e-01      9.31180042e-01      
H    5.51714775e-01      2.30263317e-01      2.08601104e+00      
C    1.57534614e+00      -1.31119737e+00     1.02119494e+00      
O    1.12312209e+00      -2.16272434e+00     2.86595920e-01      
O    2.53275802e+00      -1.46747291e+00     1.92948929e+00      
H    2.99209537e+00      -2.32916542e+00     1.72846731e+00      
O    1.35758382e+00      -2.44309005e-01     -2.21038344e+00     
H    1.44323819e+00      1.93072483e-01      -3.06246720e+00     
H    1.55991363e+00      -1.17160677e+00     -2.36797785e+00     
14
672.211949
N    -5.59636113e-02     1.79726390e-01      5.75177880e-02      
H    3.81592831e-01      8.06026667e-02      -8.91960578e-01     
H    -5.63206319e-01     1.06100481e+00      1.19751900e-01      
H    -7.11955160e-01     -5.97645640e-01     1.54749716e-01      
C    9.96133233e-01      8.59902436e-02      1.10324064e+00      
H    1.75112302e+00      8.47955005e-01      9.24926232e-01      
H    5.53611404e-01      2.41915584e-01      2.08640788e+00      
C    1.57114019e+00      -1.31302685e+00     1.02548744e+00      
O    1.12534335e+00      -2.16195451e+00     2.84469948e-01      
O    2.53612324e+00      -1.46609848e+00     1.92582153e+00      
H    2.96176897e+00      -2.34193605e+00     1.76085327e+00      
O    1.35770370e+00      -2.44437400e-01     -2.21044871e+00     
H    1.44268329e+00      1.93669905e-01      -3.06219977e+00     
H    1.55864129e+00      -1.17184357e+00     -2.36906324e+00     
14
672.211949
N    -5.59873776e-02     1.79788470e-01      5.75575395e-02      
H    3.82704531e-01      8.13631979e-02      -8.91527325e-01     
H    -5.63799545e-01     1.06075205e+00      1.19674234e-01      
H    -7.11813087e-01     -5.97913011e-01     1.53034454e-01      
C    9.95494447e-01      8.58403636e-02      1.10398727e+00      
H    1.75328479e+00      8.43910559e-01      9.21799327e-01      
H    5.54559718e-01      2.47741717e-01      2.08660630e+00      
C    1.56903721e+00      -1.31394159e+00     1.02763369e+00      
O    1.12645399e+00      -2.16156959e+00     2.83406962e-01      
O    2.53780585e+00      -1.46541127e+00     1.92398766e+00      
H    2.94660577e+00      -2.34832137e+00     1.77704626e+00      
O    1.35776364e+00      -2.44501597e-01     -2.21048135e+00     
H    1.44240584e+00      1.93968616e-01      -3.06206606e+00     
H    1.55800512e+00      -1.17196198e+00     -2.36960594e+00     
14
672.211949
N    -5.60111439e-02     1.79850551e-01      5.75972910e-02      
H    3.83816231e-01      8.21237290e-02      -8.91094072e-01     
H    -5.64392771e-01     1.06049929e+00      1.19596568e-01      
H    -7.11671014e-01     -5.98180383e-01     1.51319192e-01      
C    9.94855662e-01      8.56904835e-02      1.10473391e+00      
H    1.75544656e+00      8.39866113e-01      9.18672423e-01      
H    5.55508032e-01      2.53567851e-01      2.08680472e+00      
C    1.56693424e+00      -1.31485633e+00     1.02977994e+00      
O    1.12756462e+00      -2.16118468e+00     2.82343976e-01      
O    2.53948846e+00      -1.46472406e+00     1.92215378e+00      
H    2.93144257e+00      -2.35470669e+00     1.79323924e+00      
O    1.35782358e+00      -2.44565795e-01     -2.21051398e+00     
H    1.44212839e+00      1.94267327e-01      -3.06193235e+00     
H    1.55736895e+00      -1.17208038e+00     -2.37014864e+00     
14
672.211949
N    -5.60349103e-02     1.79912631e-01      5.76370425e-02      
H    3.84927931e-01      8.28842602e-02      -8.90660819e-01     
H    -5.64985997e-01     1.06024652e+00      1.19518902e-01      
H    -7.11528941e-01     -5.98447754e-01     1.49603930e-01      
C    9.94216876e-01      8.55406034e-02      1.10548054e+00      
H    1.75760834e+00      8.35821666e-01      9.15545518e-01      
H    5.56456346e-01      2.59393984e-01      2.08700315e+00      
C    1.56483126e+00      -1.31577107e+00     1.03192619e+00      
O    1.12867525e+00      -2.16079976e+00     2.81280991e-01      
O    2.54117107e+00      -1.46403685e+00     1.92031990e+00      
H    2.91627936e+00      -2.36109201e+00     1.80943222e+00      
O    1.35788352e+00      -2.44629992e-01     -2.21054662e+00     
H    1.44185094e+00      1.94566038e-01      -3.06179864e+00     
H    1.55673278e+00      -1.17219878e+00     -2.37069134e+00     
14
672.211949
N    -5.60586766e-02     1.79974712e-01      5.76767939e-02      
H    3.86039631e-01      8.36447914e-02      -8.90227565e-01     
H    -5.65579223e-01     1.05999376e+00      1.19441235e-01      
H    -7.11386868e-01     -5.98715126e-01     1.47888667e-01      
C    9.93578090e-01      8.53907233e-02      1.10622718e+00      
H    1.75977011e+00      8.31777220e-01      9.12418613e-01      
H    5.57404661e-01      2.65220118e-01      2.08720157e+00      
C    1.56272829e+00      -1.31668581e+00     1.03407244e+00      
O    1.12978588e+00      -2.16041484e+00     2.80218005e-01      
O    2.54285368e+00      -1.46334963e+00     1.91848602e+00      
H    2.90111616e+00      -2.36747732e+00     1.82562520e+00      
O    1.35794346e+00      -2.44694189e-01     -2.21057925e+00     
H    1.44157349e+00      1.94864749e-01      -3.06166492e+00     
H    1.55609661e+00      -1.17231718e+00     -2.37123403e+00     
14
672.211949
N    -5.60705597e-02     1.80005752e-01      5.76966697e-02      
H    3.86595481e-01      8.40250570e-02      -8.90010939e-01     
H    -5.65875836e-01     1.05986738e+00      1.19402402e-01      
H    -7.11315831e-01     -5.98848812e-01     1.47031036e-01      
C    9.93258697e-01      8.53157832e-02      1.10660050e+00      
H    1.76085099e+00      8.29754997e-01      9.10855160e-01      
H    5.57878818e-01      2.68133185e-01      2.08730078e+00      
C    1.56167680e+00      -1.31714318e+00     1.03514556e+00      
O    1.13034120e+00      -2.16022239e+00     2.79686512e-01      
O    2.54369498e+00      -1.46300603e+00     1.91756909e+00      
H    2.89353456e+00      -2.37066998e+00     1.83372170e+00      
O    1.35797343e+00      -2.44726288e-01     -2.21059557e+00     
H    1.44143476e+00      1.95014105e-01      -3.06159807e+00     
H    1.55577853e+00      -1.17237639e+00     -2.37150538e+00     
14
672.211949
N    -5.60824429e-02     1.80036792e-01      5.77165454e-02      
H    3.87151331e-01      8.44053225e-02      -8.89794312e-01     
H    -5.66172449e-01     1.05974099e+00      1.19363569e-01      
H    -7.11244795e-01     -5.98982497e-01     1.46173405e-01      
C    9.92939305e-01      8.52408432e-02      1.10697381e+00      
H    1.76193188e+00      8.27732774e-01      9.09291708e-01      
H    5.58352975e-01      2.71046251e-01      2.08739999e+00      
C    1.56062531e+00      -1.31760055e+00     1.03621869e+00      
O    1.13089652e+00      -2.16002993e+00     2.79155019e-01      
O    2.54453629e+00      -1.46266242e+00     1.91665215e+00      
H    2.88595296e+00      -2.37386264e+00     1.84181819e+00      
O    1.35800340e+00      -2.44758387e-01     -2.21061189e+00     
H    1.44129604e+00      1.95163460e-01      -3.06153121e+00     
H    1.55546044e+00      -1.17243559e+00     -2.37177673e+00     
14
672.211949
N    -5.61299755e-02     1.80160954e-01      5.77960484e-02      
H    3.89374731e-01      8.59263849e-02      -8.88927806e-01     
H    -5.67358901e-01     1.05923547e+00      1.19208237e-01      
H    -7.10960649e-01     -5.99517241e-01     1.42742881e-01      
C    9.91661733e-01      8.49410830e-02      1.10846709e+00      
H    1.76625542e+00      8.19643882e-01      9.03037898e-01      
H    5.60249603e-01      2.82698519e-01      2.08779683e+00      
C    1.55641937e+00      -1.31943003e+00     1.04051119e+00      
O    1.13311778e+00      -2.15926009e+00     2.77029047e-01      
O    2.54790151e+00      -1.46128800e+00     1.91298439e+00      
H    2.85562656e+00      -2.38663328e+00     1.87420415e+00      
O    1.35812328e+00      -2.44886781e-01     -2.21067715e+00     
H    1.44074114e+00      1.95760882e-01      -3.06126379e+00     
H    1.55418810e+00      -1.17267239e+00     -2.37286213e+00     
14
672.211949
N    -5.61418587e-02     1.80191994e-01      5.78159241e-02      
H    3.89930581e-01      8.63066504e-02      -8.88711179e-01     
H    -5.67655514e-01     1.05910908e+00      1.19169404e-01      
H    -7.10889613e-01     -5.99650926e-01     1.41885250e-01      
C    9.91342341e-01      8.48661430e-02      1.10884040e+00      
H    1.76733631e+00      8.17621659e-01      9.01474446e-01      
H    5.60723760e-01      2.85611585e-01      2.08789604e+00      
C    1.55536788e+00      -1.31988740e+00     1.04158432e+00      
O    1.13367310e+00      -2.15906763e+00     2.76497554e-01      
O    2.54874282e+00      -1.46094439e+00     1.91206745e+00      
H    2.84804496e+00      -2.38982594e+00     1.88230064e+00      
O    1.35815325e+00      -2.44918880e-01     -2.21069347e+00     
H    1.44060242e+00      1.95910237e-01      -3.06119693e+00     
H    1.55387001e+00      -1.17273159e+00     -2.37313348e+00     
14
672.211949
N    -5.61537418e-02     1.80223034e-01      5.78357999e-02      
H    3.90486431e-01      8.66869160e-02      -8.88494553e-01     
H    -5.67952127e-01     1.05898270e+00      1.19130571e-01      
H    -7.10818576e-01     -5.99784612e-01     1.41027619e-01      
C    9.91022948e-01      8.47912029e-02      1.10921372e+00      
H    1.76841719e+00      8.15599436e-01      8.99910993e-01      
H    5.61197917e-01      2.88524652e-01      2.08799525e+00      
C    1.55431639e+00      -1.32034477e+00     1.04265744e+00      
O    1.13422842e+00      -2.15887518e+00     2.75966061e-01      
O    2.54958412e+00      -1.46060079e+00     1.91115052e+00      
H    2.84046336e+00      -2.39301860e+00     1.89039714e+00      
O    1.35818322e+00      -2.44950979e-01     -2.21070979e+00     
H    1.44046369e+00      1.96059593e-01      -3.06113008e+00     
H    1.55355193e+00      -1.17279080e+00     -2.37340483e+00     
14
672.211949
N    -5.61775081e-02     1.80285115e-01      5.78755513e-02      
H    3.91598131e-01      8.74474472e-02      -8.88061299e-01     
H    -5.68545353e-01     1.05872994e+00      1.19052904e-01      
H    -7.10676503e-01     -6.00051984e-01     1.39312356e-01      
C    9.90384162e-01      8.46413228e-02      1.10996036e+00      
H    1.77057896e+00      8.11554990e-01      8.96784088e-01      
H    5.62146232e-01      2.94350786e-01      2.08819367e+00      
C    1.55221342e+00      -1.32125951e+00     1.04480369e+00      
O    1.13533905e+00      -2.15849026e+00     2.74903075e-01      
O    2.55126673e+00      -1.45991357e+00     1.90931664e+00      
H    2.82530016e+00      -2.39940391e+00     1.90659012e+00      
O    1.35824316e+00      -2.45015176e-01     -2.21074242e+00     
H    1.44018624e+00      1.96358304e-01      -3.06099636e+00     
H    1.55291576e+00      -1.17290920e+00     -2.37394752e+00     
14
672.211949
N    -5.62012745e-02     1.80347195e-01      5.79153028e-02      
H    3.92709831e-01      8.82079784e-02      -8.87628046e-01     
H    -5.69138579e-01     1.05847717e+00      1.18975238e-01      
H    -7.10534430e-01     -6.00319355e-01     1.37597094e-01      
C    9.89745376e-01      8.44914427e-02      1.11070699e+00      
H    1.77274074e+00      8.07510543e-01      8.93657183e-01      
H    5.63094546e-01      3.00176919e-01      2.08839210e+00      
C    1.55011044e+00      -1.32217425e+00     1.04694994e+00      
O    1.13644968e+00      -2.15810534e+00     2.73840090e-01      
O    2.55294934e+00      -1.45922636e+00     1.90748276e+00      
H    2.81013695e+00      -2.40578923e+00     1.92278310e+00      
O    1.35830310e+00      -2.45079373e-01     -2.21077506e+00     
H    1.43990879e+00      1.96657015e-01      -3.06086265e+00     
H    1.55227959e+00      -1.17302760e+00     -2.37449022e+00     
14
672.211949
N    -5.62250408e-02     1.80409276e-01      5.79550543e-02      
H    3.93821531e-01      8.89685095e-02      -8.87194793e-01     
H    -5.69731805e-01     1.05822441e+00      1.18897572e-01      
H    -7.10392357e-01     -6.00586727e-01     1.35881832e-01      
C    9.89106591e-01      8.43415626e-02      1.11145363e+00      
H    1.77490251e+00      8.03466097e-01      8.90530279e-01      
H    5.64042860e-01      3.06003053e-01      2.08859052e+00      
C    1.54800747e+00      -1.32308899e+00     1.04909619e+00      
O    1.13756031e+00      -2.15772043e+00     2.72777104e-01      
O    2.55463195e+00      -1.45853915e+00     1.90564888e+00      
H    2.79497375e+00      -2.41217455e+00     1.93897608e+00      
O    1.35836304e+00      -2.45143571e-01     -2.21080769e+00     
H    1.43963134e+00      1.96955726e-01      -3.06072894e+00     
H    1.55164342e+00      -1.17314600e+00     -2.37503292e+00     
14
672.211949
N    -5.62488071e-02     1.80471356e-01      5.79948058e-02      
H    3.94933231e-01      8.97290407e-02      -8.86761540e-01     
H    -5.70325031e-01     1.05797165e+00      1.18819906e-01      
H    -7.10250284e-01     -6.00854098e-01     1.34166570e-01      
C    9.88467805e-01      8.41916826e-02      1.11220026e+00      
H    1.77706428e+00      7.99421651e-01      8.87403374e-01      
H    5.64991174e-01      3.11829186e-01      2.08878894e+00      
C    1.54590449e+00      -1.32400373e+00     1.05124244e+00      
O    1.13867095e+00      -2.15733551e+00     2.71714118e-01      
O    2.55631456e+00      -1.45785194e+00     1.90381501e+00      
H    2.77981055e+00      -2.41855987e+00     1.95516907e+00      
O    1.35842298e+00      -2.45207768e-01     -2.21084033e+00     
H    1.43935389e+00      1.97254437e-01      -3.06059523e+00     
H    1.55100725e+00      -1.17326441e+00     -2.37557562e+00     
14
672.211949
N    -5.62963397e-02     1.80595517e-01      5.80743087e-02      
H    3.97156631e-01      9.12501030e-02      -8.85895034e-01     
H    -5.71511483e-01     1.05746612e+00      1.18664573e-01      
H    -7.09966138e-01     -6.01388841e-01     1.30736045e-01      
C    9.87190234e-01      8.38919224e-02      1.11369353e+00      
H    1.78138782e+00      7.91332759e-01      8.81149564e-01      
H    5.66887803e-01      3.23481453e-01      2.08918578e+00      
C    1.54169854e+00      -1.32583321e+00     1.05553494e+00      
O    1.14089221e+00      -2.15656568e+00     2.69588146e-01      
O    2.55967978e+00      -1.45647751e+00     1.90014725e+00      
H    2.74948415e+00      -2.43133050e+00     1.98755503e+00      
O    1.35854286e+00      -2.45336163e-01     -2.21090560e+00     
H    1.43879899e+00      1.97851859e-01      -3.06032780e+00     
H    1.54973491e+00      -1.17350121e+00     -2.37666101e+00     
