14
278.818545
N    -4.04728450e-02     1.79654892e-01      3.99936983e-02      
H    4.21475964e-01      1.58583083e-01      -9.07050959e-01     
H    -6.16786340e-01     1.01780583e+00      1.44558249e-01      
H    -6.36474121e-01     -6.56691094e-01     6.91121365e-02      
C    9.93545680e-01      8.56902695e-02      1.10283196e+00      
H    1.76514198e+00      8.29309630e-01      9.20459184e-01      
H    5.44961572e-01      2.66954035e-01      2.07802931e+00      
C    1.56128303e+00      -1.31755545e+00     1.03659709e+00      
O    1.13049456e+00      -2.16082801e+00     2.79998943e-01      
O    2.54523450e+00      -1.46297321e+00     1.91577807e+00      
H    2.86432644e+00      -2.38353035e+00     1.86486795e+00      
O    1.34447775e+00      -2.37652890e-01     -2.19354400e+00     
H    1.45761551e+00      1.50700604e-01      -3.06851240e+00     
H    1.49049105e+00      -1.18607660e+00     -2.29986186e+00     
14
278.818545
N    -4.43811861e-02     1.79765887e-01      4.44343480e-02      
H    4.13172731e-01      1.40228776e-01      -9.02628484e-01     
H    -6.04281174e-01     1.02822643e+00      1.38240162e-01      
H    -6.55131271e-01     -6.42330788e-01     8.79486382e-02      
C    9.93234390e-01      8.55404429e-02      1.10405409e+00      
H    1.76487990e+00      8.27904305e-01      9.16885588e-01      
H    5.48546501e-01      2.69433622e-01      2.08042159e+00      
C    1.56059286e+00      -1.31779541e+00     1.03703906e+00      
O    1.13087271e+00      -2.16053226e+00     2.79522215e-01      
O    2.54548060e+00      -1.46272371e+00     1.91553812e+00      
H    2.86594227e+00      -2.38270975e+00     1.86315376e+00      
O    1.34787415e+00      -2.39445314e-01     -2.19781913e+00     
H    1.45346628e+00      1.61890996e-01      -3.06673368e+00     
H    1.50657436e+00      -1.18269595e+00     -2.31797625e+00     
14
278.818545
N    -4.63353566e-02     1.79821385e-01      4.66546728e-02      
H    4.09021114e-01      1.31051622e-01      -9.00417247e-01     
H    -5.98028591e-01     1.03343673e+00      1.35081119e-01      
H    -6.64459846e-01     -6.35150634e-01     9.73668890e-02      
C    9.93078745e-01      8.54655296e-02      1.10466515e+00      
H    1.76474886e+00      8.27201642e-01      9.15098791e-01      
H    5.50338966e-01      2.70673416e-01      2.08161773e+00      
C    1.56024777e+00      -1.31791539e+00     1.03726004e+00      
O    1.13106178e+00      -2.16038438e+00     2.79283852e-01      
O    2.54560365e+00      -1.46259896e+00     1.91541815e+00      
H    2.86675019e+00      -2.38229945e+00     1.86229666e+00      
O    1.34957235e+00      -2.40341525e-01     -2.19995670e+00     
H    1.45139167e+00      1.67486192e-01      -3.06584431e+00     
H    1.51461601e+00      -1.18100562e+00     -2.32703345e+00     
14
278.818545
N    -4.82895271e-02     1.79876882e-01      4.88749976e-02      
H    4.04869498e-01      1.21874468e-01      -8.98206009e-01     
H    -5.91776007e-01     1.03864703e+00      1.31922076e-01      
H    -6.73788421e-01     -6.27970481e-01     1.06785140e-01      
C    9.92923100e-01      8.53906163e-02      1.10527621e+00      
H    1.76461781e+00      8.26498979e-01      9.13311993e-01      
H    5.52131431e-01      2.71913210e-01      2.08281386e+00      
C    1.55990268e+00      -1.31803537e+00     1.03748102e+00      
O    1.13125085e+00      -2.16023651e+00     2.79045488e-01      
O    2.54572670e+00      -1.46247421e+00     1.91529817e+00      
H    2.86755810e+00      -2.38188915e+00     1.86143956e+00      
O    1.35127055e+00      -2.41237737e-01     -2.20209426e+00     
H    1.44931705e+00      1.73081388e-01      -3.06495495e+00     
H    1.52265766e+00      -1.17931530e+00     -2.33609065e+00     
14
278.818545
N    -5.02436976e-02     1.79932380e-01      5.10953224e-02      
H    4.00717881e-01      1.12697315e-01      -8.95994772e-01     
H    -5.85523424e-01     1.04385733e+00      1.28763033e-01      
H    -6.83116997e-01     -6.20790328e-01     1.16203391e-01      
C    9.92767454e-01      8.53157030e-02      1.10588727e+00      
H    1.76448677e+00      8.25796316e-01      9.11525196e-01      
H    5.53923895e-01      2.73153004e-01      2.08401000e+00      
C    1.55955760e+00      -1.31815535e+00     1.03770200e+00      
O    1.13143993e+00      -2.16008863e+00     2.78807124e-01      
O    2.54584975e+00      -1.46234946e+00     1.91517820e+00      
H    2.86836602e+00      -2.38147885e+00     1.86058246e+00      
O    1.35296874e+00      -2.42133949e-01     -2.20423183e+00     
H    1.44724244e+00      1.78676583e-01      -3.06406559e+00     
H    1.53069931e+00      -1.17762497e+00     -2.34514784e+00     
14
278.818545
N    -5.21978682e-02     1.79987878e-01      5.33156473e-02      
H    3.96566264e-01      1.03520161e-01      -8.93783534e-01     
H    -5.79270841e-01     1.04906763e+00      1.25603989e-01      
H    -6.92445572e-01     -6.13610175e-01     1.25621641e-01      
C    9.92611809e-01      8.52407897e-02      1.10649833e+00      
H    1.76435573e+00      8.25093654e-01      9.09738398e-01      
H    5.55716360e-01      2.74392797e-01      2.08520614e+00      
C    1.55921251e+00      -1.31827533e+00     1.03792298e+00      
O    1.13162900e+00      -2.15994076e+00     2.78568760e-01      
O    2.54597280e+00      -1.46222471e+00     1.91505822e+00      
H    2.86917393e+00      -2.38106856e+00     1.85972537e+00      
O    1.35466694e+00      -2.43030161e-01     -2.20636939e+00     
H    1.44516782e+00      1.84271779e-01      -3.06317623e+00     
H    1.53874097e+00      -1.17593464e+00     -2.35420504e+00     
14
278.818545
N    -5.31749534e-02     1.80015626e-01      5.44258097e-02      
H    3.94490456e-01      9.89315842e-02      -8.92677915e-01     
H    -5.76144550e-01     1.05167278e+00      1.24024468e-01      
H    -6.97109859e-01     -6.10020099e-01     1.30330767e-01      
C    9.92533987e-01      8.52033330e-02      1.10680386e+00      
H    1.76429021e+00      8.24742322e-01      9.08844999e-01      
H    5.56612592e-01      2.75012694e-01      2.08580420e+00      
C    1.55903997e+00      -1.31833532e+00     1.03803347e+00      
O    1.13172354e+00      -2.15986682e+00     2.78449579e-01      
O    2.54603432e+00      -1.46216233e+00     1.91499823e+00      
H    2.86957789e+00      -2.38086341e+00     1.85929682e+00      
O    1.35551604e+00      -2.43478266e-01     -2.20743817e+00     
H    1.44413051e+00      1.87069377e-01      -3.06273154e+00     
H    1.54276179e+00      -1.17508948e+00     -2.35873364e+00     
14
278.818545
N    -5.41520387e-02     1.80043375e-01      5.55359721e-02      
H    3.92414648e-01      9.43430074e-02      -8.91572297e-01     
H    -5.73018258e-01     1.05427793e+00      1.22444946e-01      
H    -7.01774147e-01     -6.06430022e-01     1.35039892e-01      
C    9.92456164e-01      8.51658764e-02      1.10710939e+00      
H    1.76422469e+00      8.24390991e-01      9.07951601e-01      
H    5.57508824e-01      2.75632591e-01      2.08640227e+00      
C    1.55886743e+00      -1.31839531e+00     1.03814396e+00      
O    1.13181808e+00      -2.15979288e+00     2.78330397e-01      
O    2.54609585e+00      -1.46209996e+00     1.91493825e+00      
H    2.86998185e+00      -2.38065826e+00     1.85886827e+00      
O    1.35636514e+00      -2.43926372e-01     -2.20850696e+00     
H    1.44309321e+00      1.89866975e-01      -3.06228686e+00     
H    1.54678262e+00      -1.17424432e+00     -2.36326223e+00     
14
278.818545
N    -5.80603797e-02     1.80154371e-01      5.99766217e-02      
H    3.84111414e-01      7.59887000e-02      -8.87149821e-01     
H    -5.60513092e-01     1.06469853e+00      1.16126860e-01      
H    -7.20431297e-01     -5.92069716e-01     1.53876394e-01      
C    9.92144874e-01      8.50160498e-02      1.10833151e+00      
H    1.76396261e+00      8.22985665e-01      9.04378005e-01      
H    5.61093754e-01      2.78112179e-01      2.08879455e+00      
C    1.55817725e+00      -1.31863527e+00     1.03858592e+00      
O    1.13219622e+00      -2.15949714e+00     2.77853669e-01      
O    2.54634195e+00      -1.46185046e+00     1.91469829e+00      
H    2.87159767e+00      -2.37983766e+00     1.85715407e+00      
O    1.35976154e+00      -2.45718796e-01     -2.21278208e+00     
H    1.43894397e+00      2.01057367e-01      -3.06050814e+00     
H    1.56286592e+00      -1.17086366e+00     -2.38137663e+00     
14
278.818545
N    -5.90374650e-02     1.80182120e-01      6.10867841e-02      
H    3.82035606e-01      7.14001232e-02      -8.86044203e-01     
H    -5.57386800e-01     1.06730368e+00      1.14547338e-01      
H    -7.25095585e-01     -5.88479639e-01     1.58585519e-01      
C    9.92067051e-01      8.49785932e-02      1.10863704e+00      
H    1.76389709e+00      8.22634334e-01      9.03484607e-01      
H    5.61989986e-01      2.78732076e-01      2.08939262e+00      
C    1.55800471e+00      -1.31869526e+00     1.03869641e+00      
O    1.13229076e+00      -2.15942320e+00     2.77734487e-01      
O    2.54640348e+00      -1.46178809e+00     1.91463831e+00      
H    2.87200163e+00      -2.37963251e+00     1.85672552e+00      
O    1.36061064e+00      -2.46166902e-01     -2.21385087e+00     
H    1.43790667e+00      2.03854965e-01      -3.06006346e+00     
H    1.56688675e+00      -1.17001850e+00     -2.38590522e+00     
14
278.818545
N    -6.00145502e-02     1.80209868e-01      6.21969465e-02      
H    3.79959798e-01      6.68115464e-02      -8.84938584e-01     
H    -5.54260509e-01     1.06990883e+00      1.12967817e-01      
H    -7.29759872e-01     -5.84889563e-01     1.63294645e-01      
C    9.91989229e-01      8.49411365e-02      1.10894257e+00      
H    1.76383157e+00      8.22283002e-01      9.02591208e-01      
H    5.62886218e-01      2.79351973e-01      2.08999068e+00      
C    1.55783217e+00      -1.31875525e+00     1.03880690e+00      
O    1.13238530e+00      -2.15934926e+00     2.77615306e-01      
O    2.54646500e+00      -1.46172571e+00     1.91457832e+00      
H    2.87240559e+00      -2.37942736e+00     1.85629697e+00      
O    1.36145974e+00      -2.46615007e-01     -2.21491965e+00     
H    1.43686936e+00      2.06652563e-01      -3.05961877e+00     
H    1.57090757e+00      -1.16917334e+00     -2.39043382e+00     
14
278.818545
N    -6.19687208e-02     1.80265366e-01      6.44172714e-02      
H    3.75808181e-01      5.76343927e-02      -8.82727346e-01     
H    -5.48007926e-01     1.07511913e+00      1.09808773e-01      
H    -7.39088447e-01     -5.77709410e-01     1.72712895e-01      
C    9.91833584e-01      8.48662232e-02      1.10955363e+00      
H    1.76370053e+00      8.21580340e-01      9.00804410e-01      
H    5.64678683e-01      2.80591766e-01      2.09118682e+00      
C    1.55748708e+00      -1.31887523e+00     1.03902788e+00      
O    1.13257437e+00      -2.15920139e+00     2.77376942e-01      
O    2.54658805e+00      -1.46160096e+00     1.91445834e+00      
H    2.87321350e+00      -2.37901707e+00     1.85543988e+00      
O    1.36315794e+00      -2.47511219e-01     -2.21705721e+00     
H    1.43479474e+00      2.12247759e-01      -3.05872941e+00     
H    1.57894923e+00      -1.16748301e+00     -2.39949102e+00     
14
278.818545
N    -6.39228913e-02     1.80320864e-01      6.66375962e-02      
H    3.71656564e-01      4.84572391e-02      -8.80516109e-01     
H    -5.41755343e-01     1.08032943e+00      1.06649730e-01      
H    -7.48417023e-01     -5.70529257e-01     1.82131146e-01      
C    9.91677938e-01      8.47913099e-02      1.11016469e+00      
H    1.76356949e+00      8.20877677e-01      8.99017613e-01      
H    5.66471147e-01      2.81831560e-01      2.09238296e+00      
C    1.55714200e+00      -1.31899521e+00     1.03924886e+00      
O    1.13276345e+00      -2.15905351e+00     2.77138578e-01      
O    2.54671110e+00      -1.46147621e+00     1.91433837e+00      
H    2.87402142e+00      -2.37860677e+00     1.85458278e+00      
O    1.36485613e+00      -2.48407431e-01     -2.21919478e+00     
H    1.43272013e+00      2.17842954e-01      -3.05784005e+00     
H    1.58699088e+00      -1.16579268e+00     -2.40854821e+00     
14
278.818545
N    -6.58770618e-02     1.80376361e-01      6.88579210e-02      
H    3.67504948e-01      3.92800854e-02      -8.78304871e-01     
H    -5.35502759e-01     1.08553973e+00      1.03490687e-01      
H    -7.57745598e-01     -5.63349104e-01     1.91549397e-01      
C    9.91522293e-01      8.47163966e-02      1.11077575e+00      
H    1.76343844e+00      8.20175014e-01      8.97230815e-01      
H    5.68263612e-01      2.83071354e-01      2.09357909e+00      
C    1.55679691e+00      -1.31911519e+00     1.03946984e+00      
O    1.13295252e+00      -2.15890564e+00     2.76900214e-01      
O    2.54683415e+00      -1.46135146e+00     1.91421839e+00      
H    2.87482933e+00      -2.37819647e+00     1.85372568e+00      
O    1.36655433e+00      -2.49303643e-01     -2.22133234e+00     
H    1.43064551e+00      2.23438150e-01      -3.05695069e+00     
H    1.59503253e+00      -1.16410236e+00     -2.41760541e+00     
14
278.818545
N    -6.78312323e-02     1.80431859e-01      7.10782458e-02      
H    3.63353331e-01      3.01029318e-02      -8.76093634e-01     
H    -5.29250176e-01     1.09075003e+00      1.00331644e-01      
H    -7.67074173e-01     -5.56168950e-01     2.00967648e-01      
C    9.91366648e-01      8.46414833e-02      1.11138681e+00      
H    1.76330740e+00      8.19472351e-01      8.95444018e-01      
H    5.70056077e-01      2.84311148e-01      2.09477523e+00      
C    1.55645182e+00      -1.31923517e+00     1.03969082e+00      
O    1.13314159e+00      -2.15875776e+00     2.76661851e-01      
O    2.54695720e+00      -1.46122671e+00     1.91409842e+00      
H    2.87563725e+00      -2.37778617e+00     1.85286858e+00      
O    1.36825253e+00      -2.50199854e-01     -2.22346991e+00     
H    1.42857090e+00      2.29033346e-01      -3.05606132e+00     
H    1.60307418e+00      -1.16241203e+00     -2.42666261e+00     
14
278.818545
N    -7.17395734e-02     1.80542854e-01      7.55188955e-02      
H    3.55050098e-01      1.17486245e-02      -8.71671159e-01     
H    -5.16745010e-01     1.10117063e+00      9.40135573e-02      
H    -7.85731323e-01     -5.41808644e-01     2.19804149e-01      
C    9.91055358e-01      8.44916567e-02      1.11260894e+00      
H    1.76304532e+00      8.18067026e-01      8.91870422e-01      
H    5.73641006e-01      2.86790735e-01      2.09716751e+00      
C    1.55576165e+00      -1.31947513e+00     1.04013279e+00      
O    1.13351974e+00      -2.15846201e+00     2.76185123e-01      
O    2.54720330e+00      -1.46097721e+00     1.91385847e+00      
H    2.87725308e+00      -2.37696557e+00     1.85115439e+00      
O    1.37164893e+00      -2.51992278e-01     -2.22774504e+00     
H    1.42442167e+00      2.40223738e-01      -3.05428260e+00     
H    1.61915749e+00      -1.15903138e+00     -2.44477700e+00     
