14
631.126100
N    -7.30890613e-02     1.90076182e-01      4.41516234e-02      
H    3.60631731e-01      1.41800425e-01      -9.10165566e-01     
H    -5.59438020e-01     1.07933834e+00      1.78334965e-01      
H    -7.45763559e-01     -5.77666045e-01     9.15930184e-02      
C    9.92801489e-01      3.94201694e-02      1.08745794e+00      
H    1.76355602e+00      7.77030259e-01      8.80459030e-01      
H    5.63349331e-01      2.47514625e-01      2.06505373e+00      
C    1.57692631e+00      -1.34287008e+00     1.05297290e+00      
O    1.09811784e+00      -2.12441599e+00     2.58303512e-01      
O    2.57851357e+00      -1.45312458e+00     1.94841892e+00      
H    2.95105024e+00      -2.35626947e+00     1.93069558e+00      
O    1.35846427e+00      -2.49236561e-01     -2.20840271e+00     
H    1.42336516e+00      2.11449961e-01      -3.05065589e+00     
H    1.57348416e+00      -1.16894164e+00     -2.39130611e+00     
14
631.126100
N    -6.88433483e-02     1.87581855e-01      4.75527918e-02      
H    3.67539556e-01      1.27641782e-01      -9.04964439e-01     
H    -5.61269934e-01     1.07437581e+00      1.63572700e-01      
H    -7.37098350e-01     -5.83062001e-01     1.04809300e-01      
C    9.92676247e-01      5.08378678e-02      1.09252357e+00      
H    1.76369043e+00      7.88694776e-01      8.86885473e-01      
H    5.62337321e-01      2.54854065e-01      2.07068990e+00      
C    1.57232532e+00      -1.33678138e+00     1.04932091e+00      
O    1.10659017e+00      -2.13322325e+00     2.63250643e-01      
O    2.57043990e+00      -1.45533723e+00     1.94001876e+00      
H    2.93098512e+00      -2.36226409e+00     1.91252448e+00      
O    1.35836404e+00      -2.48133067e-01     -2.20896317e+00     
H    1.42777852e+00      2.07453014e-01      -3.05334129e+00     
H    1.56881918e+00      -1.16984473e+00     -2.38655944e+00     
14
631.126100
N    -6.67204918e-02     1.86334691e-01      4.92533760e-02      
H    3.70993468e-01      1.20562461e-01      -9.02363876e-01     
H    -5.62185891e-01     1.07189455e+00      1.56191567e-01      
H    -7.32765745e-01     -5.85759979e-01     1.11417440e-01      
C    9.92613625e-01      5.65467170e-02      1.09505638e+00      
H    1.76375763e+00      7.94527035e-01      8.90098695e-01      
H    5.61831315e-01      2.58523785e-01      2.07350799e+00      
C    1.57002482e+00      -1.33373703e+00     1.04749491e+00      
O    1.11082633e+00      -2.13762687e+00     2.65724208e-01      
O    2.56640307e+00      -1.45644356e+00     1.93581868e+00      
H    2.92095256e+00      -2.36526140e+00     1.90343893e+00      
O    1.35831392e+00      -2.47581320e-01     -2.20924339e+00     
H    1.42998520e+00      2.05454540e-01      -3.05468399e+00     
H    1.56648670e+00      -1.17029627e+00     -2.38418610e+00     
14
631.126100
N    -6.45976353e-02     1.85087528e-01      5.09539602e-02      
H    3.74447381e-01      1.13483140e-01      -8.99763312e-01     
H    -5.63101848e-01     1.06941329e+00      1.48810434e-01      
H    -7.28433141e-01     -5.88457957e-01     1.18025581e-01      
C    9.92551004e-01      6.22555663e-02      1.09758919e+00      
H    1.76382483e+00      8.00359294e-01      8.93311916e-01      
H    5.61325310e-01      2.62193505e-01      2.07632607e+00      
C    1.56772432e+00      -1.33069268e+00     1.04566892e+00      
O    1.11506249e+00      -2.14203050e+00     2.68197773e-01      
O    2.56236623e+00      -1.45754989e+00     1.93161859e+00      
H    2.91092000e+00      -2.36825871e+00     1.89435338e+00      
O    1.35826381e+00      -2.47029573e-01     -2.20952362e+00     
H    1.43219188e+00      2.03456066e-01      -3.05602669e+00     
H    1.56415421e+00      -1.17074781e+00     -2.38181277e+00     
14
631.126100
N    -6.24747788e-02     1.83840364e-01      5.26545443e-02      
H    3.77901293e-01      1.06403818e-01      -8.97162749e-01     
H    -5.64017805e-01     1.06693202e+00      1.41429301e-01      
H    -7.24100536e-01     -5.91155935e-01     1.24633721e-01      
C    9.92488383e-01      6.79644155e-02      1.10012201e+00      
H    1.76389204e+00      8.06191552e-01      8.96525138e-01      
H    5.60819305e-01      2.65863225e-01      2.07914416e+00      
C    1.56542383e+00      -1.32764834e+00     1.04384292e+00      
O    1.11929866e+00      -2.14643413e+00     2.70671338e-01      
O    2.55832940e+00      -1.45865622e+00     1.92741851e+00      
H    2.90088744e+00      -2.37125603e+00     1.88526783e+00      
O    1.35821369e+00      -2.46477826e-01     -2.20980384e+00     
H    1.43439855e+00      2.01457592e-01      -3.05736940e+00     
H    1.56182173e+00      -1.17119936e+00     -2.37943943e+00     
14
631.126100
N    -6.03519222e-02     1.82593200e-01      5.43551285e-02      
H    3.81355206e-01      9.93244966e-02      -8.94562186e-01     
H    -5.64933761e-01     1.06445076e+00      1.34048169e-01      
H    -7.19767931e-01     -5.93853913e-01     1.31241862e-01      
C    9.92425762e-01      7.36732647e-02      1.10265482e+00      
H    1.76395924e+00      8.12023811e-01      8.99738360e-01      
H    5.60313300e-01      2.69532945e-01      2.08196224e+00      
C    1.56312333e+00      -1.32460399e+00     1.04201693e+00      
O    1.12353482e+00      -2.15083776e+00     2.73144903e-01      
O    2.55429257e+00      -1.45976255e+00     1.92321843e+00      
H    2.89085488e+00      -2.37425334e+00     1.87618227e+00      
O    1.35816357e+00      -2.45926078e-01     -2.21008407e+00     
H    1.43660523e+00      1.99459119e-01      -3.05871210e+00     
H    1.55948924e+00      -1.17165090e+00     -2.37706610e+00     
14
631.126100
N    -5.92904940e-02     1.81969618e-01      5.52054206e-02      
H    3.83082162e-01      9.57848359e-02      -8.93261904e-01     
H    -5.65391740e-01     1.06321013e+00      1.30357602e-01      
H    -7.17601629e-01     -5.95202902e-01     1.34545932e-01      
C    9.92394451e-01      7.65276893e-02      1.10392123e+00      
H    1.76399284e+00      8.14939940e-01      9.01344970e-01      
H    5.60060297e-01      2.71367805e-01      2.08337128e+00      
C    1.56197308e+00      -1.32308181e+00     1.04110393e+00      
O    1.12565290e+00      -2.15303957e+00     2.74381685e-01      
O    2.55227415e+00      -1.46031572e+00     1.92111839e+00      
H    2.88583860e+00      -2.37575199e+00     1.87163950e+00      
O    1.35813851e+00      -2.45650205e-01     -2.21022418e+00     
H    1.43770857e+00      1.98459882e-01      -3.05938345e+00     
H    1.55832300e+00      -1.17187667e+00     -2.37587943e+00     
14
631.126100
N    -5.82290657e-02     1.81346037e-01      5.60557127e-02      
H    3.84809118e-01      9.22451752e-02      -8.91961622e-01     
H    -5.65849718e-01     1.06196949e+00      1.26667036e-01      
H    -7.15435327e-01     -5.96551891e-01     1.37850002e-01      
C    9.92363140e-01      7.93821139e-02      1.10518764e+00      
H    1.76402645e+00      8.17856069e-01      9.02951581e-01      
H    5.59807294e-01      2.73202665e-01      2.08478033e+00      
C    1.56082284e+00      -1.32155964e+00     1.04019093e+00      
O    1.12777099e+00      -2.15524138e+00     2.75618468e-01      
O    2.55025573e+00      -1.46086888e+00     1.91901835e+00      
H    2.88082232e+00      -2.37725065e+00     1.86709672e+00      
O    1.35811346e+00      -2.45374331e-01     -2.21036429e+00     
H    1.43881191e+00      1.97460645e-01      -3.06005480e+00     
H    1.55715676e+00      -1.17210245e+00     -2.37469276e+00     
14
631.126100
N    -5.39833527e-02     1.78851709e-01      5.94568811e-02      
H    3.91716944e-01      7.80865322e-02      -8.86760496e-01     
H    -5.67681632e-01     1.05700697e+00      1.11904770e-01      
H    -7.06770117e-01     -6.01947847e-01     1.51066284e-01      
C    9.92237898e-01      9.07998123e-02      1.11025326e+00      
H    1.76416085e+00      8.29520587e-01      9.09378025e-01      
H    5.58795284e-01      2.80542105e-01      2.09041649e+00      
C    1.55622184e+00      -1.31547094e+00     1.03653895e+00      
O    1.13624331e+00      -2.16404864e+00     2.80565598e-01      
O    2.54218207e+00      -1.46308154e+00     1.91061819e+00      
H    2.86075720e+00      -2.38324527e+00     1.84892562e+00      
O    1.35801322e+00      -2.44270837e-01     -2.21092475e+00     
H    1.44322527e+00      1.93463697e-01      -3.06274020e+00     
H    1.55249178e+00      -1.17300553e+00     -2.36994610e+00     
14
631.126100
N    -5.29219244e-02     1.78228128e-01      6.03071732e-02      
H    3.93443900e-01      7.45468715e-02      -8.85460214e-01     
H    -5.68139610e-01     1.05576633e+00      1.08214204e-01      
H    -7.04603815e-01     -6.03296836e-01     1.54370354e-01      
C    9.92206587e-01      9.36542369e-02      1.11151967e+00      
H    1.76419446e+00      8.32436716e-01      9.10984636e-01      
H    5.58542281e-01      2.82376965e-01      2.09182554e+00      
C    1.55507160e+00      -1.31394877e+00     1.03562595e+00      
O    1.13836140e+00      -2.16625045e+00     2.81802381e-01      
O    2.54016365e+00      -1.46363470e+00     1.90851815e+00      
H    2.85574092e+00      -2.38474393e+00     1.84438284e+00      
O    1.35798817e+00      -2.43994963e-01     -2.21106486e+00     
H    1.44432861e+00      1.92464460e-01      -3.06341155e+00     
H    1.55132554e+00      -1.17323131e+00     -2.36875943e+00     
14
631.126100
N    -5.18604962e-02     1.77604546e-01      6.11574653e-02      
H    3.95170856e-01      7.10072108e-02      -8.84159932e-01     
H    -5.68597589e-01     1.05452570e+00      1.04523637e-01      
H    -7.02437513e-01     -6.04645825e-01     1.57674424e-01      
C    9.92175276e-01      9.65086615e-02      1.11278608e+00      
H    1.76422806e+00      8.35352845e-01      9.12591246e-01      
H    5.58289278e-01      2.84211825e-01      2.09323458e+00      
C    1.55392135e+00      -1.31242659e+00     1.03471295e+00      
O    1.14047948e+00      -2.16845226e+00     2.83039163e-01      
O    2.53814523e+00      -1.46418787e+00     1.90641811e+00      
H    2.85072464e+00      -2.38624258e+00     1.83984007e+00      
O    1.35796311e+00      -2.43719090e-01     -2.21120497e+00     
H    1.44543195e+00      1.91465223e-01      -3.06408290e+00     
H    1.55015930e+00      -1.17345708e+00     -2.36757276e+00     
14
631.126100
N    -4.97376396e-02     1.76357382e-01      6.28580495e-02      
H    3.98624769e-01      6.39278893e-02      -8.81559369e-01     
H    -5.69513545e-01     1.05204444e+00      9.71425046e-02      
H    -6.98104908e-01     -6.07343803e-01     1.64282565e-01      
C    9.92112655e-01      1.02217511e-01      1.11531889e+00      
H    1.76429526e+00      8.41185104e-01      9.15804468e-01      
H    5.57783273e-01      2.87881545e-01      2.09605266e+00      
C    1.55162085e+00      -1.30938224e+00     1.03288696e+00      
O    1.14471564e+00      -2.17285589e+00     2.85512728e-01      
O    2.53410840e+00      -1.46529420e+00     1.90221803e+00      
H    2.84069208e+00      -2.38923989e+00     1.83075451e+00      
O    1.35791299e+00      -2.43167342e-01     -2.21148520e+00     
H    1.44763863e+00      1.89466750e-01      -3.06542560e+00     
H    1.54782681e+00      -1.17390862e+00     -2.36519943e+00     
14
631.126100
N    -4.76147831e-02     1.75110218e-01      6.45586336e-02      
H    4.02078681e-01      5.68485679e-02      -8.78958806e-01     
H    -5.70429502e-01     1.04956317e+00      8.97613718e-02      
H    -6.93772303e-01     -6.10041781e-01     1.70890705e-01      
C    9.92050034e-01      1.07926360e-01      1.11785171e+00      
H    1.76436247e+00      8.47017362e-01      9.19017690e-01      
H    5.57277268e-01      2.91551265e-01      2.09887075e+00      
C    1.54932036e+00      -1.30633790e+00     1.03106096e+00      
O    1.14895181e+00      -2.17725952e+00     2.87986293e-01      
O    2.53007157e+00      -1.46640053e+00     1.89801795e+00      
H    2.83065952e+00      -2.39223721e+00     1.82166896e+00      
O    1.35786287e+00      -2.42615595e-01     -2.21176542e+00     
H    1.44984530e+00      1.87468276e-01      -3.06676831e+00     
H    1.54549433e+00      -1.17436017e+00     -2.36282609e+00     
14
631.126100
N    -4.54919266e-02     1.73863055e-01      6.62592178e-02      
H    4.05532594e-01      4.97692464e-02      -8.76358242e-01     
H    -5.71345459e-01     1.04708191e+00      8.23802391e-02      
H    -6.89439699e-01     -6.12739759e-01     1.77498846e-01      
C    9.91987413e-01      1.13635209e-01      1.12038452e+00      
H    1.76442967e+00      8.52849621e-01      9.22230911e-01      
H    5.56771263e-01      2.95220985e-01      2.10168883e+00      
C    1.54701986e+00      -1.30329355e+00     1.02923497e+00      
O    1.15318797e+00      -2.18166315e+00     2.90459858e-01      
O    2.52603473e+00      -1.46750686e+00     1.89381786e+00      
H    2.82062696e+00      -2.39523452e+00     1.81258341e+00      
O    1.35781276e+00      -2.42063848e-01     -2.21204565e+00     
H    1.45205198e+00      1.85469802e-01      -3.06811101e+00     
H    1.54316184e+00      -1.17481171e+00     -2.36045276e+00     
14
631.126100
N    -4.33690701e-02     1.72615891e-01      6.79598020e-02      
H    4.08986506e-01      4.26899249e-02      -8.73757679e-01     
H    -5.72261416e-01     1.04460065e+00      7.49991063e-02      
H    -6.85107094e-01     -6.15437737e-01     1.84106986e-01      
C    9.91924791e-01      1.19344058e-01      1.12291733e+00      
H    1.76449687e+00      8.58681880e-01      9.25444133e-01      
H    5.56265257e-01      2.98890705e-01      2.10450692e+00      
C    1.54471936e+00      -1.30024920e+00     1.02740897e+00      
O    1.15742413e+00      -2.18606677e+00     2.92933423e-01      
O    2.52199790e+00      -1.46861319e+00     1.88961778e+00      
H    2.81059440e+00      -2.39823183e+00     1.80349786e+00      
O    1.35776264e+00      -2.41512101e-01     -2.21232587e+00     
H    1.45425866e+00      1.83471328e-01      -3.06945371e+00     
H    1.54082936e+00      -1.17526325e+00     -2.35807942e+00     
14
631.126100
N    -3.91233571e-02     1.70121564e-01      7.13609704e-02      
H    4.15894331e-01      2.85312820e-02      -8.68556552e-01     
H    -5.74093330e-01     1.03963812e+00      6.02368407e-02      
H    -6.76441885e-01     -6.20833693e-01     1.97323268e-01      
C    9.91799549e-01      1.30761757e-01      1.12798296e+00      
H    1.76463128e+00      8.70346397e-01      9.31870576e-01      
H    5.55253247e-01      3.06230145e-01      2.11014309e+00      
C    1.54011837e+00      -1.29416050e+00     1.02375698e+00      
O    1.16589646e+00      -2.19487403e+00     2.97880554e-01      
O    2.51392423e+00      -1.47082584e+00     1.88121762e+00      
H    2.79052928e+00      -2.40422645e+00     1.78532676e+00      
O    1.35766241e+00      -2.40408607e-01     -2.21288633e+00     
H    1.45867202e+00      1.79474381e-01      -3.07213911e+00     
H    1.53616438e+00      -1.17616634e+00     -2.35333275e+00     
