14
546.519935
N    -5.76250561e-02     1.75356899e-01      6.10745317e-02      
H    3.75935587e-01      6.43036865e-02      -8.89351246e-01     
H    -5.49461764e-01     1.06619129e+00      1.14428700e-01      
H    -7.26710094e-01     -5.89288447e-01     1.69684101e-01      
C    9.95672814e-01      8.23895052e-02      1.10472713e+00      
H    1.72774499e+00      8.77306983e-01      9.62340290e-01      
H    5.35452583e-01      1.87896312e-01      2.09034998e+00      
C    1.58779037e+00      -1.30687837e+00     1.00852042e+00      
O    1.12021576e+00      -2.16046668e+00     2.85004901e-01      
O    2.54463849e+00      -1.46040701e+00     1.91836827e+00      
H    2.78266264e+00      -2.41551903e+00     1.96156899e+00      
O    1.35815877e+00      -2.42779092e-01     -2.21120250e+00     
H    1.45014673e+00      1.87047822e-01      -3.06650318e+00     
H    1.54781775e+00      -1.17409948e+00     -2.36238516e+00     
14
546.519935
N    -5.72453444e-02     1.76542393e-01      6.02449730e-02      
H    3.79017448e-01      6.95192283e-02      -8.89353699e-01     
H    -5.53787742e-01     1.06451552e+00      1.15643000e-01      
H    -7.22808251e-01     -5.91778803e-01     1.63377611e-01      
C    9.94829741e-01      8.30648697e-02      1.10547546e+00      
H    1.73683215e+00      8.63902319e-01      9.48296419e-01      
H    5.41414760e-01      2.10140330e-01      2.08966209e+00      
C    1.58047336e+00      -1.30978760e+00     1.01598155e+00      
O    1.12316361e+00      -2.16026126e+00     2.83276684e-01      
O    2.54503359e+00      -1.46079906e+00     1.91748077e+00      
H    2.80469442e+00      -2.40670126e+00     1.93567954e+00      
O    1.35813491e+00      -2.43289965e-01     -2.21106301e+00     
H    1.44786470e+00      1.89151409e-01      -3.06522676e+00     
H    1.54956938e+00      -1.17371311e+00     -2.36486873e+00     
14
546.519935
N    -5.70554885e-02     1.77135140e-01      5.98301937e-02      
H    3.80558378e-01      7.21269992e-02      -8.89354926e-01     
H    -5.55950731e-01     1.06367764e+00      1.16250151e-01      
H    -7.20857330e-01     -5.93023980e-01     1.60224366e-01      
C    9.94408204e-01      8.34025519e-02      1.10584963e+00      
H    1.74137574e+00      8.57199988e-01      9.41274483e-01      
H    5.44395848e-01      2.21262339e-01      2.08931814e+00      
C    1.57681486e+00      -1.31124222e+00     1.01971212e+00      
O    1.12463753e+00      -2.16015855e+00     2.82412576e-01      
O    2.54523114e+00      -1.46099509e+00     1.91703702e+00      
H    2.81571031e+00      -2.40229238e+00     1.92273481e+00      
O    1.35812298e+00      -2.43545402e-01     -2.21099326e+00     
H    1.44672368e+00      1.90203203e-01      -3.06458855e+00     
H    1.55044520e+00      -1.17351992e+00     -2.36611051e+00     
14
546.519935
N    -5.68656326e-02     1.77727886e-01      5.94154143e-02      
H    3.82099309e-01      7.47347701e-02      -8.89356152e-01     
H    -5.58113720e-01     1.06283976e+00      1.16857301e-01      
H    -7.18906408e-01     -5.94269158e-01     1.57071122e-01      
C    9.93986667e-01      8.37402341e-02      1.10622379e+00      
H    1.74591932e+00      8.50497656e-01      9.34252547e-01      
H    5.47376936e-01      2.32384348e-01      2.08897419e+00      
C    1.57315636e+00      -1.31269683e+00     1.02344268e+00      
O    1.12611146e+00      -2.16005584e+00     2.81548467e-01      
O    2.54542869e+00      -1.46119111e+00     1.91659327e+00      
H    2.82672620e+00      -2.39788349e+00     1.90979008e+00      
O    1.35811105e+00      -2.43800838e-01     -2.21092351e+00     
H    1.44558266e+00      1.91254996e-01      -3.06395034e+00     
H    1.55132101e+00      -1.17332674e+00     -2.36735229e+00     
14
546.519935
N    -5.66757768e-02     1.78320633e-01      5.90006350e-02      
H    3.83640239e-01      7.73425410e-02      -8.89357379e-01     
H    -5.60276709e-01     1.06200188e+00      1.17464452e-01      
H    -7.16955487e-01     -5.95514336e-01     1.53917877e-01      
C    9.93565130e-01      8.40779164e-02      1.10659796e+00      
H    1.75046290e+00      8.43795324e-01      9.27230611e-01      
H    5.50358024e-01      2.43506357e-01      2.08863025e+00      
C    1.56949785e+00      -1.31415145e+00     1.02717325e+00      
O    1.12758538e+00      -2.15995314e+00     2.80684359e-01      
O    2.54562625e+00      -1.46138714e+00     1.91614952e+00      
H    2.83774209e+00      -2.39347461e+00     1.89684535e+00      
O    1.35809913e+00      -2.44056275e-01     -2.21085376e+00     
H    1.44444164e+00      1.92306790e-01      -3.06331213e+00     
H    1.55219683e+00      -1.17313355e+00     -2.36859408e+00     
14
546.519935
N    -5.64859209e-02     1.78913380e-01      5.85858556e-02      
H    3.85181170e-01      7.99503119e-02      -8.89358606e-01     
H    -5.62439697e-01     1.06116399e+00      1.18071602e-01      
H    -7.15004565e-01     -5.96759514e-01     1.50764632e-01      
C    9.93143593e-01      8.44155986e-02      1.10697212e+00      
H    1.75500648e+00      8.37092992e-01      9.20208675e-01      
H    5.53339113e-01      2.54628367e-01      2.08828630e+00      
C    1.56583935e+00      -1.31560606e+00     1.03090381e+00      
O    1.12905930e+00      -2.15985043e+00     2.79820250e-01      
O    2.54582380e+00      -1.46158316e+00     1.91570577e+00      
H    2.84875798e+00      -2.38906573e+00     1.88390063e+00      
O    1.35808720e+00      -2.44311711e-01     -2.21078402e+00     
H    1.44330063e+00      1.93358584e-01      -3.06267392e+00     
H    1.55307264e+00      -1.17294036e+00     -2.36983586e+00     
14
546.519935
N    -5.63909930e-02     1.79209753e-01      5.83784659e-02      
H    3.85951635e-01      8.12541974e-02      -8.89359219e-01     
H    -5.63521192e-01     1.06074505e+00      1.18375177e-01      
H    -7.14029104e-01     -5.97382102e-01     1.49188010e-01      
C    9.92932824e-01      8.45844397e-02      1.10715920e+00      
H    1.75727828e+00      8.33741826e-01      9.16697707e-01      
H    5.54829657e-01      2.60189371e-01      2.08811433e+00      
C    1.56401010e+00      -1.31633337e+00     1.03276909e+00      
O    1.12979626e+00      -2.15979907e+00     2.79388196e-01      
O    2.54592257e+00      -1.46168117e+00     1.91548389e+00      
H    2.85426592e+00      -2.38686128e+00     1.87742826e+00      
O    1.35808123e+00      -2.44439429e-01     -2.21074914e+00     
H    1.44273012e+00      1.93884481e-01      -3.06235481e+00     
H    1.55351055e+00      -1.17284377e+00     -2.37045675e+00     
14
546.519935
N    -5.62960651e-02     1.79506126e-01      5.81710763e-02      
H    3.86722100e-01      8.25580828e-02      -8.89359832e-01     
H    -5.64602686e-01     1.06032611e+00      1.18678753e-01      
H    -7.13053644e-01     -5.98004691e-01     1.47611388e-01      
C    9.92722056e-01      8.47532809e-02      1.10734629e+00      
H    1.75955007e+00      8.30390660e-01      9.13186739e-01      
H    5.56320201e-01      2.65750376e-01      2.08794236e+00      
C    1.56218084e+00      -1.31706068e+00     1.03463438e+00      
O    1.13053323e+00      -2.15974772e+00     2.78956142e-01      
O    2.54602135e+00      -1.46177919e+00     1.91526202e+00      
H    2.85977387e+00      -2.38465684e+00     1.87095590e+00      
O    1.35807527e+00      -2.44567148e-01     -2.21071427e+00     
H    1.44215961e+00      1.94410377e-01      -3.06203571e+00     
H    1.55394846e+00      -1.17274718e+00     -2.37107765e+00     
14
546.519935
N    -5.59163533e-02     1.80691620e-01      5.73415175e-02      
H    3.89803962e-01      8.77736246e-02      -8.89362286e-01     
H    -5.68928664e-01     1.05865035e+00      1.19893053e-01      
H    -7.09151800e-01     -6.00495047e-01     1.41304898e-01      
C    9.91878982e-01      8.54286453e-02      1.10809461e+00      
H    1.76863723e+00      8.16985996e-01      8.99142867e-01      
H    5.62282377e-01      2.87994394e-01      2.08725446e+00      
C    1.55486384e+00      -1.31996990e+00     1.04209550e+00      
O    1.13348107e+00      -2.15954230e+00     2.77227924e-01      
O    2.54641645e+00      -1.46217123e+00     1.91437452e+00      
H    2.88180565e+00      -2.37583908e+00     1.84506644e+00      
O    1.35805141e+00      -2.45078020e-01     -2.21057477e+00     
H    1.43987757e+00      1.96513965e-01      -3.06075929e+00     
H    1.55570008e+00      -1.17236080e+00     -2.37356121e+00     
14
546.519935
N    -5.58214254e-02     1.80987993e-01      5.71341279e-02      
H    3.90574427e-01      8.90775100e-02      -8.89362899e-01     
H    -5.70010158e-01     1.05823141e+00      1.20196629e-01      
H    -7.08176340e-01     -6.01117636e-01     1.39728276e-01      
C    9.91668214e-01      8.55974865e-02      1.10828170e+00      
H    1.77090902e+00      8.13634830e-01      8.95631899e-01      
H    5.63772921e-01      2.93555399e-01      2.08708249e+00      
C    1.55303458e+00      -1.32069721e+00     1.04396079e+00      
O    1.13421804e+00      -2.15949095e+00     2.76795870e-01      
O    2.54651523e+00      -1.46226925e+00     1.91415265e+00      
H    2.88731360e+00      -2.37363464e+00     1.83859408e+00      
O    1.35804545e+00      -2.45205739e-01     -2.21053990e+00     
H    1.43930706e+00      1.97039861e-01      -3.06044019e+00     
H    1.55613799e+00      -1.17226421e+00     -2.37418211e+00     
14
546.519935
N    -5.57264975e-02     1.81284366e-01      5.69267382e-02      
H    3.91344892e-01      9.03813955e-02      -8.89363512e-01     
H    -5.71091653e-01     1.05781247e+00      1.20500204e-01      
H    -7.07200879e-01     -6.01740224e-01     1.38151654e-01      
C    9.91457445e-01      8.57663276e-02      1.10846878e+00      
H    1.77318082e+00      8.10283664e-01      8.92120931e-01      
H    5.65263465e-01      2.99116403e-01      2.08691052e+00      
C    1.55120533e+00      -1.32142452e+00     1.04582607e+00      
O    1.13495500e+00      -2.15943959e+00     2.76363816e-01      
O    2.54661400e+00      -1.46236726e+00     1.91393077e+00      
H    2.89282154e+00      -2.37143019e+00     1.83212171e+00      
O    1.35803948e+00      -2.45333457e-01     -2.21050502e+00     
H    1.43873655e+00      1.97565758e-01      -3.06012108e+00     
H    1.55657590e+00      -1.17216762e+00     -2.37480300e+00     
14
546.519935
N    -5.55366416e-02     1.81877113e-01      5.65119588e-02      
H    3.92885823e-01      9.29891664e-02      -8.89364739e-01     
H    -5.73254641e-01     1.05697458e+00      1.21107354e-01      
H    -7.05249957e-01     -6.02985402e-01     1.34998409e-01      
C    9.91035908e-01      8.61040098e-02      1.10884294e+00      
H    1.77772440e+00      8.03581332e-01      8.85098995e-01      
H    5.68244554e-01      3.10238413e-01      2.08656657e+00      
C    1.54754683e+00      -1.32287913e+00     1.04955663e+00      
O    1.13642892e+00      -2.15933688e+00     2.75499707e-01      
O    2.54681155e+00      -1.46256328e+00     1.91348702e+00      
H    2.90383743e+00      -2.36702131e+00     1.81917699e+00      
O    1.35802755e+00      -2.45588893e-01     -2.21043528e+00     
H    1.43759554e+00      1.98617552e-01      -3.05948287e+00     
H    1.55745171e+00      -1.17197443e+00     -2.37604478e+00     
14
546.519935
N    -5.53467858e-02     1.82469860e-01      5.60971795e-02      
H    3.94426753e-01      9.55969373e-02      -8.89365966e-01     
H    -5.75417630e-01     1.05613670e+00      1.21714505e-01      
H    -7.03299036e-01     -6.04230580e-01     1.31845164e-01      
C    9.90614371e-01      8.64416921e-02      1.10921711e+00      
H    1.78226798e+00      7.96879000e-01      8.78077059e-01      
H    5.71225642e-01      3.21360422e-01      2.08622263e+00      
C    1.54388832e+00      -1.32433375e+00     1.05328720e+00      
O    1.13790284e+00      -2.15923418e+00     2.74635599e-01      
O    2.54700911e+00      -1.46275931e+00     1.91304327e+00      
H    2.91485332e+00      -2.36261243e+00     1.80623226e+00      
O    1.35801563e+00      -2.45844330e-01     -2.21036553e+00     
H    1.43645452e+00      1.99669346e-01      -3.05884466e+00     
H    1.55832753e+00      -1.17178124e+00     -2.37728657e+00     
14
546.519935
N    -5.51569299e-02     1.83062606e-01      5.56824001e-02      
H    3.95967684e-01      9.82047082e-02      -8.89367192e-01     
H    -5.77580619e-01     1.05529882e+00      1.22321655e-01      
H    -7.01348114e-01     -6.05475758e-01     1.28691920e-01      
C    9.90192834e-01      8.67793743e-02      1.10959127e+00      
H    1.78681156e+00      7.90176668e-01      8.71055123e-01      
H    5.74206730e-01      3.32482431e-01      2.08587868e+00      
C    1.54022982e+00      -1.32578836e+00     1.05701776e+00      
O    1.13937677e+00      -2.15913147e+00     2.73771490e-01      
O    2.54720666e+00      -1.46295533e+00     1.91259952e+00      
H    2.92586921e+00      -2.35820354e+00     1.79328753e+00      
O    1.35800370e+00      -2.46099766e-01     -2.21029578e+00     
H    1.43531350e+00      2.00721139e-01      -3.05820645e+00     
H    1.55920334e+00      -1.17158806e+00     -2.37852835e+00     
14
546.519935
N    -5.49670740e-02     1.83655353e-01      5.52676208e-02      
H    3.97508614e-01      1.00812479e-01      -8.89368419e-01     
H    -5.79743608e-01     1.05446094e+00      1.22928806e-01      
H    -6.99397193e-01     -6.06720935e-01     1.25538675e-01      
C    9.89771297e-01      8.71170565e-02      1.10996544e+00      
H    1.79135515e+00      7.83474337e-01      8.64033187e-01      
H    5.77187818e-01      3.43604440e-01      2.08553473e+00      
C    1.53657132e+00      -1.32724298e+00     1.06074833e+00      
O    1.14085069e+00      -2.15902876e+00     2.72907382e-01      
O    2.54740421e+00      -1.46315136e+00     1.91215577e+00      
H    2.93688510e+00      -2.35379466e+00     1.78034280e+00      
O    1.35799177e+00      -2.46355203e-01     -2.21022603e+00     
H    1.43417248e+00      2.01772933e-01      -3.05756824e+00     
H    1.56007916e+00      -1.17139487e+00     -2.37977013e+00     
14
546.519935
N    -5.45873623e-02     1.84840847e-01      5.44380621e-02      
H    4.00590475e-01      1.06028021e-01      -8.89370872e-01     
H    -5.84069586e-01     1.05278517e+00      1.24143106e-01      
H    -6.95495350e-01     -6.09211291e-01     1.19232185e-01      
C    9.88928224e-01      8.77924210e-02      1.11071377e+00      
H    1.80044231e+00      7.70069673e-01      8.49989316e-01      
H    5.83149995e-01      3.65848458e-01      2.08484684e+00      
C    1.52925431e+00      -1.33015221e+00     1.06820946e+00      
O    1.14379854e+00      -2.15882334e+00     2.71179165e-01      
O    2.54779931e+00      -1.46354341e+00     1.91126827e+00      
H    2.95891688e+00      -2.34497689e+00     1.75445335e+00      
O    1.35796791e+00      -2.46866076e-01     -2.21008654e+00     
H    1.43189045e+00      2.03876520e-01      -3.05629182e+00     
H    1.56183079e+00      -1.17100850e+00     -2.38225370e+00     
