14
493.296064
N    -8.62418748e-02     2.11935598e-01      4.39641790e-02      
H    3.61286012e-01      1.60341465e-01      -9.04795699e-01     
H    -6.30249158e-01     1.06919915e+00      1.54703500e-01      
H    -7.09266429e-01     -5.99051277e-01     9.47210187e-02      
C    9.76447507e-01      9.90706087e-02      1.09455944e+00      
H    1.73194386e+00      8.57635961e-01      9.04708986e-01      
H    5.33640062e-01      2.78582457e-01      2.07276852e+00      
C    1.57412945e+00      -1.30821596e+00     1.04230282e+00      
O    1.15286977e+00      -2.16582050e+00     2.99097274e-01      
O    2.56119294e+00      -1.49824219e+00     1.91721321e+00      
H    2.83044900e+00      -2.43471444e+00     1.83049693e+00      
O    1.36124478e+00      -2.56088560e-01     -2.20811996e+00     
H    1.38758035e+00      2.40998163e-01      -3.03538369e+00     
H    1.59743630e+00      -1.16341062e+00     -2.43477280e+00     
14
493.296064
N    -7.87079584e-02     2.03976417e-01      4.74122085e-02      
H    3.68030266e-01      1.41547562e-01      -9.00937039e-01     
H    -6.14378287e-01     1.06677142e+00      1.45849101e-01      
H    -7.09725503e-01     -5.99100925e-01     1.07155300e-01      
C    9.80410760e-01      9.55756973e-02      1.09784969e+00      
H    1.73998131e+00      8.49149053e-01      9.05072940e-01      
H    5.40055368e-01      2.78154939e-01      2.07647599e+00      
C    1.57022767e+00      -1.31079079e+00     1.04131835e+00      
O    1.14765412e+00      -2.16427663e+00     2.93845964e-01      
O    2.55744943e+00      -1.48917544e+00     1.91661448e+00      
H    2.84053419e+00      -2.42109782e+00     1.83737549e+00      
O    1.36044942e+00      -2.53272066e-01     -2.20875110e+00     
H    1.40093991e+00      2.29614165e-01      -3.04188714e+00     
H    1.58678329e+00      -1.16569646e+00     -2.41915946e+00     
14
493.296064
N    -7.49410002e-02     1.99996826e-01      4.91362232e-02      
H    3.71402394e-01      1.32150611e-01      -8.99007709e-01     
H    -6.06442852e-01     1.06555756e+00      1.41421901e-01      
H    -7.09955039e-01     -5.99125749e-01     1.13372440e-01      
C    9.82392386e-01      9.38282416e-02      1.09949482e+00      
H    1.74400003e+00      8.44905599e-01      9.05254918e-01      
H    5.43263022e-01      2.77941180e-01      2.07832973e+00      
C    1.56827678e+00      -1.31207821e+00     1.04082612e+00      
O    1.14504629e+00      -2.16350469e+00     2.91220308e-01      
O    2.55557768e+00      -1.48464207e+00     1.91631511e+00      
H    2.84557678e+00      -2.41428951e+00     1.84081477e+00      
O    1.36005174e+00      -2.51863819e-01     -2.20906667e+00     
H    1.40761969e+00      2.23922166e-01      -3.04513887e+00     
H    1.58145679e+00      -1.16683938e+00     -2.41135279e+00     
14
493.296064
N    -7.11740420e-02     1.96017236e-01      5.08602379e-02      
H    3.74774521e-01      1.22753659e-01      -8.97078379e-01     
H    -5.98507417e-01     1.06434369e+00      1.36994701e-01      
H    -7.10184576e-01     -5.99150573e-01     1.19589581e-01      
C    9.84374013e-01      9.20807859e-02      1.10113994e+00      
H    1.74801875e+00      8.40662145e-01      9.05436895e-01      
H    5.46470675e-01      2.77727421e-01      2.08018346e+00      
C    1.56632589e+00      -1.31336562e+00     1.04033388e+00      
O    1.14243846e+00      -2.16273276e+00     2.88594653e-01      
O    2.55370592e+00      -1.48010870e+00     1.91601574e+00      
H    2.85061938e+00      -2.40748120e+00     1.84425405e+00      
O    1.35965406e+00      -2.50455572e-01     -2.20938224e+00     
H    1.41429947e+00      2.18230167e-01      -3.04839059e+00     
H    1.57613029e+00      -1.16798230e+00     -2.40354612e+00     
14
493.296064
N    -6.74070838e-02     1.92037645e-01      5.25842527e-02      
H    3.78146649e-01      1.13356708e-01      -8.95149049e-01     
H    -5.90571981e-01     1.06312983e+00      1.32567502e-01      
H    -7.10414112e-01     -5.99175397e-01     1.25806721e-01      
C    9.86355639e-01      9.03333302e-02      1.10278507e+00      
H    1.75203748e+00      8.36418690e-01      9.05618872e-01      
H    5.49678329e-01      2.77513662e-01      2.08203720e+00      
C    1.56437501e+00      -1.31465304e+00     1.03984165e+00      
O    1.13983063e+00      -2.16196082e+00     2.85968998e-01      
O    2.55183417e+00      -1.47557533e+00     1.91571637e+00      
H    2.85566197e+00      -2.40067289e+00     1.84769333e+00      
O    1.35925638e+00      -2.49047325e-01     -2.20969781e+00     
H    1.42097925e+00      2.12538168e-01      -3.05164232e+00     
H    1.57080378e+00      -1.16912522e+00     -2.39573944e+00     
14
493.296064
N    -6.36401256e-02     1.88058054e-01      5.43082674e-02      
H    3.81518776e-01      1.03959757e-01      -8.93219719e-01     
H    -5.82636546e-01     1.06191596e+00      1.28140302e-01      
H    -7.10643649e-01     -5.99200221e-01     1.32023862e-01      
C    9.88337266e-01      8.85858745e-02      1.10443020e+00      
H    1.75605620e+00      8.32175236e-01      9.05800849e-01      
H    5.52885982e-01      2.77299903e-01      2.08389094e+00      
C    1.56242412e+00      -1.31594046e+00     1.03934941e+00      
O    1.13722281e+00      -2.16118888e+00     2.83343343e-01      
O    2.54996241e+00      -1.47104195e+00     1.91541701e+00      
H    2.86070457e+00      -2.39386458e+00     1.85113261e+00      
O    1.35885870e+00      -2.47639078e-01     -2.21001338e+00     
H    1.42765903e+00      2.06846169e-01      -3.05489405e+00     
H    1.56547728e+00      -1.17026815e+00     -2.38793277e+00     
14
493.296064
N    -6.17566465e-02     1.86068259e-01      5.51702748e-02      
H    3.83204840e-01      9.92612808e-02      -8.92255054e-01     
H    -5.78668828e-01     1.06130903e+00      1.25926702e-01      
H    -7.10758417e-01     -5.99212633e-01     1.35132432e-01      
C    9.89328079e-01      8.77121466e-02      1.10525276e+00      
H    1.75806556e+00      8.30053509e-01      9.05891837e-01      
H    5.54489809e-01      2.77193024e-01      2.08481780e+00      
C    1.56144867e+00      -1.31658417e+00     1.03910329e+00      
O    1.13591889e+00      -2.16080291e+00     2.82030516e-01      
O    2.54902653e+00      -1.46877527e+00     1.91526732e+00      
H    2.86322587e+00      -2.39046042e+00     1.85285225e+00      
O    1.35865986e+00      -2.46934955e-01     -2.21017117e+00     
H    1.43099892e+00      2.04000170e-01      -3.05651991e+00     
H    1.56281403e+00      -1.17083961e+00     -2.38402944e+00     
14
493.296064
N    -5.98731674e-02     1.84078464e-01      5.60322822e-02      
H    3.84890904e-01      9.45628051e-02      -8.91290389e-01     
H    -5.74701110e-01     1.06070210e+00      1.23713103e-01      
H    -7.10873185e-01     -5.99225045e-01     1.38241002e-01      
C    9.90318892e-01      8.68384188e-02      1.10607532e+00      
H    1.76007493e+00      8.27931782e-01      9.05982826e-01      
H    5.56093636e-01      2.77086144e-01      2.08574467e+00      
C    1.56047323e+00      -1.31722787e+00     1.03885718e+00      
O    1.13461498e+00      -2.16041695e+00     2.80717688e-01      
O    2.54809066e+00      -1.46650858e+00     1.91511764e+00      
H    2.86574716e+00      -2.38705627e+00     1.85457189e+00      
O    1.35846102e+00      -2.46230831e-01     -2.21032895e+00     
H    1.43433881e+00      2.01154170e-01      -3.05814577e+00     
H    1.56015077e+00      -1.17141107e+00     -2.38012610e+00     
14
493.296064
N    -5.23392510e-02     1.76119282e-01      5.94803116e-02      
H    3.91635158e-01      7.57689023e-02      -8.87431729e-01     
H    -5.58830240e-01     1.05827436e+00      1.14858703e-01      
H    -7.11332259e-01     -5.99274693e-01     1.50675284e-01      
C    9.94282146e-01      8.33435074e-02      1.10936558e+00      
H    1.76811237e+00      8.19444874e-01      9.06346780e-01      
H    5.62508942e-01      2.76658626e-01      2.08945215e+00      
C    1.55657145e+00      -1.31980271e+00     1.03787270e+00      
O    1.12939932e+00      -2.15887307e+00     2.75466378e-01      
O    2.54434714e+00      -1.45744184e+00     1.91451890e+00      
H    2.87583236e+00      -2.37343965e+00     1.86145045e+00      
O    1.35766566e+00      -2.43414337e-01     -2.21096009e+00     
H    1.44769837e+00      1.89770172e-01      -3.06464923e+00     
H    1.54949777e+00      -1.17369691e+00     -2.36451276e+00     
14
493.296064
N    -5.04557719e-02     1.74129487e-01      6.03423190e-02      
H    3.93321222e-01      7.10704266e-02      -8.86467064e-01     
H    -5.54862522e-01     1.05766743e+00      1.12645104e-01      
H    -7.11447027e-01     -5.99287105e-01     1.53783854e-01      
C    9.95272959e-01      8.24697796e-02      1.11018814e+00      
H    1.77012174e+00      8.17323147e-01      9.06437769e-01      
H    5.64112769e-01      2.76551746e-01      2.09037902e+00      
C    1.55559601e+00      -1.32044641e+00     1.03762659e+00      
O    1.12809541e+00      -2.15848711e+00     2.74153550e-01      
O    2.54341127e+00      -1.45517515e+00     1.91436922e+00      
H    2.87835365e+00      -2.37003550e+00     1.86317009e+00      
O    1.35746682e+00      -2.42710213e-01     -2.21111787e+00     
H    1.45103826e+00      1.86924172e-01      -3.06627509e+00     
H    1.54683451e+00      -1.17426837e+00     -2.36060942e+00     
14
493.296064
N    -4.85722928e-02     1.72139692e-01      6.12043264e-02      
H    3.95007286e-01      6.63719508e-02      -8.85502399e-01     
H    -5.50894804e-01     1.05706050e+00      1.10431504e-01      
H    -7.11561795e-01     -5.99299517e-01     1.56892424e-01      
C    9.96263772e-01      8.15960517e-02      1.11101070e+00      
H    1.77213110e+00      8.15201420e-01      9.06528757e-01      
H    5.65716596e-01      2.76444867e-01      2.09130588e+00      
C    1.55462056e+00      -1.32109012e+00     1.03738047e+00      
O    1.12679149e+00      -2.15810114e+00     2.72840723e-01      
O    2.54247539e+00      -1.45290847e+00     1.91421953e+00      
H    2.88087495e+00      -2.36663134e+00     1.86488973e+00      
O    1.35726798e+00      -2.42006090e-01     -2.21127566e+00     
H    1.45437815e+00      1.84078173e-01      -3.06790095e+00     
H    1.54417126e+00      -1.17483983e+00     -2.35670609e+00     
14
493.296064
N    -4.48053346e-02     1.68160101e-01      6.29283411e-02      
H    3.98379413e-01      5.69749994e-02      -8.83573069e-01     
H    -5.42959369e-01     1.05584663e+00      1.06004304e-01      
H    -7.11791332e-01     -5.99324341e-01     1.63109565e-01      
C    9.98245399e-01      7.98485960e-02      1.11265583e+00      
H    1.77614982e+00      8.10957966e-01      9.06710734e-01      
H    5.68924249e-01      2.76231108e-01      2.09315962e+00      
C    1.55266967e+00      -1.32237754e+00     1.03688823e+00      
O    1.12418367e+00      -2.15732920e+00     2.70215068e-01      
O    2.54060363e+00      -1.44837509e+00     1.91392017e+00      
H    2.88591755e+00      -2.35982303e+00     1.86832901e+00      
O    1.35687030e+00      -2.40597843e-01     -2.21159123e+00     
H    1.46105793e+00      1.78386174e-01      -3.07115268e+00     
H    1.53884476e+00      -1.17598276e+00     -2.34889942e+00     
14
493.296064
N    -4.10383764e-02     1.64180510e-01      6.46523559e-02      
H    4.01751541e-01      4.75780480e-02      -8.81643739e-01     
H    -5.35023933e-01     1.05463277e+00      1.01577105e-01      
H    -7.12020868e-01     -5.99349165e-01     1.69326705e-01      
C    1.00022703e+00      7.81011403e-02      1.11430096e+00      
H    1.78016855e+00      8.06714511e-01      9.06892711e-01      
H    5.72131903e-01      2.76017349e-01      2.09501336e+00      
C    1.55071879e+00      -1.32366496e+00     1.03639600e+00      
O    1.12157584e+00      -2.15655726e+00     2.67589413e-01      
O    2.53873188e+00      -1.44384172e+00     1.91362080e+00      
H    2.89096014e+00      -2.35301472e+00     1.87176829e+00      
O    1.35647262e+00      -2.39189596e-01     -2.21190680e+00     
H    1.46773771e+00      1.72694175e-01      -3.07440441e+00     
H    1.53351825e+00      -1.17712568e+00     -2.34109274e+00     
14
493.296064
N    -3.72714182e-02     1.60200920e-01      6.63763706e-02      
H    4.05123668e-01      3.81810965e-02      -8.79714409e-01     
H    -5.27088498e-01     1.05341890e+00      9.71499050e-02      
H    -7.12250405e-01     -5.99373989e-01     1.75543846e-01      
C    1.00220865e+00      7.63536846e-02      1.11594608e+00      
H    1.78418727e+00      8.02471057e-01      9.07074688e-01      
H    5.75339556e-01      2.75803590e-01      2.09686709e+00      
C    1.54876790e+00      -1.32495237e+00     1.03590376e+00      
O    1.11896801e+00      -2.15578533e+00     2.64963758e-01      
O    2.53686012e+00      -1.43930835e+00     1.91332143e+00      
H    2.89600274e+00      -2.34620641e+00     1.87520757e+00      
O    1.35607494e+00      -2.37781349e-01     -2.21222237e+00     
H    1.47441749e+00      1.67002176e-01      -3.07765613e+00     
H    1.52819175e+00      -1.17826860e+00     -2.33328607e+00     
14
493.296064
N    -3.35044600e-02     1.56221329e-01      6.81003853e-02      
H    4.08495796e-01      2.87841451e-02      -8.77785079e-01     
H    -5.19153063e-01     1.05220504e+00      9.27227054e-02      
H    -7.12479941e-01     -5.99398813e-01     1.81760986e-01      
C    1.00419028e+00      7.46062289e-02      1.11759121e+00      
H    1.78820599e+00      7.98227603e-01      9.07256666e-01      
H    5.78547210e-01      2.75589831e-01      2.09872083e+00      
C    1.54681701e+00      -1.32623979e+00     1.03541153e+00      
O    1.11636018e+00      -2.15501339e+00     2.62338102e-01      
O    2.53498837e+00      -1.43477498e+00     1.91302206e+00      
H    2.90104533e+00      -2.33939810e+00     1.87864685e+00      
O    1.35567726e+00      -2.36373102e-01     -2.21253794e+00     
H    1.48109727e+00      1.61310177e-01      -3.08090786e+00     
H    1.52286525e+00      -1.17941152e+00     -2.32547940e+00     
14
493.296064
N    -2.59705436e-02     1.48262148e-01      7.15484148e-02      
H    4.15240050e-01      9.99024226e-03      -8.73926419e-01     
H    -5.03282192e-01     1.04977731e+00      8.38683063e-02      
H    -7.12939015e-01     -5.99448461e-01     1.94195267e-01      
C    1.00815353e+00      7.11113175e-02      1.12088146e+00      
H    1.79624344e+00      7.89740695e-01      9.07620620e-01      
H    5.84962516e-01      2.75162313e-01      2.10242830e+00      
C    1.54291523e+00      -1.32881462e+00     1.03442706e+00      
O    1.11114453e+00      -2.15346952e+00     2.57086792e-01      
O    2.53124486e+00      -1.42570823e+00     1.91242333e+00      
H    2.91113052e+00      -2.32578148e+00     1.88552541e+00      
O    1.35488190e+00      -2.33556608e-01     -2.21316908e+00     
H    1.49445683e+00      1.49926179e-01      -3.08741131e+00     
H    1.51221224e+00      -1.18169736e+00     -2.30986606e+00     
