14
1459.812730
N    -5.42606514e-02     1.73003066e-01      5.54961126e-02      
H    3.92076310e-01      1.13885729e-01      -8.93753114e-01     
H    -5.60768693e-01     1.05522446e+00      1.39299140e-01      
H    -7.40270463e-01     -5.78581474e-01     1.47875228e-01      
C    9.70966833e-01      1.19612318e-01      1.10127000e+00      
H    1.84872380e+00      7.48870420e-01      9.00872229e-01      
H    5.90485118e-01      1.78369409e-01      2.13104881e+00      
C    1.59576383e+00      -1.35580839e+00     1.05852550e+00      
O    1.12945692e+00      -2.15239737e+00     2.78603076e-01      
O    2.53276412e+00      -1.45205315e+00     1.90594022e+00      
H    2.81267503e+00      -2.38746650e+00     1.80109482e+00      
O    1.35815207e+00      -2.45398363e-01     -2.21083063e+00     
H    1.43888397e+00      1.99254265e-01      -3.05928077e+00     
H    1.55616577e+00      -1.17269452e+00     -2.37081172e+00     
14
1459.812730
N    -5.47220408e-02     1.74777018e-01      5.60611587e-02      
H    3.91122991e-01      1.06705760e-01      -8.92655100e-01     
H    -5.62267938e-01     1.05629040e+00      1.34295831e-01      
H    -7.32978528e-01     -5.83748573e-01     1.47020957e-01      
C    9.76300254e-01      1.10981979e-01      1.10288261e+00      
H    1.82756626e+00      7.67574897e-01      9.02195373e-01      
H    5.82689161e-01      2.02995153e-01      2.12018621e+00      
C    1.58645346e+00      -1.34648511e+00     1.05348536e+00      
O    1.13009447e+00      -2.15420928e+00     2.78475315e-01      
O    2.53612781e+00      -1.45453366e+00     1.90815973e+00      
H    2.82720371e+00      -2.38566186e+00     1.81532391e+00      
O    1.35812989e+00      -2.45254418e-01     -2.21078410e+00     
H    1.43941763e+00      1.98306242e-01      -3.05980995e+00     
H    1.55583040e+00      -1.17265939e+00     -2.37118864e+00     
14
1459.812730
N    -5.49527355e-02     1.75663994e-01      5.63436817e-02      
H    3.90646331e-01      1.03115776e-01      -8.92106093e-01     
H    -5.63017561e-01     1.05682337e+00      1.31794176e-01      
H    -7.29332560e-01     -5.86332122e-01     1.46593821e-01      
C    9.78966965e-01      1.06666810e-01      1.10368892e+00      
H    1.81698749e+00      7.76927136e-01      9.02856944e-01      
H    5.78791182e-01      2.15308025e-01      2.11475491e+00      
C    1.58179827e+00      -1.34182348e+00     1.05096529e+00      
O    1.13041325e+00      -2.15511523e+00     2.78411435e-01      
O    2.53780966e+00      -1.45577392e+00     1.90926949e+00      
H    2.83446805e+00      -2.38475955e+00     1.82243845e+00      
O    1.35811880e+00      -2.45182446e-01     -2.21076084e+00     
H    1.43968445e+00      1.97832230e-01      -3.06007454e+00     
H    1.55566271e+00      -1.17264182e+00     -2.37137711e+00     
14
1459.812730
N    -5.51834303e-02     1.76550969e-01      5.66262048e-02      
H    3.90169671e-01      9.95257912e-02      -8.91557086e-01     
H    -5.63767184e-01     1.05735635e+00      1.29292521e-01      
H    -7.25686593e-01     -5.88915672e-01     1.46166686e-01      
C    9.81633676e-01      1.02351641e-01      1.10449522e+00      
H    1.80640872e+00      7.86279374e-01      9.03518516e-01      
H    5.74893204e-01      2.27620897e-01      2.10932361e+00      
C    1.57714309e+00      -1.33716184e+00     1.04844522e+00      
O    1.13073203e+00      -2.15602119e+00     2.78347555e-01      
O    2.53949151e+00      -1.45701418e+00     1.91037924e+00      
H    2.84173240e+00      -2.38385723e+00     1.82955299e+00      
O    1.35810771e+00      -2.45110473e-01     -2.21073758e+00     
H    1.43995128e+00      1.97358218e-01      -3.06033914e+00     
H    1.55549502e+00      -1.17262426e+00     -2.37156557e+00     
14
1459.812730
N    -5.54141250e-02     1.77437945e-01      5.69087278e-02      
H    3.89693011e-01      9.59358068e-02      -8.91008080e-01     
H    -5.64516807e-01     1.05788932e+00      1.26790867e-01      
H    -7.22040625e-01     -5.91499221e-01     1.45739550e-01      
C    9.84300387e-01      9.80364712e-02      1.10530153e+00      
H    1.79582996e+00      7.95631613e-01      9.04180088e-01      
H    5.70995225e-01      2.39933769e-01      2.10389231e+00      
C    1.57248790e+00      -1.33250020e+00     1.04592515e+00      
O    1.13105081e+00      -2.15692714e+00     2.78283674e-01      
O    2.54117336e+00      -1.45825444e+00     1.91148900e+00      
H    2.84899674e+00      -2.38295491e+00     1.83666754e+00      
O    1.35809661e+00      -2.45038501e-01     -2.21071431e+00     
H    1.44021811e+00      1.96884206e-01      -3.06060373e+00     
H    1.55532733e+00      -1.17260669e+00     -2.37175404e+00     
14
1459.812730
N    -5.56448197e-02     1.78324921e-01      5.71912508e-02      
H    3.89216351e-01      9.23458224e-02      -8.90459073e-01     
H    -5.65266429e-01     1.05842229e+00      1.24289212e-01      
H    -7.18394657e-01     -5.94082770e-01     1.45312414e-01      
C    9.86967097e-01      9.37213019e-02      1.10610784e+00      
H    1.78525119e+00      8.04983851e-01      9.04841660e-01      
H    5.67097246e-01      2.52246641e-01      2.09846101e+00      
C    1.56783271e+00      -1.32783856e+00     1.04340508e+00      
O    1.13136959e+00      -2.15783310e+00     2.78219794e-01      
O    2.54285520e+00      -1.45949469e+00     1.91259876e+00      
H    2.85626108e+00      -2.38205259e+00     1.84378208e+00      
O    1.35808552e+00      -2.44966529e-01     -2.21069105e+00     
H    1.44048494e+00      1.96410195e-01      -3.06086832e+00     
H    1.55515965e+00      -1.17258912e+00     -2.37194250e+00     
14
1459.812730
N    -5.57601671e-02     1.78768409e-01      5.73325123e-02      
H    3.88978021e-01      9.05508303e-02      -8.90184569e-01     
H    -5.65641241e-01     1.05868877e+00      1.23038385e-01      
H    -7.16571673e-01     -5.95374545e-01     1.45098846e-01      
C    9.88300453e-01      9.15637172e-02      1.10651099e+00      
H    1.77996180e+00      8.09659970e-01      9.05172445e-01      
H    5.65148257e-01      2.58403077e-01      2.09574536e+00      
C    1.56550512e+00      -1.32550775e+00     1.04214504e+00      
O    1.13152898e+00      -2.15828608e+00     2.78187854e-01      
O    2.54369613e+00      -1.46011482e+00     1.91315364e+00      
H    2.85989325e+00      -2.38160144e+00     1.84733935e+00      
O    1.35807998e+00      -2.44930543e-01     -2.21067942e+00     
H    1.44061835e+00      1.96173189e-01      -3.06100061e+00     
H    1.55507580e+00      -1.17258034e+00     -2.37203673e+00     
14
1459.812730
N    -5.58755145e-02     1.79211897e-01      5.74737739e-02      
H    3.88739691e-01      8.87558381e-02      -8.89910066e-01     
H    -5.66016052e-01     1.05895526e+00      1.21787558e-01      
H    -7.14748690e-01     -5.96666320e-01     1.44885279e-01      
C    9.89633808e-01      8.94061325e-02      1.10691414e+00      
H    1.77467242e+00      8.14336090e-01      9.05503231e-01      
H    5.63199268e-01      2.64559513e-01      2.09302971e+00      
C    1.56317753e+00      -1.32317693e+00     1.04088501e+00      
O    1.13168837e+00      -2.15873905e+00     2.78155913e-01      
O    2.54453705e+00      -1.46073495e+00     1.91370851e+00      
H    2.86352542e+00      -2.38115028e+00     1.85089663e+00      
O    1.35807443e+00      -2.44894556e-01     -2.21066778e+00     
H    1.44075176e+00      1.95936183e-01      -3.06113291e+00     
H    1.55499196e+00      -1.17257156e+00     -2.37213097e+00     
14
1459.812730
N    -5.63369039e-02     1.80985849e-01      5.80388199e-02      
H    3.87786371e-01      8.15758693e-02      -8.88812052e-01     
H    -5.67515298e-01     1.06002120e+00      1.16784248e-01      
H    -7.07456754e-01     -6.01833418e-01     1.44031007e-01      
C    9.94967230e-01      8.07757937e-02      1.10852676e+00      
H    1.75351488e+00      8.33040566e-01      9.06826375e-01      
H    5.55403310e-01      2.89185257e-01      2.08216711e+00      
C    1.55386715e+00      -1.31385365e+00     1.03584487e+00      
O    1.13232593e+00      -2.16055097e+00     2.78028153e-01      
O    2.54790075e+00      -1.46321547e+00     1.91592803e+00      
H    2.87805410e+00      -2.37934564e+00     1.86512571e+00      
O    1.35805225e+00      -2.44750612e-01     -2.21062126e+00     
H    1.44128542e+00      1.94988159e-01      -3.06166209e+00     
H    1.55465658e+00      -1.17253642e+00     -2.37250789e+00     
14
1459.812730
N    -5.64522513e-02     1.81429337e-01      5.81800815e-02      
H    3.87548041e-01      7.97808771e-02      -8.88537549e-01     
H    -5.67890109e-01     1.06028769e+00      1.15533421e-01      
H    -7.05633771e-01     -6.03125193e-01     1.43817440e-01      
C    9.96300585e-01      7.86182090e-02      1.10892991e+00      
H    1.74822550e+00      8.37716686e-01      9.07157161e-01      
H    5.53454321e-01      2.95341693e-01      2.07945146e+00      
C    1.55153956e+00      -1.31152283e+00     1.03458484e+00      
O    1.13248532e+00      -2.16100394e+00     2.77996212e-01      
O    2.54874167e+00      -1.46383560e+00     1.91648290e+00      
H    2.88168627e+00      -2.37889448e+00     1.86868299e+00      
O    1.35804670e+00      -2.44714625e-01     -2.21060962e+00     
H    1.44141883e+00      1.94751153e-01      -3.06179439e+00     
H    1.55457274e+00      -1.17252764e+00     -2.37260213e+00     
14
1459.812730
N    -5.65675987e-02     1.81872825e-01      5.83213430e-02      
H    3.87309711e-01      7.79858850e-02      -8.88263045e-01     
H    -5.68264921e-01     1.06055417e+00      1.14282594e-01      
H    -7.03810787e-01     -6.04416968e-01     1.43603872e-01      
C    9.97633941e-01      7.64606243e-02      1.10933306e+00      
H    1.74293611e+00      8.42392805e-01      9.07487946e-01      
H    5.51505332e-01      3.01498129e-01      2.07673581e+00      
C    1.54921197e+00      -1.30919202e+00     1.03332480e+00      
O    1.13264471e+00      -2.16145692e+00     2.77964272e-01      
O    2.54958260e+00      -1.46445573e+00     1.91703778e+00      
H    2.88531844e+00      -2.37844333e+00     1.87224026e+00      
O    1.35804116e+00      -2.44678639e-01     -2.21059799e+00     
H    1.44155224e+00      1.94514147e-01      -3.06192668e+00     
H    1.55448889e+00      -1.17251886e+00     -2.37269636e+00     
14
1459.812730
N    -5.67982934e-02     1.82759801e-01      5.86038660e-02      
H    3.86833051e-01      7.43959006e-02      -8.87714038e-01     
H    -5.69014543e-01     1.06108714e+00      1.11780939e-01      
H    -7.00164819e-01     -6.07000517e-01     1.43176736e-01      
C    1.00030065e+00      7.21454550e-02      1.11013937e+00      
H    1.73235734e+00      8.51745043e-01      9.08149518e-01      
H    5.47607353e-01      3.13811001e-01      2.07130451e+00      
C    1.54455678e+00      -1.30453038e+00     1.03080473e+00      
O    1.13296349e+00      -2.16236288e+00     2.77900392e-01      
O    2.55126444e+00      -1.46569598e+00     1.91814754e+00      
H    2.89258278e+00      -2.37754101e+00     1.87935480e+00      
O    1.35803007e+00      -2.44606667e-01     -2.21057473e+00     
H    1.44181907e+00      1.94040136e-01      -3.06219127e+00     
H    1.55432121e+00      -1.17250129e+00     -2.37288482e+00     
14
1459.812730
N    -5.70289881e-02     1.83646777e-01      5.88863890e-02      
H    3.86356391e-01      7.08059162e-02      -8.87165032e-01     
H    -5.69764166e-01     1.06162011e+00      1.09279285e-01      
H    -6.96518851e-01     -6.09584066e-01     1.42749600e-01      
C    1.00296736e+00      6.78302856e-02      1.11094568e+00      
H    1.72177858e+00      8.61097282e-01      9.08811090e-01      
H    5.43709374e-01      3.26123873e-01      2.06587321e+00      
C    1.53990159e+00      -1.29986874e+00     1.02828466e+00      
O    1.13328227e+00      -2.16326883e+00     2.77836511e-01      
O    2.55294629e+00      -1.46693624e+00     1.91925730e+00      
H    2.89984712e+00      -2.37663869e+00     1.88646935e+00      
O    1.35801897e+00      -2.44534695e-01     -2.21055146e+00     
H    1.44208590e+00      1.93566124e-01      -3.06245586e+00     
H    1.55415352e+00      -1.17248372e+00     -2.37307329e+00     
14
1459.812730
N    -5.72596829e-02     1.84533752e-01      5.91689121e-02      
H    3.85879731e-01      6.72159319e-02      -8.86616025e-01     
H    -5.70513789e-01     1.06215309e+00      1.06777630e-01      
H    -6.92872884e-01     -6.12167616e-01     1.42322465e-01      
C    1.00563407e+00      6.35151162e-02      1.11175198e+00      
H    1.71119981e+00      8.70449520e-01      9.09472662e-01      
H    5.39811396e-01      3.38436745e-01      2.06044191e+00      
C    1.53524641e+00      -1.29520710e+00     1.02576459e+00      
O    1.13360105e+00      -2.16417479e+00     2.77772631e-01      
O    2.55462814e+00      -1.46817650e+00     1.92036705e+00      
H    2.90711147e+00      -2.37573637e+00     1.89358389e+00      
O    1.35800788e+00      -2.44462722e-01     -2.21052820e+00     
H    1.44235273e+00      1.93092112e-01      -3.06272046e+00     
H    1.55398583e+00      -1.17246616e+00     -2.37326175e+00     
14
1459.812730
N    -5.74903776e-02     1.85420728e-01      5.94514351e-02      
H    3.85403071e-01      6.36259475e-02      -8.86067018e-01     
H    -5.71263412e-01     1.06268606e+00      1.04275975e-01      
H    -6.89226916e-01     -6.14751165e-01     1.41895329e-01      
C    1.00830078e+00      5.91999468e-02      1.11255829e+00      
H    1.70062104e+00      8.79801759e-01      9.10134233e-01      
H    5.35913417e-01      3.50749617e-01      2.05501061e+00      
C    1.53059122e+00      -1.29054547e+00     1.02324452e+00      
O    1.13391983e+00      -2.16508074e+00     2.77708751e-01      
O    2.55630999e+00      -1.46941676e+00     1.92147681e+00      
H    2.91437581e+00      -2.37483406e+00     1.90069843e+00      
O    1.35799679e+00      -2.44390750e-01     -2.21050494e+00     
H    1.44261955e+00      1.92618100e-01      -3.06298505e+00     
H    1.55381814e+00      -1.17244859e+00     -2.37345022e+00     
14
1459.812730
N    -5.79517670e-02     1.87194680e-01      6.00164812e-02      
H    3.84449752e-01      5.64459787e-02      -8.84969004e-01     
H    -5.72762657e-01     1.06375200e+00      9.92726662e-02      
H    -6.81934981e-01     -6.19918264e-01     1.41041058e-01      
C    1.01363421e+00      5.05696081e-02      1.11417090e+00      
H    1.67946350e+00      8.98506236e-01      9.11457377e-01      
H    5.28117460e-01      3.75375361e-01      2.04414801e+00      
C    1.52128085e+00      -1.28122219e+00     1.01820438e+00      
O    1.13455738e+00      -2.16689265e+00     2.77580990e-01      
O    2.55967368e+00      -1.47189727e+00     1.92369632e+00      
H    2.92890449e+00      -2.37302942e+00     1.91492752e+00      
O    1.35797461e+00      -2.44246805e-01     -2.21045841e+00     
H    1.44315321e+00      1.91670077e-01      -3.06351423e+00     
H    1.55348277e+00      -1.17241346e+00     -2.37382714e+00     
