14
1097.293420
N    -4.75732947e-02     1.99722476e-01      7.33582982e-02      
H    4.09113934e-01      2.14710721e-02      -8.63509199e-01     
H    -6.31862067e-01     1.04306007e+00      2.81522679e-02      
H    -6.34537669e-01     -6.35430440e-01     2.04244026e-01      
C    9.67673597e-01      7.12113963e-02      1.08588169e+00      
H    1.79657635e+00      7.54875412e-01      9.07334067e-01      
H    5.76002324e-01      2.53990524e-01      2.08415016e+00      
C    1.55847957e+00      -1.31162838e+00     1.03344147e+00      
O    1.13017029e+00      -2.15915301e+00     2.77753761e-01      
O    2.55590476e+00      -1.46153273e+00     1.92493766e+00      
H    2.83847285e+00      -2.39327243e+00     1.82497999e+00      
O    1.35802968e+00      -2.43378867e-01     -2.21148272e+00     
H    1.44676102e+00      1.89787785e-01      -3.06540434e+00     
H    1.55103887e+00      -1.17299733e+00     -2.36756353e+00     
14
1097.293420
N    -4.97065233e-02     1.94816576e-01      6.94577979e-02      
H    4.03901208e-01      3.73947675e-02      -8.69972164e-01     
H    -6.15587969e-01     1.04716711e+00      5.09356767e-02      
H    -6.53678932e-01     -6.26385297e-01     1.89297555e-01      
C    9.73830328e-01      7.46812880e-02      1.09134138e+00      
H    1.78845568e+00      7.72078641e-01      9.07041751e-01      
H    5.71827065e-01      2.59710989e-01      2.08501222e+00      
C    1.55849026e+00      -1.31335011e+00     1.03467234e+00      
O    1.13062950e+00      -2.15927601e+00     2.77838329e-01      
O    2.55348329e+00      -1.46164335e+00     1.92240781e+00      
H    2.84655207e+00      -2.39001631e+00     1.83323778e+00      
O    1.35803810e+00      -2.43739796e-01     -2.21127317e+00     
H    1.44532542e+00      1.91206381e-01      -3.06440263e+00     
H    1.55198522e+00      -1.17288649e+00     -2.36875250e+00     
14
1097.293420
N    -5.07731377e-02     1.92363625e-01      6.75075477e-02      
H    4.01294845e-01      4.53566152e-02      -8.73203646e-01     
H    -6.07450920e-01     1.04922063e+00      6.23273811e-02      
H    -6.63249564e-01     -6.21862726e-01     1.81824320e-01      
C    9.76908693e-01      7.64162338e-02      1.09407123e+00      
H    1.78439534e+00      7.80680256e-01      9.06895593e-01      
H    5.69739436e-01      2.62571222e-01      2.08544325e+00      
C    1.55849561e+00      -1.31421097e+00     1.03528777e+00      
O    1.13085911e+00      -2.15933751e+00     2.77880613e-01      
O    2.55227256e+00      -1.46169866e+00     1.92114289e+00      
H    2.85059169e+00      -2.38838825e+00     1.83736668e+00      
O    1.35804231e+00      -2.43920261e-01     -2.21116840e+00     
H    1.44460761e+00      1.91915680e-01      -3.06390177e+00     
H    1.55245840e+00      -1.17283108e+00     -2.36934699e+00     
14
1097.293420
N    -5.18397520e-02     1.89910675e-01      6.55572976e-02      
H    3.98688482e-01      5.33184629e-02      -8.76435129e-01     
H    -5.99313871e-01     1.05127415e+00      7.37190855e-02      
H    -6.72820196e-01     -6.17340154e-01     1.74351085e-01      
C    9.79987058e-01      7.81511797e-02      1.09680107e+00      
H    1.78033500e+00      7.89281870e-01      9.06749435e-01      
H    5.67651806e-01      2.65431455e-01      2.08587429e+00      
C    1.55850095e+00      -1.31507184e+00     1.03590320e+00      
O    1.13108872e+00      -2.15939901e+00     2.77922897e-01      
O    2.55106183e+00      -1.46175397e+00     1.91987797e+00      
H    2.85463130e+00      -2.38676020e+00     1.84149558e+00      
O    1.35804651e+00      -2.44100726e-01     -2.21106362e+00     
H    1.44388981e+00      1.92624978e-01      -3.06340092e+00     
H    1.55293157e+00      -1.17277566e+00     -2.36994148e+00     
14
1097.293420
N    -5.29063663e-02     1.87457724e-01      6.36070474e-02      
H    3.96082119e-01      6.12803106e-02      -8.79666611e-01     
H    -5.91176822e-01     1.05332767e+00      8.51107898e-02      
H    -6.82390827e-01     -6.12817583e-01     1.66877849e-01      
C    9.83065423e-01      7.98861255e-02      1.09953092e+00      
H    1.77627466e+00      7.97883485e-01      9.06603277e-01      
H    5.65564177e-01      2.68291687e-01      2.08630532e+00      
C    1.55850630e+00      -1.31593270e+00     1.03651864e+00      
O    1.13131833e+00      -2.15946051e+00     2.77965181e-01      
O    2.54985110e+00      -1.46180928e+00     1.91861304e+00      
H    2.85867092e+00      -2.38513214e+00     1.84562448e+00      
O    1.35805072e+00      -2.44281190e-01     -2.21095885e+00     
H    1.44317200e+00      1.93334276e-01      -3.06290006e+00     
H    1.55340475e+00      -1.17272024e+00     -2.37053597e+00     
14
1097.293420
N    -5.39729806e-02     1.85004774e-01      6.16567972e-02      
H    3.93475757e-01      6.92421583e-02      -8.82898094e-01     
H    -5.83039773e-01     1.05538119e+00      9.65024942e-02      
H    -6.91961459e-01     -6.08295012e-01     1.59404614e-01      
C    9.86143789e-01      8.16210714e-02      1.10226076e+00      
H    1.77221433e+00      8.06485099e-01      9.06457119e-01      
H    5.63476548e-01      2.71151920e-01      2.08673635e+00      
C    1.55851165e+00      -1.31679356e+00     1.03713407e+00      
O    1.13154793e+00      -2.15952201e+00     2.78007465e-01      
O    2.54864036e+00      -1.46186459e+00     1.91734812e+00      
H    2.86271053e+00      -2.38350408e+00     1.84975337e+00      
O    1.35805493e+00      -2.44461655e-01     -2.21085407e+00     
H    1.44245420e+00      1.94043574e-01      -3.06239921e+00     
H    1.55387792e+00      -1.17266482e+00     -2.37113045e+00     
14
1097.293420
N    -5.45062877e-02     1.83778299e-01      6.06816721e-02      
H    3.92172575e-01      7.32230822e-02      -8.84513835e-01     
H    -5.78971248e-01     1.05640795e+00      1.02198346e-01      
H    -6.96746775e-01     -6.06033726e-01     1.55667996e-01      
C    9.87682971e-01      8.24885443e-02      1.10362568e+00      
H    1.77018416e+00      8.10785906e-01      9.06384040e-01      
H    5.62432733e-01      2.72582036e-01      2.08695186e+00      
C    1.55851432e+00      -1.31722399e+00     1.03744179e+00      
O    1.13166274e+00      -2.15955276e+00     2.78028607e-01      
O    2.54803500e+00      -1.46189224e+00     1.91671566e+00      
H    2.86473034e+00      -2.38269005e+00     1.85181782e+00      
O    1.35805703e+00      -2.44551887e-01     -2.21080168e+00     
H    1.44209530e+00      1.94398224e-01      -3.06214878e+00     
H    1.55411451e+00      -1.17263712e+00     -2.37142770e+00     
14
1097.293420
N    -5.50395949e-02     1.82551823e-01      5.97065471e-02      
H    3.90869394e-01      7.72040060e-02      -8.86129576e-01     
H    -5.74902724e-01     1.05743471e+00      1.07894199e-01      
H    -7.01532090e-01     -6.03772440e-01     1.51931378e-01      
C    9.89222154e-01      8.33560172e-02      1.10499061e+00      
H    1.76815399e+00      8.15086714e-01      9.06310961e-01      
H    5.61388918e-01      2.74012152e-01      2.08716738e+00      
C    1.55851699e+00      -1.31765443e+00     1.03774951e+00      
O    1.13177754e+00      -2.15958351e+00     2.78049749e-01      
O    2.54742963e+00      -1.46191990e+00     1.91608319e+00      
H    2.86675015e+00      -2.38187602e+00     1.85388227e+00      
O    1.35805913e+00      -2.44642119e-01     -2.21074930e+00     
H    1.44173639e+00      1.94752873e-01      -3.06189835e+00     
H    1.55435110e+00      -1.17260941e+00     -2.37172494e+00     
14
1097.293420
N    -5.71728235e-02     1.77645923e-01      5.58060467e-02      
H    3.85656668e-01      9.31277014e-02      -8.92592542e-01     
H    -5.58628626e-01     1.06154175e+00      1.30677607e-01      
H    -7.20673354e-01     -5.94727298e-01     1.36984908e-01      
C    9.95378884e-01      8.68259090e-02      1.11045029e+00      
H    1.76003331e+00      8.32289942e-01      9.06018645e-01      
H    5.57213660e-01      2.79732618e-01      2.08802944e+00      
C    1.55852769e+00      -1.31937615e+00     1.03898037e+00      
O    1.13223676e+00      -2.15970651e+00     2.78134317e-01      
O    2.54500817e+00      -1.46203052e+00     1.91355335e+00      
H    2.87482937e+00      -2.37861990e+00     1.86214007e+00      
O    1.35806755e+00      -2.45003049e-01     -2.21053974e+00     
H    1.44030079e+00      1.96171469e-01      -3.06089665e+00     
H    1.55529744e+00      -1.17249857e+00     -2.37291392e+00     
14
1097.293420
N    -5.77061307e-02     1.76419447e-01      5.48309217e-02      
H    3.84353487e-01      9.71086252e-02      -8.94208283e-01     
H    -5.54560102e-01     1.06256851e+00      1.36373460e-01      
H    -7.25458669e-01     -5.92466012e-01     1.33248290e-01      
C    9.96918067e-01      8.76933819e-02      1.11181522e+00      
H    1.75800314e+00      8.36590750e-01      9.05945566e-01      
H    5.56169845e-01      2.81162734e-01      2.08824496e+00      
C    1.55853036e+00      -1.31980659e+00     1.03928809e+00      
O    1.13235156e+00      -2.15973726e+00     2.78155459e-01      
O    2.54440280e+00      -1.46205818e+00     1.91292088e+00      
H    2.87684918e+00      -2.37780587e+00     1.86420452e+00      
O    1.35806965e+00      -2.45093281e-01     -2.21048736e+00     
H    1.43994188e+00      1.96526118e-01      -3.06064622e+00     
H    1.55553403e+00      -1.17247086e+00     -2.37321116e+00     
14
1097.293420
N    -5.82394378e-02     1.75192972e-01      5.38557966e-02      
H    3.83050305e-01      1.01089549e-01      -8.95824024e-01     
H    -5.50491577e-01     1.06359527e+00      1.42069312e-01      
H    -7.30243985e-01     -5.90204726e-01     1.29511672e-01      
C    9.98457249e-01      8.85608548e-02      1.11318014e+00      
H    1.75597297e+00      8.40891557e-01      9.05872487e-01      
H    5.55126030e-01      2.82592850e-01      2.08846047e+00      
C    1.55853303e+00      -1.32023702e+00     1.03959581e+00      
O    1.13246637e+00      -2.15976801e+00     2.78176601e-01      
O    2.54379744e+00      -1.46208583e+00     1.91228842e+00      
H    2.87886899e+00      -2.37699184e+00     1.86626897e+00      
O    1.35807175e+00      -2.45183513e-01     -2.21043497e+00     
H    1.43958298e+00      1.96880768e-01      -3.06039579e+00     
H    1.55577062e+00      -1.17244316e+00     -2.37350841e+00     
14
1097.293420
N    -5.93060521e-02     1.72740022e-01      5.19055464e-02      
H    3.80443943e-01      1.09051397e-01      -8.99055507e-01     
H    -5.42354528e-01     1.06564879e+00      1.53461016e-01      
H    -7.39814617e-01     -5.85682155e-01     1.22038437e-01      
C    1.00153561e+00      9.02958007e-02      1.11590998e+00      
H    1.75191264e+00      8.49493171e-01      9.05726329e-01      
H    5.53038401e-01      2.85453083e-01      2.08889150e+00      
C    1.55853838e+00      -1.32109788e+00     1.04021124e+00      
O    1.13269597e+00      -2.15982951e+00     2.78218885e-01      
O    2.54258670e+00      -1.46214114e+00     1.91102350e+00      
H    2.88290860e+00      -2.37536378e+00     1.87039786e+00      
O    1.35807596e+00      -2.45363978e-01     -2.21033019e+00     
H    1.43886518e+00      1.97590066e-01      -3.05989494e+00     
H    1.55624379e+00      -1.17238774e+00     -2.37410289e+00     
14
1097.293420
N    -6.03726664e-02     1.70287071e-01      4.99552962e-02      
H    3.77837580e-01      1.17013244e-01      -9.02286989e-01     
H    -5.34217479e-01     1.06770231e+00      1.64852721e-01      
H    -7.49385248e-01     -5.81159584e-01     1.14565201e-01      
C    1.00461398e+00      9.20307465e-02      1.11863983e+00      
H    1.74785230e+00      8.58094786e-01      9.05580171e-01      
H    5.50950772e-01      2.88313315e-01      2.08932253e+00      
C    1.55854373e+00      -1.32195874e+00     1.04082668e+00      
O    1.13292558e+00      -2.15989101e+00     2.78261169e-01      
O    2.54137597e+00      -1.46219645e+00     1.90975857e+00      
H    2.88694822e+00      -2.37373572e+00     1.87452676e+00      
O    1.35808017e+00      -2.45544442e-01     -2.21022542e+00     
H    1.43814737e+00      1.98299364e-01      -3.05939408e+00     
H    1.55671697e+00      -1.17233232e+00     -2.37469738e+00     
14
1097.293420
N    -6.14392807e-02     1.67834121e-01      4.80050461e-02      
H    3.75231217e-01      1.24975092e-01      -9.05518472e-01     
H    -5.26080430e-01     1.06975583e+00      1.76244425e-01      
H    -7.58955880e-01     -5.76637012e-01     1.07091966e-01      
C    1.00769235e+00      9.37656924e-02      1.12136967e+00      
H    1.74379196e+00      8.66696400e-01      9.05434013e-01      
H    5.48863142e-01      2.91173548e-01      2.08975357e+00      
C    1.55854907e+00      -1.32281961e+00     1.04144211e+00      
O    1.13315519e+00      -2.15995251e+00     2.78303453e-01      
O    2.54016524e+00      -1.46225176e+00     1.90849365e+00      
H    2.89098783e+00      -2.37210767e+00     1.87865566e+00      
O    1.35808437e+00      -2.45724907e-01     -2.21012064e+00     
H    1.43742957e+00      1.99008662e-01      -3.05889323e+00     
H    1.55719014e+00      -1.17227690e+00     -2.37529187e+00     
14
1097.293420
N    -6.25058951e-02     1.65381170e-01      4.60547959e-02      
H    3.72624854e-01      1.32936940e-01      -9.08749954e-01     
H    -5.17943381e-01     1.07180935e+00      1.87636129e-01      
H    -7.68526512e-01     -5.72114441e-01     9.96187305e-02      
C    1.01077071e+00      9.55006382e-02      1.12409952e+00      
H    1.73973162e+00      8.75298015e-01      9.05287855e-01      
H    5.46775513e-01      2.94033781e-01      2.09018460e+00      
C    1.55855442e+00      -1.32368047e+00     1.04205754e+00      
O    1.13338480e+00      -2.16001401e+00     2.78345737e-01      
O    2.53895451e+00      -1.46230707e+00     1.90722873e+00      
H    2.89502745e+00      -2.37047961e+00     1.88278456e+00      
O    1.35808858e+00      -2.45905372e-01     -2.21001587e+00     
H    1.43671176e+00      1.99717961e-01      -3.05839237e+00     
H    1.55766332e+00      -1.17222149e+00     -2.37588636e+00     
14
1097.293420
N    -6.46391237e-02     1.60475270e-01      4.21542956e-02      
H    3.67412128e-01      1.48860635e-01      -9.15212919e-01     
H    -5.01669283e-01     1.07591639e+00      2.10419538e-01      
H    -7.87667775e-01     -5.63069298e-01     8.46722597e-02      
C    1.01692744e+00      9.89705299e-02      1.12955921e+00      
H    1.73161095e+00      8.92501244e-01      9.04995539e-01      
H    5.42600254e-01      2.99754246e-01      2.09104666e+00      
C    1.55856511e+00      -1.32540220e+00     1.04328841e+00      
O    1.13384401e+00      -2.16013701e+00     2.78430305e-01      
O    2.53653304e+00      -1.46241769e+00     1.90469888e+00      
H    2.90310667e+00      -2.36722349e+00     1.89104235e+00      
O    1.35809700e+00      -2.46266301e-01     -2.20980632e+00     
H    1.43527616e+00      2.01136557e-01      -3.05739066e+00     
H    1.55860967e+00      -1.17211065e+00     -2.37707533e+00     
