14
1137.429397
N    -6.31171012e-02     1.79923271e-01      6.96850818e-02      
H    4.51611371e-01      8.65453922e-02      -8.48486116e-01     
H    -5.57620642e-01     1.07375354e+00      5.45113103e-02      
H    -7.19928447e-01     -6.06374320e-01     7.11872452e-02      
C    1.00387153e+00      8.95065917e-02      1.09098636e+00      
H    1.70738653e+00      9.00478684e-01      8.98722928e-01      
H    6.16410009e-01      1.76675502e-01      2.11234193e+00      
C    1.54300509e+00      -1.32416313e+00     1.05361467e+00      
O    1.13441095e+00      -2.15862198e+00     2.75216398e-01      
O    2.54940306e+00      -1.46096641e+00     1.91446547e+00      
H    2.86762226e+00      -2.38128038e+00     1.84943037e+00      
O    1.35787962e+00      -2.44737997e-01     -2.21133246e+00     
H    1.44076989e+00      1.95525647e-01      -3.06149913e+00     
H    1.55280097e+00      -1.17317650e+00     -2.36968115e+00     
14
1137.429397
N    -6.13643782e-02     1.79967172e-01      6.67028856e-02      
H    4.35774286e-01      8.62005076e-02      -8.58704852e-01     
H    -5.59906900e-01     1.07018721e+00      7.07049585e-02      
H    -7.17722016e-01     -6.04593208e-01     8.95049696e-02      
C    1.00097878e+00      8.84026846e-02      1.09516988e+00      
H    1.72156331e+00      8.81281095e-01      9.00583397e-01      
H    6.02132829e-01      2.01724723e-01      2.10615605e+00      
C    1.54688440e+00      -1.32275117e+00     1.04980224e+00      
O    1.13381000e+00      -2.15887773e+00     2.75935307e-01      
O    2.54860702e+00      -1.46121861e+00     1.91455367e+00      
H    2.86841413e+00      -2.38102228e+00     1.85157557e+00      
O    1.35792555e+00      -2.44759144e-01     -2.21116048e+00     
H    1.44083206e+00      1.95509778e-01      -3.06147373e+00     
H    1.55330679e+00      -1.17302087e+00     -2.37034072e+00     
14
1137.429397
N    -6.04880167e-02     1.79989122e-01      6.52117875e-02      
H    4.27855743e-01      8.60280653e-02      -8.63814219e-01     
H    -5.61050029e-01     1.06840405e+00      7.88017826e-02      
H    -7.16618800e-01     -6.03702651e-01     9.86638319e-02      
C    9.99532401e-01      8.78507310e-02      1.09726164e+00      
H    1.72865170e+00      8.71682300e-01      9.01513631e-01      
H    5.94994239e-01      2.14249333e-01      2.10306311e+00      
C    1.54882406e+00      -1.32204519e+00     1.04789602e+00      
O    1.13350953e+00      -2.15900561e+00     2.76294761e-01      
O    2.54820900e+00      -1.46134471e+00     1.91459777e+00      
H    2.86881007e+00      -2.38089322e+00     1.85264817e+00      
O    1.35794852e+00      -2.44769717e-01     -2.21107448e+00     
H    1.44086315e+00      1.95501844e-01      -3.06146102e+00     
H    1.55355971e+00      -1.17294306e+00     -2.37067050e+00     
14
1137.429397
N    -5.96116552e-02     1.80011072e-01      6.37206894e-02      
H    4.19937201e-01      8.58556229e-02      -8.68923587e-01     
H    -5.62193159e-01     1.06662088e+00      8.68986066e-02      
H    -7.15515585e-01     -6.02812095e-01     1.07822694e-01      
C    9.98086025e-01      8.72987774e-02      1.09935340e+00      
H    1.73574009e+00      8.62083506e-01      9.02443866e-01      
H    5.87855649e-01      2.26773944e-01      2.09997017e+00      
C    1.55076371e+00      -1.32133921e+00     1.04598981e+00      
O    1.13320905e+00      -2.15913349e+00     2.76654216e-01      
O    2.54781098e+00      -1.46147081e+00     1.91464187e+00      
H    2.86920601e+00      -2.38076417e+00     1.85372077e+00      
O    1.35797148e+00      -2.44780291e-01     -2.21098849e+00     
H    1.44089424e+00      1.95493909e-01      -3.06144832e+00     
H    1.55381262e+00      -1.17286524e+00     -2.37100029e+00     
14
1137.429397
N    -5.87352937e-02     1.80033022e-01      6.22295912e-02      
H    4.12018658e-01      8.56831806e-02      -8.74032955e-01     
H    -5.63336288e-01     1.06483772e+00      9.49954307e-02      
H    -7.14412369e-01     -6.01921538e-01     1.16981556e-01      
C    9.96639648e-01      8.67468238e-02      1.10144517e+00      
H    1.74282848e+00      8.52484711e-01      9.03374100e-01      
H    5.80717059e-01      2.39298554e-01      2.09687723e+00      
C    1.55270337e+00      -1.32063323e+00     1.04408359e+00      
O    1.13290858e+00      -2.15926137e+00     2.77013670e-01      
O    2.54741296e+00      -1.46159691e+00     1.91468597e+00      
H    2.86960195e+00      -2.38063512e+00     1.85479337e+00      
O    1.35799445e+00      -2.44790864e-01     -2.21090250e+00     
H    1.44092533e+00      1.95485975e-01      -3.06143561e+00     
H    1.55406553e+00      -1.17278743e+00     -2.37133007e+00     
14
1137.429397
N    -5.78589322e-02     1.80054973e-01      6.07384931e-02      
H    4.04100116e-01      8.55107383e-02      -8.79142323e-01     
H    -5.64479417e-01     1.06305456e+00      1.03092255e-01      
H    -7.13309153e-01     -6.01030982e-01     1.26140419e-01      
C    9.95193272e-01      8.61948703e-02      1.10353693e+00      
H    1.74991687e+00      8.42885917e-01      9.04304334e-01      
H    5.73578469e-01      2.51823164e-01      2.09378429e+00      
C    1.55464303e+00      -1.31992725e+00     1.04217737e+00      
O    1.13260810e+00      -2.15938925e+00     2.77373124e-01      
O    2.54701494e+00      -1.46172301e+00     1.91473007e+00      
H    2.86999788e+00      -2.38050607e+00     1.85586597e+00      
O    1.35801741e+00      -2.44801437e-01     -2.21081651e+00     
H    1.44095641e+00      1.95478040e-01      -3.06142291e+00     
H    1.55431844e+00      -1.17270962e+00     -2.37165986e+00     
14
1137.429397
N    -5.74207514e-02     1.80065948e-01      5.99929441e-02      
H    4.00140845e-01      8.54245172e-02      -8.81697007e-01     
H    -5.65050981e-01     1.06216298e+00      1.07140667e-01      
H    -7.12757546e-01     -6.00585704e-01     1.30719850e-01      
C    9.94470084e-01      8.59188935e-02      1.10458281e+00      
H    1.75346107e+00      8.38086520e-01      9.04769451e-01      
H    5.70009174e-01      2.58085469e-01      2.09223782e+00      
C    1.55561285e+00      -1.31957426e+00     1.04122426e+00      
O    1.13245786e+00      -2.15945319e+00     2.77552851e-01      
O    2.54681593e+00      -1.46178606e+00     1.91475212e+00      
H    2.87019585e+00      -2.38044154e+00     1.85640227e+00      
O    1.35802889e+00      -2.44806724e-01     -2.21077351e+00     
H    1.44097196e+00      1.95474073e-01      -3.06141656e+00     
H    1.55444490e+00      -1.17267071e+00     -2.37182475e+00     
14
1137.429397
N    -5.69825707e-02     1.80076923e-01      5.92473950e-02      
H    3.96181573e-01      8.53382960e-02      -8.84251691e-01     
H    -5.65622546e-01     1.06127139e+00      1.11189079e-01      
H    -7.12205938e-01     -6.00140425e-01     1.35299281e-01      
C    9.93746895e-01      8.56429167e-02      1.10562869e+00      
H    1.75700526e+00      8.33287122e-01      9.05234569e-01      
H    5.66439879e-01      2.64347775e-01      2.09069135e+00      
C    1.55658268e+00      -1.31922127e+00     1.04027116e+00      
O    1.13230763e+00      -2.15951713e+00     2.77732579e-01      
O    2.54661692e+00      -1.46184911e+00     1.91477417e+00      
H    2.87039382e+00      -2.38037701e+00     1.85693857e+00      
O    1.35804038e+00      -2.44812011e-01     -2.21073051e+00     
H    1.44098750e+00      1.95470106e-01      -3.06141020e+00     
H    1.55457136e+00      -1.17263180e+00     -2.37198964e+00     
14
1137.429397
N    -5.52298477e-02     1.80120823e-01      5.62651988e-02      
H    3.80344489e-01      8.49934114e-02      -8.94470427e-01     
H    -5.67908804e-01     1.05770507e+00      1.27382727e-01      
H    -7.09999506e-01     -5.98359313e-01     1.53617005e-01      
C    9.90854143e-01      8.45390095e-02      1.10981221e+00      
H    1.77118204e+00      8.14089534e-01      9.07095037e-01      
H    5.52162699e-01      2.89396995e-01      2.08450547e+00      
C    1.56046200e+00      -1.31780931e+00     1.03645872e+00      
O    1.13170667e+00      -2.15977289e+00     2.78451487e-01      
O    2.54582088e+00      -1.46210131e+00     1.91486237e+00      
H    2.87118570e+00      -2.38011891e+00     1.85908377e+00      
O    1.35808630e+00      -2.44833157e-01     -2.21055853e+00     
H    1.44104968e+00      1.95454236e-01      -3.06138480e+00     
H    1.55507718e+00      -1.17247618e+00     -2.37264922e+00     
14
1137.429397
N    -5.47916670e-02     1.80131798e-01      5.55196497e-02      
H    3.76385217e-01      8.49071902e-02      -8.97025111e-01     
H    -5.68480369e-01     1.05681348e+00      1.31431139e-01      
H    -7.09447898e-01     -5.97914034e-01     1.58196436e-01      
C    9.90130954e-01      8.42630327e-02      1.11085809e+00      
H    1.77472623e+00      8.09290136e-01      9.07560155e-01      
H    5.48593404e-01      2.95659301e-01      2.08295900e+00      
C    1.56143183e+00      -1.31745632e+00     1.03550562e+00      
O    1.13155644e+00      -2.15983683e+00     2.78631215e-01      
O    2.54562187e+00      -1.46216436e+00     1.91488442e+00      
H    2.87138367e+00      -2.38005438e+00     1.85962007e+00      
O    1.35809779e+00      -2.44838444e-01     -2.21051553e+00     
H    1.44106522e+00      1.95450269e-01      -3.06137844e+00     
H    1.55520364e+00      -1.17243727e+00     -2.37281411e+00     
14
1137.429397
N    -5.43534862e-02     1.80142773e-01      5.47741007e-02      
H    3.72425946e-01      8.48209691e-02      -8.99579795e-01     
H    -5.69051933e-01     1.05592190e+00      1.35479551e-01      
H    -7.08896291e-01     -5.97468756e-01     1.62775867e-01      
C    9.89407766e-01      8.39870559e-02      1.11190397e+00      
H    1.77827043e+00      8.04490739e-01      9.08025272e-01      
H    5.45024109e-01      3.01921606e-01      2.08141253e+00      
C    1.56240165e+00      -1.31710333e+00     1.03455251e+00      
O    1.13140620e+00      -2.15990077e+00     2.78810942e-01      
O    2.54542286e+00      -1.46222741e+00     1.91490647e+00      
H    2.87158164e+00      -2.37998985e+00     1.86015637e+00      
O    1.35810927e+00      -2.44843731e-01     -2.21047253e+00     
H    1.44108077e+00      1.95446302e-01      -3.06137209e+00     
H    1.55533010e+00      -1.17239836e+00     -2.37297900e+00     
14
1137.429397
N    -5.34771247e-02     1.80164724e-01      5.32830026e-02      
H    3.64507404e-01      8.46485268e-02      -9.04689163e-01     
H    -5.70195062e-01     1.05413874e+00      1.43576375e-01      
H    -7.07793075e-01     -5.96578200e-01     1.71934730e-01      
C    9.87961390e-01      8.34351024e-02      1.11399573e+00      
H    1.78535882e+00      7.94891945e-01      9.08955506e-01      
H    5.37885519e-01      3.14446216e-01      2.07831959e+00      
C    1.56434131e+00      -1.31639735e+00     1.03264629e+00      
O    1.13110572e+00      -2.16002865e+00     2.79170396e-01      
O    2.54502484e+00      -1.46235351e+00     1.91495057e+00      
H    2.87197757e+00      -2.37986080e+00     1.86122897e+00      
O    1.35813223e+00      -2.44854304e-01     -2.21038654e+00     
H    1.44111185e+00      1.95438367e-01      -3.06135939e+00     
H    1.55558301e+00      -1.17232055e+00     -2.37330879e+00     
14
1137.429397
N    -5.26007632e-02     1.80186674e-01      5.17919044e-02      
H    3.56588861e-01      8.44760845e-02      -9.09798531e-01     
H    -5.71338191e-01     1.05235558e+00      1.51673199e-01      
H    -7.06689859e-01     -5.95687643e-01     1.81093592e-01      
C    9.86515013e-01      8.28831488e-02      1.11608750e+00      
H    1.79244721e+00      7.85293150e-01      9.09885740e-01      
H    5.30746929e-01      3.26970826e-01      2.07522665e+00      
C    1.56628097e+00      -1.31569137e+00     1.03074007e+00      
O    1.13080525e+00      -2.16015653e+00     2.79529850e-01      
O    2.54462682e+00      -1.46247961e+00     1.91499467e+00      
H    2.87237351e+00      -2.37973175e+00     1.86230157e+00      
O    1.35815520e+00      -2.44864877e-01     -2.21030055e+00     
H    1.44114294e+00      1.95430433e-01      -3.06134668e+00     
H    1.55583592e+00      -1.17224274e+00     -2.37363857e+00     
14
1137.429397
N    -5.17244017e-02     1.80208624e-01      5.03008063e-02      
H    3.48670319e-01      8.43036421e-02      -9.14907899e-01     
H    -5.72481321e-01     1.05057241e+00      1.59770023e-01      
H    -7.05586644e-01     -5.94797087e-01     1.90252454e-01      
C    9.85068637e-01      8.23311952e-02      1.11817926e+00      
H    1.79953560e+00      7.75694356e-01      9.10815975e-01      
H    5.23608339e-01      3.39495437e-01      2.07213371e+00      
C    1.56822062e+00      -1.31498539e+00     1.02883386e+00      
O    1.13050477e+00      -2.16028441e+00     2.79889305e-01      
O    2.54422880e+00      -1.46260571e+00     1.91503877e+00      
H    2.87276945e+00      -2.37960270e+00     1.86337417e+00      
O    1.35817816e+00      -2.44875451e-01     -2.21021456e+00     
H    1.44117403e+00      1.95422498e-01      -3.06133398e+00     
H    1.55608883e+00      -1.17216492e+00     -2.37396836e+00     
14
1137.429397
N    -5.08480402e-02     1.80230574e-01      4.88097082e-02      
H    3.40751776e-01      8.41311998e-02      -9.20017266e-01     
H    -5.73624450e-01     1.04878925e+00      1.67866848e-01      
H    -7.04483428e-01     -5.93906530e-01     1.99411316e-01      
C    9.83622260e-01      8.17792416e-02      1.12027102e+00      
H    1.80662399e+00      7.66095561e-01      9.11746209e-01      
H    5.16469749e-01      3.52020047e-01      2.06904077e+00      
C    1.57016028e+00      -1.31427941e+00     1.02692764e+00      
O    1.13020430e+00      -2.16041229e+00     2.80248759e-01      
O    2.54383078e+00      -1.46273181e+00     1.91508287e+00      
H    2.87316539e+00      -2.37947364e+00     1.86444677e+00      
O    1.35820113e+00      -2.44886024e-01     -2.21012856e+00     
H    1.44120512e+00      1.95414564e-01      -3.06132127e+00     
H    1.55634175e+00      -1.17208711e+00     -2.37429814e+00     
14
1137.429397
N    -4.90953172e-02     1.80274475e-01      4.58275120e-02      
H    3.24914691e-01      8.37863152e-02      -9.30236002e-01     
H    -5.75910708e-01     1.04522292e+00      1.84060496e-01      
H    -7.02276997e-01     -5.92125418e-01     2.17729041e-01      
C    9.80729507e-01      8.06753345e-02      1.12445454e+00      
H    1.82080077e+00      7.46897972e-01      9.13606678e-01      
H    5.02192569e-01      3.77069268e-01      2.06285489e+00      
C    1.57403959e+00      -1.31286745e+00     1.02311521e+00      
O    1.12960335e+00      -2.16066804e+00     2.80967668e-01      
O    2.54303474e+00      -1.46298401e+00     1.91517107e+00      
H    2.87395726e+00      -2.37921554e+00     1.86659197e+00      
O    1.35824706e+00      -2.44907171e-01     -2.20995658e+00     
H    1.44126729e+00      1.95398695e-01      -3.06129587e+00     
H    1.55684757e+00      -1.17193148e+00     -2.37495771e+00     
