14
1510.823697
N    -4.56182491e-02     1.81026906e-01      6.38885089e-02      
H    3.46843121e-01      9.96459493e-02      -9.05644309e-01     
H    -6.25981170e-01     1.02581224e+00      7.92703422e-02      
H    -7.50288390e-01     -5.59191665e-01     1.25035888e-01      
C    1.00096913e+00      8.79233823e-02      1.11807854e+00      
H    1.76334585e+00      7.99031429e-01      7.90257560e-01      
H    4.70549081e-01      2.04053820e-01      2.06772008e+00      
C    1.55281003e+00      -1.31624996e+00     1.03428393e+00      
O    1.13292853e+00      -2.15862583e+00     2.79462633e-01      
O    2.54814125e+00      -1.46256812e+00     1.91639574e+00      
H    2.87242029e+00      -2.38105810e+00     1.85894972e+00      
O    1.35805898e+00      -2.44939872e-01     -2.21009157e+00     
H    1.44111360e+00      1.93607555e-01      -3.06217490e+00     
H    1.55643349e+00      -1.17177229e+00     -2.37648080e+00     
14
1510.823697
N    -4.82402392e-02     1.80794898e-01      6.23554559e-02      
H    3.57198098e-01      9.60259254e-02      -9.01573497e-01     
H    -6.11177297e-01     1.03423124e+00      8.92742324e-02      
H    -7.40491973e-01     -5.69206216e-01     1.29891452e-01      
C    9.98801978e-01      8.72152775e-02      1.11548902e+00      
H    1.76353280e+00      8.05195654e-01      8.19234371e-01      
H    4.92737133e-01      2.22258461e-01      2.07268966e+00      
C    1.55423810e+00      -1.31681629e+00     1.03530418e+00      
O    1.13269818e+00      -2.15888063e+00     2.79119983e-01      
O    2.54766066e+00      -1.46241989e+00     1.91600137e+00      
H    2.87201266e+00      -2.38085557e+00     1.85871509e+00      
O    1.35806007e+00      -2.44910550e-01     -2.21022981e+00     
H    1.44108985e+00      1.94071209e-01      -3.06198055e+00     
H    1.55603119e+00      -1.17196772e+00     -2.37544045e+00     
14
1510.823697
N    -4.95512342e-02     1.80678894e-01      6.15889294e-02      
H    3.62375587e-01      9.42159135e-02      -8.99538090e-01     
H    -6.03775360e-01     1.03844074e+00      9.42761775e-02      
H    -7.35593765e-01     -5.74213492e-01     1.32319234e-01      
C    9.97718401e-01      8.68612251e-02      1.11419426e+00      
H    1.76362628e+00      8.08277766e-01      8.33722776e-01      
H    5.03831159e-01      2.31360782e-01      2.07517445e+00      
C    1.55495214e+00      -1.31709946e+00     1.03581431e+00      
O    1.13258301e+00      -2.15900802e+00     2.78948658e-01      
O    2.54742037e+00      -1.46234578e+00     1.91580419e+00      
H    2.87180884e+00      -2.38075430e+00     1.85859777e+00      
O    1.35806062e+00      -2.44895889e-01     -2.21029893e+00     
H    1.44107797e+00      1.94303036e-01      -3.06188338e+00     
H    1.55583003e+00      -1.17206543e+00     -2.37492028e+00     
14
1510.823697
N    -5.08622292e-02     1.80562890e-01      6.08224029e-02      
H    3.67553076e-01      9.24059015e-02      -8.97502684e-01     
H    -5.96373423e-01     1.04265024e+00      9.92781226e-02      
H    -7.30695556e-01     -5.79220767e-01     1.34747016e-01      
C    9.96634825e-01      8.65071727e-02      1.11289950e+00      
H    1.76371975e+00      8.11359879e-01      8.48211182e-01      
H    5.14925185e-01      2.40463102e-01      2.07765924e+00      
C    1.55566618e+00      -1.31738263e+00     1.03632443e+00      
O    1.13246784e+00      -2.15913542e+00     2.78777333e-01      
O    2.54718007e+00      -1.46227166e+00     1.91560700e+00      
H    2.87160503e+00      -2.38065303e+00     1.85848045e+00      
O    1.35806116e+00      -2.44881228e-01     -2.21036805e+00     
H    1.44106609e+00      1.94534863e-01      -3.06178620e+00     
H    1.55562888e+00      -1.17216314e+00     -2.37440011e+00     
14
1510.823697
N    -5.21732242e-02     1.80446886e-01      6.00558764e-02      
H    3.72730565e-01      9.05958896e-02      -8.95467278e-01     
H    -5.88971486e-01     1.04685973e+00      1.04280068e-01      
H    -7.25797348e-01     -5.84228043e-01     1.37174798e-01      
C    9.95551248e-01      8.61531203e-02      1.11160473e+00      
H    1.76381323e+00      8.14441991e-01      8.62699587e-01      
H    5.26019211e-01      2.49565423e-01      2.08014404e+00      
C    1.55638022e+00      -1.31766579e+00     1.03683456e+00      
O    1.13235267e+00      -2.15926282e+00     2.78606008e-01      
O    2.54693978e+00      -1.46219755e+00     1.91540982e+00      
H    2.87140121e+00      -2.38055176e+00     1.85836313e+00      
O    1.35806171e+00      -2.44866567e-01     -2.21043717e+00     
H    1.44105422e+00      1.94766690e-01      -3.06168903e+00     
H    1.55542773e+00      -1.17226085e+00     -2.37387994e+00     
14
1510.823697
N    -5.34842192e-02     1.80330881e-01      5.92893499e-02      
H    3.77908053e-01      8.87858776e-02      -8.93431872e-01     
H    -5.81569549e-01     1.05106923e+00      1.09282013e-01      
H    -7.20899139e-01     -5.89235318e-01     1.39602579e-01      
C    9.94467672e-01      8.57990679e-02      1.11030997e+00      
H    1.76390670e+00      8.17524103e-01      8.77187992e-01      
H    5.37113237e-01      2.58667744e-01      2.08262883e+00      
C    1.55709426e+00      -1.31794896e+00     1.03734469e+00      
O    1.13223749e+00      -2.15939022e+00     2.78434683e-01      
O    2.54669949e+00      -1.46212344e+00     1.91521264e+00      
H    2.87119739e+00      -2.38045050e+00     1.85824581e+00      
O    1.35806225e+00      -2.44851906e-01     -2.21050628e+00     
H    1.44104234e+00      1.94998517e-01      -3.06159185e+00     
H    1.55522658e+00      -1.17235857e+00     -2.37335977e+00     
14
1510.823697
N    -5.41397167e-02     1.80272879e-01      5.89060866e-02      
H    3.80496798e-01      8.78808716e-02      -8.92414168e-01     
H    -5.77868580e-01     1.05317398e+00      1.11782985e-01      
H    -7.18450035e-01     -5.91738956e-01     1.40816470e-01      
C    9.93925884e-01      8.56220417e-02      1.10966259e+00      
H    1.76395344e+00      8.19065159e-01      8.84432195e-01      
H    5.42660250e-01      2.63218904e-01      2.08387122e+00      
C    1.55745128e+00      -1.31809054e+00     1.03759975e+00      
O    1.13217991e+00      -2.15945391e+00     2.78349021e-01      
O    2.54657934e+00      -1.46208638e+00     1.91511405e+00      
H    2.87109549e+00      -2.38039986e+00     1.85818715e+00      
O    1.35806252e+00      -2.44844576e-01     -2.21054084e+00     
H    1.44103640e+00      1.95114431e-01      -3.06154326e+00     
H    1.55512600e+00      -1.17240742e+00     -2.37309969e+00     
14
1510.823697
N    -5.47952142e-02     1.80214877e-01      5.85228234e-02      
H    3.83085542e-01      8.69758657e-02      -8.91396465e-01     
H    -5.74167612e-01     1.05527873e+00      1.14283958e-01      
H    -7.16000931e-01     -5.94242594e-01     1.42030361e-01      
C    9.93384095e-01      8.54450155e-02      1.10901521e+00      
H    1.76400018e+00      8.20606216e-01      8.91676398e-01      
H    5.48207263e-01      2.67770064e-01      2.08511362e+00      
C    1.55780830e+00      -1.31823212e+00     1.03785481e+00      
O    1.13212232e+00      -2.15951761e+00     2.78263358e-01      
O    2.54645919e+00      -1.46204932e+00     1.91501545e+00      
H    2.87099358e+00      -2.38034923e+00     1.85812849e+00      
O    1.35806280e+00      -2.44837245e-01     -2.21057540e+00     
H    1.44103047e+00      1.95230344e-01      -3.06149468e+00     
H    1.55502542e+00      -1.17245628e+00     -2.37283960e+00     
14
1510.823697
N    -5.74172042e-02     1.79982869e-01      5.69897704e-02      
H    3.93440520e-01      8.33558417e-02      -8.87325653e-01     
H    -5.59363738e-01     1.06369773e+00      1.24287848e-01      
H    -7.06204513e-01     -6.04257144e-01     1.46885925e-01      
C    9.91216943e-01      8.47369107e-02      1.10642569e+00      
H    1.76418712e+00      8.26770440e-01      9.20653208e-01      
H    5.70395315e-01      2.85974706e-01      2.09008320e+00      
C    1.55923638e+00      -1.31879846e+00     1.03887507e+00      
O    1.13189198e+00      -2.15977241e+00     2.77920708e-01      
O    2.54597861e+00      -1.46190110e+00     1.91462109e+00      
H    2.87058594e+00      -2.38014669e+00     1.85789385e+00      
O    1.35806388e+00      -2.44807923e-01     -2.21071364e+00     
H    1.44100671e+00      1.95693998e-01      -3.06130032e+00     
H    1.55462312e+00      -1.17265170e+00     -2.37179926e+00     
14
1510.823697
N    -5.80727017e-02     1.79924867e-01      5.66065072e-02      
H    3.96029264e-01      8.24508358e-02      -8.86307950e-01     
H    -5.55662770e-01     1.06580248e+00      1.26788821e-01      
H    -7.03755409e-01     -6.06760782e-01     1.48099816e-01      
C    9.90675154e-01      8.45598845e-02      1.10577831e+00      
H    1.76423386e+00      8.28311497e-01      9.27897411e-01      
H    5.75942328e-01      2.90525866e-01      2.09132560e+00      
C    1.55959340e+00      -1.31894004e+00     1.03913013e+00      
O    1.13183439e+00      -2.15983611e+00     2.77835045e-01      
O    2.54585846e+00      -1.46186404e+00     1.91452249e+00      
H    2.87048403e+00      -2.38009606e+00     1.85783519e+00      
O    1.35806416e+00      -2.44800592e-01     -2.21074820e+00     
H    1.44100078e+00      1.95809911e-01      -3.06125174e+00     
H    1.55452254e+00      -1.17270056e+00     -2.37153917e+00     
14
1510.823697
N    -5.87281992e-02     1.79866865e-01      5.62232439e-02      
H    3.98618009e-01      8.15458298e-02      -8.85290246e-01     
H    -5.51961801e-01     1.06790723e+00      1.29289793e-01      
H    -7.01306305e-01     -6.09264420e-01     1.49313707e-01      
C    9.90133366e-01      8.43828583e-02      1.10513093e+00      
H    1.76428060e+00      8.29852553e-01      9.35141614e-01      
H    5.81489341e-01      2.95077026e-01      2.09256799e+00      
C    1.55995042e+00      -1.31908162e+00     1.03938519e+00      
O    1.13177681e+00      -2.15989980e+00     2.77749383e-01      
O    2.54573831e+00      -1.46182698e+00     1.91442390e+00      
H    2.87038213e+00      -2.38004542e+00     1.85777653e+00      
O    1.35806443e+00      -2.44793262e-01     -2.21078276e+00     
H    1.44099484e+00      1.95925825e-01      -3.06120315e+00     
H    1.55442196e+00      -1.17274941e+00     -2.37127909e+00     
14
1510.823697
N    -6.00391942e-02     1.79750860e-01      5.54567174e-02      
H    4.03795497e-01      7.97358178e-02      -8.83254840e-01     
H    -5.44559864e-01     1.07211673e+00      1.34291738e-01      
H    -6.96408096e-01     -6.14271695e-01     1.51741488e-01      
C    9.89049790e-01      8.40288059e-02      1.10383617e+00      
H    1.76437407e+00      8.32934665e-01      9.49630019e-01      
H    5.92583367e-01      3.04179347e-01      2.09505278e+00      
C    1.56066446e+00      -1.31936479e+00     1.03989532e+00      
O    1.13166163e+00      -2.16002720e+00     2.77578058e-01      
O    2.54549802e+00      -1.46175287e+00     1.91422672e+00      
H    2.87017831e+00      -2.37994416e+00     1.85765921e+00      
O    1.35806497e+00      -2.44778601e-01     -2.21085187e+00     
H    1.44098296e+00      1.96157652e-01      -3.06110597e+00     
H    1.55422081e+00      -1.17284713e+00     -2.37075892e+00     
14
1510.823697
N    -6.13501892e-02     1.79634856e-01      5.46901909e-02      
H    4.08972986e-01      7.79258059e-02      -8.81219434e-01     
H    -5.37157927e-01     1.07632622e+00      1.39293683e-01      
H    -6.91509888e-01     -6.19278971e-01     1.54169270e-01      
C    9.87966213e-01      8.36747535e-02      1.10254140e+00      
H    1.76446755e+00      8.36016777e-01      9.64118424e-01      
H    6.03677393e-01      3.13281668e-01      2.09753758e+00      
C    1.56137850e+00      -1.31964795e+00     1.04040545e+00      
O    1.13154646e+00      -2.16015460e+00     2.77406733e-01      
O    2.54525773e+00      -1.46167876e+00     1.91402954e+00      
H    2.86997449e+00      -2.37984289e+00     1.85754189e+00      
O    1.35806552e+00      -2.44763940e-01     -2.21092099e+00     
H    1.44097109e+00      1.96389479e-01      -3.06100880e+00     
H    1.55401966e+00      -1.17294484e+00     -2.37023875e+00     
14
1510.823697
N    -6.26611842e-02     1.79518852e-01      5.39236644e-02      
H    4.14150475e-01      7.61157939e-02      -8.79184028e-01     
H    -5.29755990e-01     1.08053572e+00      1.44295628e-01      
H    -6.86611679e-01     -6.24286246e-01     1.56597052e-01      
C    9.86882637e-01      8.33207011e-02      1.10124664e+00      
H    1.76456102e+00      8.39098890e-01      9.78606830e-01      
H    6.14771419e-01      3.22383988e-01      2.10002237e+00      
C    1.56209254e+00      -1.31993112e+00     1.04091557e+00      
O    1.13143129e+00      -2.16028200e+00     2.77235408e-01      
O    2.54501743e+00      -1.46160464e+00     1.91383235e+00      
H    2.86977068e+00      -2.37974162e+00     1.85742457e+00      
O    1.35806606e+00      -2.44749279e-01     -2.21099011e+00     
H    1.44095921e+00      1.96621306e-01      -3.06091162e+00     
H    1.55381851e+00      -1.17304255e+00     -2.36971858e+00     
14
1510.823697
N    -6.39721792e-02     1.79402848e-01      5.31571379e-02      
H    4.19327964e-01      7.43057820e-02      -8.77148621e-01     
H    -5.22354053e-01     1.08474522e+00      1.49297574e-01      
H    -6.81713471e-01     -6.29293522e-01     1.59024834e-01      
C    9.85799060e-01      8.29666487e-02      1.09995188e+00      
H    1.76465450e+00      8.42181002e-01      9.93095235e-01      
H    6.25865445e-01      3.31486309e-01      2.10250716e+00      
C    1.56280658e+00      -1.32021429e+00     1.04142570e+00      
O    1.13131612e+00      -2.16040939e+00     2.77064083e-01      
O    2.54477714e+00      -1.46153053e+00     1.91363517e+00      
H    2.86956686e+00      -2.37964035e+00     1.85730725e+00      
O    1.35806661e+00      -2.44734618e-01     -2.21105923e+00     
H    1.44094733e+00      1.96853133e-01      -3.06081445e+00     
H    1.55361735e+00      -1.17314026e+00     -2.36919841e+00     
14
1510.823697
N    -6.65941693e-02     1.79170840e-01      5.16240849e-02      
H    4.29682941e-01      7.06857581e-02      -8.73077809e-01     
H    -5.07550180e-01     1.09316422e+00      1.59301464e-01      
H    -6.71917054e-01     -6.39308073e-01     1.63880398e-01      
C    9.83631907e-01      8.22585439e-02      1.09736236e+00      
H    1.76484145e+00      8.48345227e-01      1.02207205e+00      
H    6.48053497e-01      3.49690950e-01      2.10747674e+00      
C    1.56423465e+00      -1.32078062e+00     1.04244595e+00      
O    1.13108577e+00      -2.16066419e+00     2.76721433e-01      
O    2.54429655e+00      -1.46138230e+00     1.91324080e+00      
H    2.86915923e+00      -2.37943782e+00     1.85707262e+00      
O    1.35806770e+00      -2.44705296e-01     -2.21119747e+00     
H    1.44092358e+00      1.97316787e-01      -3.06062010e+00     
H    1.55321505e+00      -1.17333569e+00     -2.36815806e+00     
