14
3204.088914
N    -5.58918297e-02     1.80230821e-01      5.78915754e-02      
H    3.88575033e-01      8.51089917e-02      -8.93875691e-01     
H    -5.67336142e-01     1.06154660e+00      1.19281432e-01      
H    -7.12319009e-01     -6.02332301e-01     1.45591423e-01      
C    9.79056348e-01      7.84939796e-02      1.11991214e+00      
H    1.86905950e+00      9.26822016e-01      8.78193940e-01      
H    6.11776895e-01      2.51939157e-01      1.97019900e+00      
C    1.55845270e+00      -1.31855960e+00     1.03843152e+00      
O    1.13198666e+00      -2.15963272e+00     2.78126616e-01      
O    2.54621176e+00      -1.46196800e+00     1.91481424e+00      
H    2.87084170e+00      -2.38040401e+00     1.85803054e+00      
O    1.35806890e+00      -2.44820736e-01     -2.21062112e+00     
H    1.44098813e+00      1.95147484e-01      -3.06115962e+00     
H    1.55473310e+00      -1.17229807e+00     -2.37251353e+00     
14
3204.088914
N    -5.59454246e-02     1.80197834e-01      5.78577557e-02      
H    3.88497033e-01      8.51232072e-02      -8.92747033e-01     
H    -5.67193525e-01     1.06103201e+00      1.19282550e-01      
H    -7.12014938e-01     -6.01561693e-01     1.45308103e-01      
C    9.82367390e-01      8.01432255e-02      1.11686422e+00      
H    1.84281804e+00      9.01038594e-01      8.85186656e-01      
H    5.98657993e-01      2.58172464e-01      1.99954885e+00      
C    1.55847011e+00      -1.31854852e+00     1.03841487e+00      
O    1.13199178e+00      -2.15963579e+00     2.78117970e-01      
O    2.54621354e+00      -1.46196981e+00     1.91481524e+00      
H    2.87082872e+00      -2.38036500e+00     1.85802570e+00      
O    1.35806751e+00      -2.44821198e-01     -2.21062697e+00     
H    1.44099575e+00      1.95226156e-01      -3.06121909e+00     
H    1.55475589e+00      -1.17236205e+00     -2.37246500e+00     
14
3204.088914
N    -5.59722220e-02     1.80181340e-01      5.78408459e-02      
H    3.88458032e-01      8.51303149e-02      -8.92182704e-01     
H    -5.67122217e-01     1.06077471e+00      1.19283109e-01      
H    -7.11862902e-01     -6.01176389e-01     1.45166443e-01      
C    9.84022912e-01      8.09678484e-02      1.11534026e+00      
H    1.82969731e+00      8.88146883e-01      8.88683014e-01      
H    5.92098543e-01      2.61289118e-01      2.01422378e+00      
C    1.55847881e+00      -1.31854298e+00     1.03840655e+00      
O    1.13199434e+00      -2.15963733e+00     2.78113647e-01      
O    2.54621444e+00      -1.46197071e+00     1.91481575e+00      
H    2.87082222e+00      -2.38034549e+00     1.85802328e+00      
O    1.35806681e+00      -2.44821429e-01     -2.21062989e+00     
H    1.44099955e+00      1.95265491e-01      -3.06124882e+00     
H    1.55476729e+00      -1.17239404e+00     -2.37244074e+00     
14
3204.088914
N    -5.59990195e-02     1.80164847e-01      5.78239361e-02      
H    3.88419032e-01      8.51374227e-02      -8.91618375e-01     
H    -5.67050908e-01     1.06051741e+00      1.19283667e-01      
H    -7.11710866e-01     -6.00791085e-01     1.45024783e-01      
C    9.85678433e-01      8.17924714e-02      1.11381630e+00      
H    1.81657658e+00      8.75255172e-01      8.92179372e-01      
H    5.85539092e-01      2.64405771e-01      2.02889870e+00      
C    1.55848752e+00      -1.31853745e+00     1.03839823e+00      
O    1.13199690e+00      -2.15963887e+00     2.78109324e-01      
O    2.54621533e+00      -1.46197161e+00     1.91481625e+00      
H    2.87081573e+00      -2.38032599e+00     1.85802086e+00      
O    1.35806612e+00      -2.44821660e-01     -2.21063282e+00     
H    1.44100336e+00      1.95304827e-01      -3.06127856e+00     
H    1.55477868e+00      -1.17242603e+00     -2.37241648e+00     
14
3204.088914
N    -5.60258169e-02     1.80148353e-01      5.78070263e-02      
H    3.88380032e-01      8.51445304e-02      -8.91054046e-01     
H    -5.66979600e-01     1.06026012e+00      1.19284226e-01      
H    -7.11558830e-01     -6.00405781e-01     1.44883123e-01      
C    9.87333955e-01      8.26170943e-02      1.11229233e+00      
H    1.80345584e+00      8.62363461e-01      8.95675729e-01      
H    5.78979641e-01      2.67522425e-01      2.04357363e+00      
C    1.55849622e+00      -1.31853191e+00     1.03838991e+00      
O    1.13199947e+00      -2.15964040e+00     2.78105001e-01      
O    2.54621622e+00      -1.46197251e+00     1.91481676e+00      
H    2.87080924e+00      -2.38030648e+00     1.85801843e+00      
O    1.35806542e+00      -2.44821891e-01     -2.21063574e+00     
H    1.44100717e+00      1.95344163e-01      -3.06130829e+00     
H    1.55479008e+00      -1.17245802e+00     -2.37239222e+00     
14
3204.088914
N    -5.60526143e-02     1.80131860e-01      5.77901165e-02      
H    3.88341032e-01      8.51516382e-02      -8.90489717e-01     
H    -5.66908292e-01     1.06000282e+00      1.19284785e-01      
H    -7.11406794e-01     -6.00020477e-01     1.44741463e-01      
C    9.88989476e-01      8.34417172e-02      1.11076837e+00      
H    1.79033511e+00      8.49471750e-01      8.99172087e-01      
H    5.72420190e-01      2.70639078e-01      2.05824856e+00      
C    1.55850493e+00      -1.31852637e+00     1.03838158e+00      
O    1.13200203e+00      -2.15964194e+00     2.78100679e-01      
O    2.54621711e+00      -1.46197341e+00     1.91481726e+00      
H    2.87080275e+00      -2.38028697e+00     1.85801601e+00      
O    1.35806473e+00      -2.44822122e-01     -2.21063867e+00     
H    1.44101098e+00      1.95383499e-01      -3.06133803e+00     
H    1.55480148e+00      -1.17249001e+00     -2.37236795e+00     
14
3204.088914
N    -5.60660130e-02     1.80123613e-01      5.77816616e-02      
H    3.88321531e-01      8.51551921e-02      -8.90207553e-01     
H    -5.66872637e-01     1.05987417e+00      1.19285065e-01      
H    -7.11330776e-01     -5.99827825e-01     1.44670633e-01      
C    9.89817237e-01      8.38540287e-02      1.11000639e+00      
H    1.78377475e+00      8.43025894e-01      9.00920266e-01      
H    5.69140465e-01      2.72197405e-01      2.06558602e+00      
C    1.55850928e+00      -1.31852360e+00     1.03837742e+00      
O    1.13200331e+00      -2.15964271e+00     2.78098517e-01      
O    2.54621756e+00      -1.46197386e+00     1.91481751e+00      
H    2.87079950e+00      -2.38027722e+00     1.85801480e+00      
O    1.35806438e+00      -2.44822238e-01     -2.21064013e+00     
H    1.44101288e+00      1.95403167e-01      -3.06135290e+00     
H    1.55480718e+00      -1.17250601e+00     -2.37235582e+00     
14
3204.088914
N    -5.60794118e-02     1.80115366e-01      5.77732067e-02      
H    3.88302031e-01      8.51587459e-02      -8.89925388e-01     
H    -5.66836983e-01     1.05974553e+00      1.19285344e-01      
H    -7.11254758e-01     -5.99635173e-01     1.44599803e-01      
C    9.90644998e-01      8.42663402e-02      1.10924441e+00      
H    1.77721438e+00      8.36580039e-01      9.02668445e-01      
H    5.65860740e-01      2.73755732e-01      2.07292348e+00      
C    1.55851363e+00      -1.31852083e+00     1.03837326e+00      
O    1.13200459e+00      -2.15964347e+00     2.78096356e-01      
O    2.54621801e+00      -1.46197431e+00     1.91481777e+00      
H    2.87079625e+00      -2.38026747e+00     1.85801359e+00      
O    1.35806403e+00      -2.44822353e-01     -2.21064159e+00     
H    1.44101478e+00      1.95422835e-01      -3.06136776e+00     
H    1.55481287e+00      -1.17252200e+00     -2.37234369e+00     
14
3204.088914
N    -5.61330066e-02     1.80082380e-01      5.77393871e-02      
H    3.88224031e-01      8.51729615e-02      -8.88796730e-01     
H    -5.66694367e-01     1.05923093e+00      1.19286462e-01      
H    -7.10950686e-01     -5.98864565e-01     1.44316483e-01      
C    9.93956040e-01      8.59155860e-02      1.10619649e+00      
H    1.75097292e+00      8.10796617e-01      9.09661161e-01      
H    5.52741838e-01      2.79989038e-01      2.10227334e+00      
C    1.55853105e+00      -1.31850975e+00     1.03835662e+00      
O    1.13200971e+00      -2.15964655e+00     2.78087710e-01      
O    2.54621979e+00      -1.46197611e+00     1.91481877e+00      
H    2.87078327e+00      -2.38022845e+00     1.85800875e+00      
O    1.35806265e+00      -2.44822815e-01     -2.21064745e+00     
H    1.44102240e+00      1.95501507e-01      -3.06142724e+00     
H    1.55483567e+00      -1.17258598e+00     -2.37229517e+00     
14
3204.088914
N    -5.61464054e-02     1.80074133e-01      5.77309322e-02      
H    3.88204531e-01      8.51765153e-02      -8.88514565e-01     
H    -5.66658713e-01     1.05910229e+00      1.19286741e-01      
H    -7.10874668e-01     -5.98671913e-01     1.44245653e-01      
C    9.94783801e-01      8.63278975e-02      1.10543451e+00      
H    1.74441255e+00      8.04350762e-01      9.11409340e-01      
H    5.49462113e-01      2.81547365e-01      2.10961080e+00      
C    1.55853540e+00      -1.31850698e+00     1.03835246e+00      
O    1.13201099e+00      -2.15964731e+00     2.78085549e-01      
O    2.54622024e+00      -1.46197656e+00     1.91481903e+00      
H    2.87078002e+00      -2.38021870e+00     1.85800754e+00      
O    1.35806230e+00      -2.44822930e-01     -2.21064891e+00     
H    1.44102430e+00      1.95521175e-01      -3.06144210e+00     
H    1.55484136e+00      -1.17260197e+00     -2.37228304e+00     
14
3204.088914
N    -5.61598041e-02     1.80065886e-01      5.77224773e-02      
H    3.88185030e-01      8.51800692e-02      -8.88232401e-01     
H    -5.66623058e-01     1.05897364e+00      1.19287021e-01      
H    -7.10798650e-01     -5.98479261e-01     1.44174823e-01      
C    9.95611562e-01      8.67402090e-02      1.10467253e+00      
H    1.73785219e+00      7.97904906e-01      9.13157519e-01      
H    5.46182388e-01      2.83105692e-01      2.11694826e+00      
C    1.55853975e+00      -1.31850421e+00     1.03834830e+00      
O    1.13201227e+00      -2.15964808e+00     2.78083387e-01      
O    2.54622069e+00      -1.46197701e+00     1.91481928e+00      
H    2.87077677e+00      -2.38020895e+00     1.85800633e+00      
O    1.35806195e+00      -2.44823046e-01     -2.21065037e+00     
H    1.44102620e+00      1.95540843e-01      -3.06145697e+00     
H    1.55484706e+00      -1.17261797e+00     -2.37227091e+00     
14
3204.088914
N    -5.61866015e-02     1.80049393e-01      5.77055675e-02      
H    3.88146030e-01      8.51871770e-02      -8.87668072e-01     
H    -5.66551750e-01     1.05871634e+00      1.19287580e-01      
H    -7.10646614e-01     -5.98093957e-01     1.44033163e-01      
C    9.97267083e-01      8.75648319e-02      1.10314857e+00      
H    1.72473146e+00      7.85013195e-01      9.16653877e-01      
H    5.39622937e-01      2.86222345e-01      2.13162319e+00      
C    1.55854846e+00      -1.31849867e+00     1.03833997e+00      
O    1.13201483e+00      -2.15964962e+00     2.78079065e-01      
O    2.54622158e+00      -1.46197791e+00     1.91481978e+00      
H    2.87077028e+00      -2.38018944e+00     1.85800391e+00      
O    1.35806126e+00      -2.44823277e-01     -2.21065330e+00     
H    1.44103001e+00      1.95580179e-01      -3.06148671e+00     
H    1.55485846e+00      -1.17264996e+00     -2.37224664e+00     
14
3204.088914
N    -5.62133989e-02     1.80032899e-01      5.76886577e-02      
H    3.88107030e-01      8.51942847e-02      -8.87103743e-01     
H    -5.66480442e-01     1.05845905e+00      1.19288139e-01      
H    -7.10494578e-01     -5.97708653e-01     1.43891503e-01      
C    9.98922605e-01      8.83894548e-02      1.10162460e+00      
H    1.71161072e+00      7.72121484e-01      9.20150234e-01      
H    5.33063486e-01      2.89338999e-01      2.14629812e+00      
C    1.55855716e+00      -1.31849313e+00     1.03833165e+00      
O    1.13201740e+00      -2.15965115e+00     2.78074742e-01      
O    2.54622247e+00      -1.46197881e+00     1.91482029e+00      
H    2.87076379e+00      -2.38016993e+00     1.85800148e+00      
O    1.35806056e+00      -2.44823508e-01     -2.21065622e+00     
H    1.44103382e+00      1.95619515e-01      -3.06151644e+00     
H    1.55486986e+00      -1.17268195e+00     -2.37222238e+00     
14
3204.088914
N    -5.62401964e-02     1.80016406e-01      5.76717479e-02      
H    3.88068030e-01      8.52013925e-02      -8.86539414e-01     
H    -5.66409133e-01     1.05820175e+00      1.19288697e-01      
H    -7.10342542e-01     -5.97323349e-01     1.43749843e-01      
C    1.00057813e+00      8.92140778e-02      1.10010064e+00      
H    1.69848999e+00      7.59229773e-01      9.23646592e-01      
H    5.26504035e-01      2.92455652e-01      2.16097304e+00      
C    1.55856587e+00      -1.31848760e+00     1.03832333e+00      
O    1.13201996e+00      -2.15965269e+00     2.78070419e-01      
O    2.54622336e+00      -1.46197971e+00     1.91482079e+00      
H    2.87075730e+00      -2.38015043e+00     1.85799906e+00      
O    1.35805987e+00      -2.44823739e-01     -2.21065915e+00     
H    1.44103763e+00      1.95658851e-01      -3.06154618e+00     
H    1.55488125e+00      -1.17271394e+00     -2.37219812e+00     
14
3204.088914
N    -5.62669938e-02     1.79999912e-01      5.76548381e-02      
H    3.88029029e-01      8.52085002e-02      -8.85975085e-01     
H    -5.66337825e-01     1.05794445e+00      1.19289256e-01      
H    -7.10190506e-01     -5.96938045e-01     1.43608183e-01      
C    1.00223365e+00      9.00387007e-02      1.09857668e+00      
H    1.68536926e+00      7.46338062e-01      9.27142950e-01      
H    5.19944585e-01      2.95572306e-01      2.17564797e+00      
C    1.55857457e+00      -1.31848206e+00     1.03831501e+00      
O    1.13202252e+00      -2.15965423e+00     2.78066096e-01      
O    2.54622426e+00      -1.46198061e+00     1.91482130e+00      
H    2.87075080e+00      -2.38013092e+00     1.85799664e+00      
O    1.35805917e+00      -2.44823970e-01     -2.21066207e+00     
H    1.44104143e+00      1.95698186e-01      -3.06157591e+00     
H    1.55489265e+00      -1.17274593e+00     -2.37217386e+00     
14
3204.088914
N    -5.63205887e-02     1.79966925e-01      5.76210184e-02      
H    3.87951029e-01      8.52227157e-02      -8.84846427e-01     
H    -5.66195208e-01     1.05742986e+00      1.19290374e-01      
H    -7.09886435e-01     -5.96167437e-01     1.43324863e-01      
C    1.00554469e+00      9.16879466e-02      1.09552876e+00      
H    1.65912780e+00      7.20554640e-01      9.34135666e-01      
H    5.06825683e-01      3.01805613e-01      2.20499782e+00      
C    1.55859198e+00      -1.31847098e+00     1.03829836e+00      
O    1.13202764e+00      -2.15965730e+00     2.78057450e-01      
O    2.54622604e+00      -1.46198242e+00     1.91482230e+00      
H    2.87073782e+00      -2.38009191e+00     1.85799180e+00      
O    1.35805778e+00      -2.44824432e-01     -2.21066792e+00     
H    1.44104905e+00      1.95776858e-01      -3.06163538e+00     
H    1.55491544e+00      -1.17280991e+00     -2.37212533e+00     
