14
2975.312350
N    -6.08999478e-02     1.80610976e-01      7.06210270e-02      
H    4.68932241e-01      7.34541789e-02      -1.06964655e+00     
H    -5.76418998e-01     1.07596347e+00      1.20238289e-01      
H    -7.20191829e-01     -6.08724667e-01     1.48469709e-01      
C    9.92782202e-01      8.48124591e-02      1.10742351e+00      
H    1.76428522e+00      8.24715996e-01      9.04968837e-01      
H    5.54080155e-01      2.79248000e-01      2.09324995e+00      
C    1.55875186e+00      -1.31884373e+00     1.03831521e+00      
O    1.13192354e+00      -2.15952417e+00     2.78179586e-01      
O    2.54612868e+00      -1.46195189e+00     1.91477425e+00      
H    2.87073360e+00      -2.37943757e+00     1.85800002e+00      
O    1.35803981e+00      -2.44674444e-01     -2.21050282e+00     
H    1.44325746e+00      1.93983241e-01      -3.06441290e+00     
H    1.55701435e+00      -1.17510491e+00     -2.37598592e+00     
14
2975.312350
N    -5.97015131e-02     1.80482950e-01      6.74048445e-02      
H    4.48764939e-01      7.63820976e-02      -1.02457518e+00     
H    -5.74005667e-01     1.07184466e+00      1.20000193e-01      
H    -7.17919552e-01     -6.06355968e-01     1.47466817e-01      
C    9.92661781e-01      8.48820851e-02      1.10749775e+00      
H    1.76423733e+00      8.24459079e-01      9.05267829e-01      
H    5.55385438e-01      2.78654096e-01      2.09183706e+00      
C    1.55869448e+00      -1.31876162e+00     1.03832764e+00      
O    1.13194444e+00      -2.15955438e+00     2.78157698e-01      
O    2.54615123e+00      -1.46195772e+00     1.91478525e+00      
H    2.87074764e+00      -2.37964016e+00     1.85800281e+00      
O    1.35804569e+00      -2.44711479e-01     -2.21053825e+00     
H    1.44269774e+00      1.94352974e-01      -3.06365905e+00     
H    1.55646683e+00      -1.17446718e+00     -2.37506930e+00     
14
2975.312350
N    -5.91022958e-02     1.80418938e-01      6.57967532e-02      
H    4.38681287e-01      7.78460569e-02      -1.00203949e+00     
H    -5.72799002e-01     1.06978526e+00      1.19881145e-01      
H    -7.16783414e-01     -6.05171618e-01     1.46965371e-01      
C    9.92601571e-01      8.49168981e-02      1.10753486e+00      
H    1.76421338e+00      8.24330620e-01      9.05417324e-01      
H    5.56038080e-01      2.78357144e-01      2.09113062e+00      
C    1.55866579e+00      -1.31872057e+00     1.03833386e+00      
O    1.13195489e+00      -2.15956949e+00     2.78146753e-01      
O    2.54616251e+00      -1.46196064e+00     1.91479076e+00      
H    2.87075466e+00      -2.37974146e+00     1.85800420e+00      
O    1.35804864e+00      -2.44729997e-01     -2.21055596e+00     
H    1.44241788e+00      1.94537840e-01      -3.06328212e+00     
H    1.55619307e+00      -1.17414831e+00     -2.37461099e+00     
14
2975.312350
N    -5.85030785e-02     1.80354925e-01      6.41886619e-02      
H    4.28597636e-01      7.93100163e-02      -9.79503805e-01     
H    -5.71592336e-01     1.06772585e+00      1.19762096e-01      
H    -7.15647275e-01     -6.03987268e-01     1.46463926e-01      
C    9.92541360e-01      8.49517111e-02      1.10757198e+00      
H    1.76418943e+00      8.24202162e-01      9.05566820e-01      
H    5.56690722e-01      2.78060192e-01      2.09042418e+00      
C    1.55863710e+00      -1.31867951e+00     1.03834007e+00      
O    1.13196535e+00      -2.15958459e+00     2.78135809e-01      
O    2.54617379e+00      -1.46196355e+00     1.91479626e+00      
H    2.87076168e+00      -2.37984276e+00     1.85800560e+00      
O    1.35805158e+00      -2.44748514e-01     -2.21057367e+00     
H    1.44213802e+00      1.94722706e-01      -3.06290520e+00     
H    1.55591931e+00      -1.17382945e+00     -2.37415268e+00     
14
2975.312350
N    -5.79038612e-02     1.80290912e-01      6.25805707e-02      
H    4.18513985e-01      8.07739756e-02      -9.56968119e-01     
H    -5.70385671e-01     1.06566645e+00      1.19643048e-01      
H    -7.14511137e-01     -6.02802918e-01     1.45962480e-01      
C    9.92481150e-01      8.49865241e-02      1.10760910e+00      
H    1.76416549e+00      8.24073703e-01      9.05716316e-01      
H    5.57343364e-01      2.77763241e-01      2.08971774e+00      
C    1.55860841e+00      -1.31863846e+00     1.03834629e+00      
O    1.13197580e+00      -2.15959970e+00     2.78124865e-01      
O    2.54618507e+00      -1.46196647e+00     1.91480176e+00      
H    2.87076870e+00      -2.37994406e+00     1.85800699e+00      
O    1.35805452e+00      -2.44767032e-01     -2.21059138e+00     
H    1.44185817e+00      1.94907572e-01      -3.06252827e+00     
H    1.55564555e+00      -1.17351058e+00     -2.37369437e+00     
14
2975.312350
N    -5.73046438e-02     1.80226899e-01      6.09724794e-02      
H    4.08430334e-01      8.22379350e-02      -9.34432432e-01     
H    -5.69179006e-01     1.06360704e+00      1.19524000e-01      
H    -7.13374999e-01     -6.01618569e-01     1.45461034e-01      
C    9.92420940e-01      8.50213371e-02      1.10764622e+00      
H    1.76414154e+00      8.23945245e-01      9.05865812e-01      
H    5.57996005e-01      2.77466289e-01      2.08901129e+00      
C    1.55857972e+00      -1.31859740e+00     1.03835251e+00      
O    1.13198625e+00      -2.15961480e+00     2.78113921e-01      
O    2.54619634e+00      -1.46196938e+00     1.91480726e+00      
H    2.87077572e+00      -2.38004536e+00     1.85800838e+00      
O    1.35805746e+00      -2.44785549e-01     -2.21060910e+00     
H    1.44157831e+00      1.95092439e-01      -3.06215135e+00     
H    1.55537179e+00      -1.17319172e+00     -2.37323605e+00     
14
2975.312350
N    -5.70050352e-02     1.80194892e-01      6.01684338e-02      
H    4.03388508e-01      8.29699147e-02      -9.23164589e-01     
H    -5.68575673e-01     1.06257734e+00      1.19464475e-01      
H    -7.12806930e-01     -6.01026394e-01     1.45210312e-01      
C    9.92390835e-01      8.50387436e-02      1.10766477e+00      
H    1.76412957e+00      8.23881016e-01      9.05940559e-01      
H    5.58322326e-01      2.77317813e-01      2.08865807e+00      
C    1.55856537e+00      -1.31857687e+00     1.03835561e+00      
O    1.13199147e+00      -2.15962235e+00     2.78108449e-01      
O    2.54620198e+00      -1.46197084e+00     1.91481002e+00      
H    2.87077923e+00      -2.38009601e+00     1.85800908e+00      
O    1.35805893e+00      -2.44794808e-01     -2.21061795e+00     
H    1.44143838e+00      1.95184872e-01      -3.06196289e+00     
H    1.55523491e+00      -1.17303229e+00     -2.37300690e+00     
14
2975.312350
N    -5.67054265e-02     1.80162886e-01      5.93643882e-02      
H    3.98346682e-01      8.37018943e-02      -9.11896746e-01     
H    -5.67972340e-01     1.06154764e+00      1.19404951e-01      
H    -7.12238860e-01     -6.00434219e-01     1.44959589e-01      
C    9.92360729e-01      8.50561501e-02      1.10768333e+00      
H    1.76411760e+00      8.23816786e-01      9.06015307e-01      
H    5.58648647e-01      2.77169337e-01      2.08830485e+00      
C    1.55855103e+00      -1.31855635e+00     1.03835872e+00      
O    1.13199670e+00      -2.15962991e+00     2.78102977e-01      
O    2.54620762e+00      -1.46197230e+00     1.91481277e+00      
H    2.87078274e+00      -2.38014666e+00     1.85800978e+00      
O    1.35806040e+00      -2.44804067e-01     -2.21062681e+00     
H    1.44129845e+00      1.95277305e-01      -3.06177442e+00     
H    1.55509803e+00      -1.17287285e+00     -2.37277774e+00     
14
2975.312350
N    -5.55069919e-02     1.80034860e-01      5.61482056e-02      
H    3.78179380e-01      8.66298131e-02      -8.66825372e-01     
H    -5.65559010e-01     1.05742882e+00      1.19166855e-01      
H    -7.09966584e-01     -5.98065519e-01     1.43956697e-01      
C    9.92240309e-01      8.51257761e-02      1.10775757e+00      
H    1.76406970e+00      8.23559870e-01      9.06314299e-01      
H    5.59953931e-01      2.76575433e-01      2.08689197e+00      
C    1.55849365e+00      -1.31847423e+00     1.03837116e+00      
O    1.13201760e+00      -2.15966011e+00     2.78081089e-01      
O    2.54623018e+00      -1.46197812e+00     1.91482377e+00      
H    2.87079678e+00      -2.38034926e+00     1.85801256e+00      
O    1.35806628e+00      -2.44841101e-01     -2.21066223e+00     
H    1.44073873e+00      1.95647037e-01      -3.06102058e+00     
H    1.55455051e+00      -1.17223513e+00     -2.37186112e+00     
14
2975.312350
N    -5.52073832e-02     1.80002854e-01      5.53441600e-02      
H    3.73137554e-01      8.73617927e-02      -8.55557529e-01     
H    -5.64955677e-01     1.05639912e+00      1.19107331e-01      
H    -7.09398514e-01     -5.97473344e-01     1.43705974e-01      
C    9.92210203e-01      8.51431826e-02      1.10777613e+00      
H    1.76405773e+00      8.23495640e-01      9.06389047e-01      
H    5.60280252e-01      2.76426957e-01      2.08653875e+00      
C    1.55847931e+00      -1.31845371e+00     1.03837427e+00      
O    1.13202283e+00      -2.15966767e+00     2.78075617e-01      
O    2.54623582e+00      -1.46197958e+00     1.91482652e+00      
H    2.87080029e+00      -2.38039991e+00     1.85801326e+00      
O    1.35806775e+00      -2.44850360e-01     -2.21067109e+00     
H    1.44059880e+00      1.95739470e-01      -3.06083211e+00     
H    1.55441363e+00      -1.17207569e+00     -2.37163196e+00     
14
2975.312350
N    -5.49077746e-02     1.79970847e-01      5.45401144e-02      
H    3.68095728e-01      8.80937724e-02      -8.44289686e-01     
H    -5.64352344e-01     1.05536942e+00      1.19047806e-01      
H    -7.08830445e-01     -5.96881169e-01     1.43455252e-01      
C    9.92180098e-01      8.51605891e-02      1.10779468e+00      
H    1.76404576e+00      8.23431411e-01      9.06463794e-01      
H    5.60606573e-01      2.76278481e-01      2.08618553e+00      
C    1.55846496e+00      -1.31843318e+00     1.03837737e+00      
O    1.13202805e+00      -2.15967522e+00     2.78070145e-01      
O    2.54624146e+00      -1.46198104e+00     1.91482928e+00      
H    2.87080380e+00      -2.38045056e+00     1.85801396e+00      
O    1.35806922e+00      -2.44859619e-01     -2.21067994e+00     
H    1.44045887e+00      1.95831903e-01      -3.06064365e+00     
H    1.55427675e+00      -1.17191626e+00     -2.37140281e+00     
14
2975.312350
N    -5.43085572e-02     1.79906834e-01      5.29320231e-02      
H    3.58012077e-01      8.95577318e-02      -8.21753999e-01     
H    -5.63145679e-01     1.05331001e+00      1.18928758e-01      
H    -7.07694307e-01     -5.95696820e-01     1.42953806e-01      
C    9.92119888e-01      8.51954021e-02      1.10783180e+00      
H    1.76402181e+00      8.23302953e-01      9.06613290e-01      
H    5.61259214e-01      2.75981529e-01      2.08547908e+00      
C    1.55843627e+00      -1.31839212e+00     1.03838359e+00      
O    1.13203850e+00      -2.15969032e+00     2.78059201e-01      
O    2.54625273e+00      -1.46198395e+00     1.91483478e+00      
H    2.87081082e+00      -2.38055186e+00     1.85801535e+00      
O    1.35807216e+00      -2.44878136e-01     -2.21069766e+00     
H    1.44017901e+00      1.96016770e-01      -3.06026673e+00     
H    1.55400299e+00      -1.17159740e+00     -2.37094449e+00     
14
2975.312350
N    -5.37093399e-02     1.79842821e-01      5.13239319e-02      
H    3.47928426e-01      9.10216911e-02      -7.99218313e-01     
H    -5.61939014e-01     1.05125061e+00      1.18809710e-01      
H    -7.06558169e-01     -5.94512470e-01     1.42452360e-01      
C    9.92059678e-01      8.52302151e-02      1.10786892e+00      
H    1.76399787e+00      8.23174494e-01      9.06762786e-01      
H    5.61911856e-01      2.75684578e-01      2.08477264e+00      
C    1.55840758e+00      -1.31835107e+00     1.03838981e+00      
O    1.13204895e+00      -2.15970543e+00     2.78048257e-01      
O    2.54626401e+00      -1.46198687e+00     1.91484028e+00      
H    2.87081784e+00      -2.38065316e+00     1.85801674e+00      
O    1.35807510e+00      -2.44896654e-01     -2.21071537e+00     
H    1.43989916e+00      1.96201636e-01      -3.05988980e+00     
H    1.55372923e+00      -1.17127853e+00     -2.37048618e+00     
14
2975.312350
N    -5.31101226e-02     1.79778808e-01      4.97158406e-02      
H    3.37844775e-01      9.24856505e-02      -7.76682626e-01     
H    -5.60732348e-01     1.04919120e+00      1.18690661e-01      
H    -7.05422030e-01     -5.93328120e-01     1.41950915e-01      
C    9.91999467e-01      8.52650281e-02      1.10790604e+00      
H    1.76397392e+00      8.23046036e-01      9.06912282e-01      
H    5.62564498e-01      2.75387626e-01      2.08406620e+00      
C    1.55837889e+00      -1.31831001e+00     1.03839602e+00      
O    1.13205941e+00      -2.15972053e+00     2.78037313e-01      
O    2.54627529e+00      -1.46198978e+00     1.91484578e+00      
H    2.87082486e+00      -2.38075446e+00     1.85801814e+00      
O    1.35807804e+00      -2.44915171e-01     -2.21073308e+00     
H    1.43961930e+00      1.96386502e-01      -3.05951288e+00     
H    1.55345547e+00      -1.17095967e+00     -2.37002787e+00     
14
2975.312350
N    -5.25109053e-02     1.79714796e-01      4.81077493e-02      
H    3.27761123e-01      9.39496098e-02      -7.54146940e-01     
H    -5.59525683e-01     1.04713180e+00      1.18571613e-01      
H    -7.04285892e-01     -5.92143770e-01     1.41449469e-01      
C    9.91939257e-01      8.52998411e-02      1.10794315e+00      
H    1.76394997e+00      8.22917577e-01      9.07061777e-01      
H    5.63217140e-01      2.75090674e-01      2.08335976e+00      
C    1.55835020e+00      -1.31826896e+00     1.03840224e+00      
O    1.13206986e+00      -2.15973564e+00     2.78026368e-01      
O    2.54628657e+00      -1.46199270e+00     1.91485129e+00      
H    2.87083188e+00      -2.38085576e+00     1.85801953e+00      
O    1.35808099e+00      -2.44933689e-01     -2.21075079e+00     
H    1.43933944e+00      1.96571368e-01      -3.05913595e+00     
H    1.55318171e+00      -1.17064080e+00     -2.36956956e+00     
14
2975.312350
N    -5.13124706e-02     1.79586770e-01      4.48915668e-02      
H    3.07593821e-01      9.68775285e-02      -7.09075566e-01     
H    -5.57112352e-01     1.04301299e+00      1.18333517e-01      
H    -7.02013615e-01     -5.89775071e-01     1.40446577e-01      
C    9.91818836e-01      8.53694671e-02      1.10801739e+00      
H    1.76390208e+00      8.22660660e-01      9.07360769e-01      
H    5.64522423e-01      2.74496770e-01      2.08194687e+00      
C    1.55829282e+00      -1.31818685e+00     1.03841467e+00      
O    1.13209076e+00      -2.15976585e+00     2.78004480e-01      
O    2.54630912e+00      -1.46199853e+00     1.91486229e+00      
H    2.87084592e+00      -2.38105835e+00     1.85802232e+00      
O    1.35808687e+00      -2.44970724e-01     -2.21078622e+00     
H    1.43877972e+00      1.96941101e-01      -3.05838210e+00     
H    1.55263419e+00      -1.17000307e+00     -2.36865294e+00     
