14
1665.590501
N    -5.63035445e-02     1.83799202e-01      5.00557595e-02      
H    4.96653650e-01      2.13225647e-02      -8.41939518e-01     
H    -6.40790222e-01     1.01545207e+00      2.00482119e-01      
H    -7.62219952e-01     -5.49834717e-01     1.67093767e-01      
C    9.95774164e-01      8.46076155e-02      1.10499944e+00      
H    1.76412895e+00      8.29401507e-01      9.08356663e-01      
H    5.50909718e-01      2.77347435e-01      2.07814083e+00      
C    1.55850802e+00      -1.31823977e+00     1.03920223e+00      
O    1.13167850e+00      -2.16002021e+00     2.77811484e-01      
O    2.54610080e+00      -1.46189250e+00     1.91468950e+00      
H    2.87121505e+00      -2.37988826e+00     1.85821726e+00      
O    1.35679298e+00      -2.42837758e-01     -2.20845315e+00     
H    1.45129446e+00      1.65687076e-01      -3.07652979e+00     
H    1.55803455e+00      -1.16666027e+00     -2.40024014e+00     
14
1665.590501
N    -5.62542107e-02     1.82874120e-01      5.19808939e-02      
H    4.69555995e-01      3.72833869e-02      -8.53794904e-01     
H    -6.22284086e-01     1.02646111e+00      1.80183065e-01      
H    -7.49440645e-01     -5.62188505e-01     1.61434861e-01      
C    9.94905752e-01      8.47284524e-02      1.10567969e+00      
H    1.76412012e+00      8.27973212e-01      9.07808698e-01      
H    5.53007610e-01      2.77228673e-01      2.08050522e+00      
C    1.55851160e+00      -1.31830865e+00     1.03899291e+00      
O    1.13176066e+00      -2.15992641e+00     2.77881621e-01      
O    2.54613033e+00      -1.46191318e+00     1.91472169e+00      
H    2.87110873e+00      -2.37997818e+00     1.85816574e+00      
O    1.35711057e+00      -2.43333964e-01     -2.20900099e+00     
H    1.44872549e+00      1.73130850e-01      -3.07274672e+00     
H    1.55723198e+00      -1.16813370e+00     -2.39325996e+00     
14
1665.590501
N    -5.62295438e-02     1.82411579e-01      5.29434611e-02      
H    4.56007168e-01      4.52637981e-02      -8.59722596e-01     
H    -6.13031017e-01     1.03196563e+00      1.70033538e-01      
H    -7.43050991e-01     -5.68365399e-01     1.58605408e-01      
C    9.94471547e-01      8.47888709e-02      1.10601982e+00      
H    1.76411571e+00      8.27259065e-01      9.07534716e-01      
H    5.54056557e-01      2.77169291e-01      2.08168742e+00      
C    1.55851339e+00      -1.31834309e+00     1.03888825e+00      
O    1.13180174e+00      -2.15987951e+00     2.77916690e-01      
O    2.54614509e+00      -1.46192352e+00     1.91473779e+00      
H    2.87105556e+00      -2.38002315e+00     1.85813998e+00      
O    1.35726937e+00      -2.43582067e-01     -2.20927492e+00     
H    1.44744101e+00      1.76852737e-01      -3.07085518e+00     
H    1.55683069e+00      -1.16887041e+00     -2.38976987e+00     
14
1665.590501
N    -5.62048769e-02     1.81949037e-01      5.39060282e-02      
H    4.42458341e-01      5.32442092e-02      -8.65650289e-01     
H    -6.03777949e-01     1.03747015e+00      1.59884011e-01      
H    -7.36661337e-01     -5.74542293e-01     1.55775955e-01      
C    9.94037341e-01      8.48492893e-02      1.10635994e+00      
H    1.76411130e+00      8.26544918e-01      9.07260733e-01      
H    5.55105503e-01      2.77109910e-01      2.08286962e+00      
C    1.55851518e+00      -1.31837753e+00     1.03878359e+00      
O    1.13184282e+00      -2.15983261e+00     2.77951758e-01      
O    2.54615985e+00      -1.46193386e+00     1.91475388e+00      
H    2.87100240e+00      -2.38006811e+00     1.85811422e+00      
O    1.35742816e+00      -2.43830171e-01     -2.20954884e+00     
H    1.44615652e+00      1.80574624e-01      -3.06896365e+00     
H    1.55642941e+00      -1.16960713e+00     -2.38627978e+00     
14
1665.590501
N    -5.61802099e-02     1.81486496e-01      5.48685954e-02      
H    4.28909513e-01      6.12246203e-02      -8.71577981e-01     
H    -5.94524880e-01     1.04297467e+00      1.49734484e-01      
H    -7.30271683e-01     -5.80719187e-01     1.52946502e-01      
C    9.93603136e-01      8.49097078e-02      1.10670007e+00      
H    1.76410689e+00      8.25830770e-01      9.06986751e-01      
H    5.56154450e-01      2.77050529e-01      2.08405182e+00      
C    1.55851697e+00      -1.31841197e+00     1.03867892e+00      
O    1.13188391e+00      -2.15978571e+00     2.77986827e-01      
O    2.54617461e+00      -1.46194420e+00     1.91476998e+00      
H    2.87094924e+00      -2.38011307e+00     1.85808845e+00      
O    1.35758696e+00      -2.44078274e-01     -2.20982276e+00     
H    1.44487204e+00      1.84296510e-01      -3.06707211e+00     
H    1.55602812e+00      -1.17034384e+00     -2.38278969e+00     
14
1665.590501
N    -5.61555430e-02     1.81023955e-01      5.58311626e-02      
H    4.15360686e-01      6.92050314e-02      -8.77505674e-01     
H    -5.85271812e-01     1.04847919e+00      1.39584957e-01      
H    -7.23882030e-01     -5.86896081e-01     1.50117049e-01      
C    9.93168930e-01      8.49701262e-02      1.10704020e+00      
H    1.76410247e+00      8.25116623e-01      9.06712768e-01      
H    5.57203396e-01      2.76991148e-01      2.08523401e+00      
C    1.55851876e+00      -1.31844641e+00     1.03857426e+00      
O    1.13192499e+00      -2.15973881e+00     2.78021896e-01      
O    2.54618938e+00      -1.46195453e+00     1.91478608e+00      
H    2.87089608e+00      -2.38015803e+00     1.85806269e+00      
O    1.35774575e+00      -2.44326377e-01     -2.21009668e+00     
H    1.44358756e+00      1.88018397e-01      -3.06518057e+00     
H    1.55562684e+00      -1.17108056e+00     -2.37929961e+00     
14
1665.590501
N    -5.61432096e-02     1.80792685e-01      5.63124461e-02      
H    4.08586272e-01      7.31952370e-02      -8.80469520e-01     
H    -5.80645278e-01     1.05123145e+00      1.34510194e-01      
H    -7.20687203e-01     -5.89984528e-01     1.48702323e-01      
C    9.92951827e-01      8.50003354e-02      1.10721026e+00      
H    1.76410027e+00      8.24759549e-01      9.06575777e-01      
H    5.57727869e-01      2.76961457e-01      2.08582511e+00      
C    1.55851965e+00      -1.31846363e+00     1.03852193e+00      
O    1.13194553e+00      -2.15971536e+00     2.78039430e-01      
O    2.54619676e+00      -1.46195970e+00     1.91479412e+00      
H    2.87086950e+00      -2.38018052e+00     1.85804981e+00      
O    1.35782515e+00      -2.44450429e-01     -2.21023364e+00     
H    1.44294532e+00      1.89879341e-01      -3.06423480e+00     
H    1.55542620e+00      -1.17144892e+00     -2.37755456e+00     
14
1665.590501
N    -5.61308761e-02     1.80561414e-01      5.67937297e-02      
H    4.01811858e-01      7.71854426e-02      -8.83433366e-01     
H    -5.76018743e-01     1.05398371e+00      1.29435430e-01      
H    -7.17492376e-01     -5.93072975e-01     1.47287596e-01      
C    9.92734725e-01      8.50305447e-02      1.10738032e+00      
H    1.76409806e+00      8.24402475e-01      9.06438786e-01      
H    5.58252343e-01      2.76931766e-01      2.08641621e+00      
C    1.55852055e+00      -1.31848085e+00     1.03846960e+00      
O    1.13196607e+00      -2.15969191e+00     2.78056964e-01      
O    2.54620414e+00      -1.46196487e+00     1.91480217e+00      
H    2.87084292e+00      -2.38020300e+00     1.85803693e+00      
O    1.35790455e+00      -2.44574481e-01     -2.21037060e+00     
H    1.44230307e+00      1.91740284e-01      -3.06328904e+00     
H    1.55522555e+00      -1.17181727e+00     -2.37580952e+00     
14
1665.590501
N    -5.60815423e-02     1.79636332e-01      5.87188641e-02      
H    3.74714204e-01      9.31462648e-02      -8.95288752e-01     
H    -5.57512607e-01     1.06499275e+00      1.09136376e-01      
H    -7.04713068e-01     -6.05426763e-01     1.41628690e-01      
C    9.91866313e-01      8.51513815e-02      1.10806058e+00      
H    1.76408924e+00      8.22974181e-01      9.05890820e-01      
H    5.60350235e-01      2.76813004e-01      2.08878061e+00      
C    1.55852413e+00      -1.31854973e+00     1.03826028e+00      
O    1.13204823e+00      -2.15959811e+00     2.78127102e-01      
O    2.54623366e+00      -1.46198555e+00     1.91483437e+00      
H    2.87073660e+00      -2.38029292e+00     1.85798541e+00      
O    1.35822213e+00      -2.45070687e-01     -2.21091844e+00     
H    1.43973411e+00      1.99184058e-01      -3.05950596e+00     
H    1.55442299e+00      -1.17329071e+00     -2.36882934e+00     
14
1665.590501
N    -5.60692088e-02     1.79405061e-01      5.92001477e-02      
H    3.67939790e-01      9.71364704e-02      -8.98252598e-01     
H    -5.52886072e-01     1.06774501e+00      1.04061612e-01      
H    -7.01518241e-01     -6.08515210e-01     1.40213963e-01      
C    9.91649211e-01      8.51815908e-02      1.10823064e+00      
H    1.76408703e+00      8.22617107e-01      9.05753829e-01      
H    5.60874709e-01      2.76783313e-01      2.08937171e+00      
C    1.55852503e+00      -1.31856695e+00     1.03820795e+00      
O    1.13206877e+00      -2.15957466e+00     2.78144636e-01      
O    2.54624104e+00      -1.46199072e+00     1.91484242e+00      
H    2.87071002e+00      -2.38031540e+00     1.85797253e+00      
O    1.35830153e+00      -2.45194739e-01     -2.21105540e+00     
H    1.43909186e+00      2.01045001e-01      -3.05856020e+00     
H    1.55422234e+00      -1.17365906e+00     -2.36708430e+00     
14
1665.590501
N    -5.60568754e-02     1.79173791e-01      5.96814312e-02      
H    3.61165376e-01      1.01126676e-01      -9.01216444e-01     
H    -5.48259538e-01     1.07049727e+00      9.89868490e-02      
H    -6.98323414e-01     -6.11603657e-01     1.38799237e-01      
C    9.91432108e-01      8.52118000e-02      1.10840070e+00      
H    1.76408483e+00      8.22260033e-01      9.05616838e-01      
H    5.61399182e-01      2.76753622e-01      2.08996281e+00      
C    1.55852592e+00      -1.31858417e+00     1.03815562e+00      
O    1.13208931e+00      -2.15955121e+00     2.78162170e-01      
O    2.54624842e+00      -1.46199589e+00     1.91485046e+00      
H    2.87068344e+00      -2.38033789e+00     1.85795965e+00      
O    1.35838093e+00      -2.45318791e-01     -2.21119236e+00     
H    1.43844962e+00      2.02905945e-01      -3.05761443e+00     
H    1.55402170e+00      -1.17402742e+00     -2.36533925e+00     
14
1665.590501
N    -5.60322085e-02     1.78711250e-01      6.06439984e-02      
H    3.47616549e-01      1.09107087e-01      -9.07144137e-01     
H    -5.39006470e-01     1.07600179e+00      8.88373220e-02      
H    -6.91933761e-01     -6.17780551e-01     1.35969784e-01      
C    9.90997902e-01      8.52722184e-02      1.10874083e+00      
H    1.76408041e+00      8.21545886e-01      9.05342855e-01      
H    5.62448128e-01      2.76694241e-01      2.09114500e+00      
C    1.55852771e+00      -1.31861861e+00     1.03805096e+00      
O    1.13213039e+00      -2.15950431e+00     2.78197239e-01      
O    2.54626319e+00      -1.46200622e+00     1.91486656e+00      
H    2.87063028e+00      -2.38038285e+00     1.85793389e+00      
O    1.35853972e+00      -2.45566894e-01     -2.21146628e+00     
H    1.43716514e+00      2.06627832e-01      -3.05572289e+00     
H    1.55362042e+00      -1.17476414e+00     -2.36184917e+00     
14
1665.590501
N    -5.60075415e-02     1.78248709e-01      6.16065656e-02      
H    3.34067721e-01      1.17087498e-01      -9.13071829e-01     
H    -5.29753401e-01     1.08150631e+00      7.86877950e-02      
H    -6.85544107e-01     -6.23957445e-01     1.33140331e-01      
C    9.90563697e-01      8.53326369e-02      1.10908096e+00      
H    1.76407600e+00      8.20831738e-01      9.05068873e-01      
H    5.63497075e-01      2.76634860e-01      2.09232720e+00      
C    1.55852950e+00      -1.31865305e+00     1.03794629e+00      
O    1.13217148e+00      -2.15945741e+00     2.78232308e-01      
O    2.54627795e+00      -1.46201656e+00     1.91488266e+00      
H    2.87057712e+00      -2.38042781e+00     1.85790812e+00      
O    1.35869852e+00      -2.45814997e-01     -2.21174020e+00     
H    1.43588066e+00      2.10349718e-01      -3.05383135e+00     
H    1.55321913e+00      -1.17550085e+00     -2.35835908e+00     
14
1665.590501
N    -5.59828746e-02     1.77786167e-01      6.25691327e-02      
H    3.20518894e-01      1.25067909e-01      -9.18999522e-01     
H    -5.20500333e-01     1.08701083e+00      6.85382680e-02      
H    -6.79154453e-01     -6.30134339e-01     1.30310878e-01      
C    9.90129491e-01      8.53930553e-02      1.10942108e+00      
H    1.76407159e+00      8.20117591e-01      9.04794890e-01      
H    5.64546021e-01      2.76575479e-01      2.09350940e+00      
C    1.55853129e+00      -1.31868749e+00     1.03784163e+00      
O    1.13221256e+00      -2.15941051e+00     2.78267376e-01      
O    2.54629271e+00      -1.46202690e+00     1.91489875e+00      
H    2.87052396e+00      -2.38047277e+00     1.85788236e+00      
O    1.35885731e+00      -2.46063101e-01     -2.21201412e+00     
H    1.43459617e+00      2.14071605e-01      -3.05193982e+00     
H    1.55281785e+00      -1.17623757e+00     -2.35486899e+00     
14
1665.590501
N    -5.59582077e-02     1.77323626e-01      6.35316999e-02      
H    3.06970067e-01      1.33048320e-01      -9.24927214e-01     
H    -5.11247264e-01     1.09251535e+00      5.83887410e-02      
H    -6.72764799e-01     -6.36311233e-01     1.27481425e-01      
C    9.89695286e-01      8.54534738e-02      1.10976121e+00      
H    1.76406718e+00      8.19403444e-01      9.04520908e-01      
H    5.65594968e-01      2.76516097e-01      2.09469160e+00      
C    1.55853308e+00      -1.31872193e+00     1.03773697e+00      
O    1.13225364e+00      -2.15936361e+00     2.78302445e-01      
O    2.54630747e+00      -1.46203724e+00     1.91491485e+00      
H    2.87047079e+00      -2.38051774e+00     1.85785660e+00      
O    1.35901611e+00      -2.46311204e-01     -2.21228805e+00     
H    1.43331169e+00      2.17793492e-01      -3.05004828e+00     
H    1.55241656e+00      -1.17697428e+00     -2.35137890e+00     
14
1665.590501
N    -5.59088739e-02     1.76398544e-01      6.54568343e-02      
H    2.79872412e-01      1.49009143e-01      -9.36782600e-01     
H    -4.92741128e-01     1.10352439e+00      3.80896870e-02      
H    -6.59985492e-01     -6.48665021e-01     1.21822519e-01      
C    9.88826874e-01      8.55743107e-02      1.11044146e+00      
H    1.76405835e+00      8.17975149e-01      9.03972943e-01      
H    5.67692860e-01      2.76397335e-01      2.09705599e+00      
C    1.55853666e+00      -1.31879081e+00     1.03752765e+00      
O    1.13233580e+00      -2.15926981e+00     2.78372582e-01      
O    2.54633700e+00      -1.46205792e+00     1.91494704e+00      
H    2.87036447e+00      -2.38060766e+00     1.85780508e+00      
O    1.35933370e+00      -2.46807410e-01     -2.21283589e+00     
H    1.43074272e+00      2.25237266e-01      -3.04626521e+00     
H    1.55161399e+00      -1.17844771e+00     -2.34439872e+00     
