14
1822.695097
N    -5.52281796e-02     1.80400974e-01      5.86188065e-02      
H    3.73267888e-01      1.20919249e-01      -8.99468017e-01     
H    -5.84762425e-01     1.05108232e+00      8.89689782e-02      
H    -7.35515299e-01     -5.80105002e-01     1.49027752e-01      
C    9.93449904e-01      7.64178191e-02      1.10553739e+00      
H    1.78001827e+00      7.97524791e-01      8.96739639e-01      
H    5.61889779e-01      2.47747992e-01      2.08970173e+00      
C    1.61365960e+00      -1.22025556e+00     1.13243314e+00      
O    1.10147563e+00      -2.22268537e+00     2.22285030e-01      
O    2.53354950e+00      -1.46633361e+00     1.90099545e+00      
H    2.91105876e+00      -2.36603616e+00     1.90228218e+00      
O    1.35771180e+00      -2.44898522e-01     -2.20950147e+00     
H    1.44333538e+00      1.87100474e-01      -3.06463938e+00     
H    1.55994385e+00      -1.16962579e+00     -2.38928222e+00     
14
1822.695097
N    -5.54476870e-02     1.80325449e-01      5.84031791e-02      
H    3.77016674e-01      1.11980900e-01      -8.96941277e-01     
H    -5.80263237e-01     1.05318380e+00      9.65482094e-02      
H    -7.29412155e-01     -5.84891219e-01     1.47885350e-01      
C    9.93162558e-01      7.85861051e-02      1.10608316e+00      
H    1.77603712e+00      8.04065675e-01      8.99095930e-01      
H    5.61242656e-01      2.55029090e-01      2.08917590e+00      
C    1.59987528e+00      -1.24482049e+00     1.10891609e+00      
O    1.10910851e+00      -2.20692528e+00     2.36236781e-01      
O    2.53671685e+00      -1.46524401e+00     1.90445115e+00      
H    2.90099151e+00      -2.36958911e+00     1.89121443e+00      
O    1.35779969e+00      -2.44879538e-01     -2.20978723e+00     
H    1.44275619e+00      1.89190898e-01      -3.06382891e+00     
H    1.55866396e+00      -1.17035784e+00     -2.38504152e+00     
14
1822.695097
N    -5.55574407e-02     1.80287686e-01      5.82953654e-02      
H    3.78891067e-01      1.07511726e-01      -8.95677907e-01     
H    -5.78013644e-01     1.05423454e+00      1.00337825e-01      
H    -7.26360583e-01     -5.87284327e-01     1.47314149e-01      
C    9.93018885e-01      7.96702481e-02      1.10635604e+00      
H    1.77404654e+00      8.07336117e-01      9.00274075e-01      
H    5.60919095e-01      2.58669639e-01      2.08891298e+00      
C    1.59298313e+00      -1.25710296e+00     1.09715756e+00      
O    1.11292495e+00      -2.19904523e+00     2.43212656e-01      
O    2.53830053e+00      -1.46469921e+00     1.90617901e+00      
H    2.89595788e+00      -2.37136558e+00     1.88568055e+00      
O    1.35784363e+00      -2.44870045e-01     -2.20993011e+00     
H    1.44246659e+00      1.90236110e-01      -3.06342368e+00     
H    1.55802401e+00      -1.17072386e+00     -2.38292117e+00     
14
1822.695097
N    -5.56671944e-02     1.80249924e-01      5.81875517e-02      
H    3.80765460e-01      1.03042551e-01      -8.94414538e-01     
H    -5.75764050e-01     1.05528528e+00      1.04127441e-01      
H    -7.23309011e-01     -5.89677436e-01     1.46742948e-01      
C    9.92875212e-01      8.07543911e-02      1.10662892e+00      
H    1.77205596e+00      8.10606559e-01      9.01452221e-01      
H    5.60595534e-01      2.62310188e-01      2.08865007e+00      
C    1.58609097e+00      -1.26938542e+00     1.08539904e+00      
O    1.11674139e+00      -2.19116519e+00     2.50188532e-01      
O    2.53988420e+00      -1.46415441e+00     1.90790686e+00      
H    2.89092426e+00      -2.37314206e+00     1.88014668e+00      
O    1.35788757e+00      -2.44860553e-01     -2.21007300e+00     
H    1.44217699e+00      1.91281322e-01      -3.06301844e+00     
H    1.55738406e+00      -1.17108989e+00     -2.38080082e+00     
14
1822.695097
N    -5.57769481e-02     1.80212161e-01      5.80797380e-02      
H    3.82639852e-01      9.85733770e-02      -8.93151168e-01     
H    -5.73514456e-01     1.05633601e+00      1.07917056e-01      
H    -7.20257438e-01     -5.92070544e-01     1.46171746e-01      
C    9.92731538e-01      8.18385341e-02      1.10690180e+00      
H    1.77006538e+00      8.13877002e-01      9.02630366e-01      
H    5.60271973e-01      2.65950737e-01      2.08838715e+00      
C    1.57919881e+00      -1.28166789e+00     1.07364051e+00      
O    1.12055783e+00      -2.18328514e+00     2.57164407e-01      
O    2.54146788e+00      -1.46360961e+00     1.90963471e+00      
H    2.88589063e+00      -2.37491853e+00     1.87461280e+00      
O    1.35793151e+00      -2.44851061e-01     -2.21021588e+00     
H    1.44188739e+00      1.92326535e-01      -3.06261321e+00     
H    1.55674411e+00      -1.17145591e+00     -2.37868048e+00     
14
1822.695097
N    -5.58867018e-02     1.80174398e-01      5.79719243e-02      
H    3.84514245e-01      9.41042026e-02      -8.91887798e-01     
H    -5.71264862e-01     1.05738675e+00      1.11706672e-01      
H    -7.17205866e-01     -5.94463652e-01     1.45600545e-01      
C    9.92587865e-01      8.29226771e-02      1.10717469e+00      
H    1.76807481e+00      8.17147444e-01      9.03808512e-01      
H    5.59948411e-01      2.69591287e-01      2.08812424e+00      
C    1.57230665e+00      -1.29395036e+00     1.06188199e+00      
O    1.12437427e+00      -2.17540510e+00     2.64140282e-01      
O    2.54305155e+00      -1.46306481e+00     1.91136256e+00      
H    2.88085701e+00      -2.37669501e+00     1.86907892e+00      
O    1.35797546e+00      -2.44841569e-01     -2.21035876e+00     
H    1.44159779e+00      1.93371747e-01      -3.06220797e+00     
H    1.55610417e+00      -1.17182194e+00     -2.37656013e+00     
14
1822.695097
N    -5.59415787e-02     1.80155517e-01      5.79180175e-02      
H    3.85451442e-01      9.18696154e-02      -8.91256114e-01     
H    -5.70140066e-01     1.05791212e+00      1.13601480e-01      
H    -7.15680080e-01     -5.95660206e-01     1.45314945e-01      
C    9.92516029e-01      8.34647486e-02      1.10731113e+00      
H    1.76707952e+00      8.18782665e-01      9.04397585e-01      
H    5.59786631e-01      2.71411561e-01      2.08799278e+00      
C    1.56886058e+00      -1.30009159e+00     1.05600273e+00      
O    1.12628249e+00      -2.17146508e+00     2.67628220e-01      
O    2.54384339e+00      -1.46279241e+00     1.91222649e+00      
H    2.87834020e+00      -2.37758325e+00     1.86631199e+00      
O    1.35799743e+00      -2.44836822e-01     -2.21043020e+00     
H    1.44145299e+00      1.93894353e-01      -3.06200535e+00     
H    1.55578419e+00      -1.17200495e+00     -2.37549995e+00     
14
1822.695097
N    -5.59964555e-02     1.80136636e-01      5.78641106e-02      
H    3.86388638e-01      8.96350281e-02      -8.90624429e-01     
H    -5.69015269e-01     1.05843749e+00      1.15496287e-01      
H    -7.14154294e-01     -5.96856761e-01     1.45029344e-01      
C    9.92444192e-01      8.40068201e-02      1.10744757e+00      
H    1.76608423e+00      8.20417886e-01      9.04986657e-01      
H    5.59624850e-01      2.73231836e-01      2.08786132e+00      
C    1.56541450e+00      -1.30623282e+00     1.05012346e+00      
O    1.12819071e+00      -2.16752505e+00     2.71116158e-01      
O    2.54463523e+00      -1.46252001e+00     1.91309042e+00      
H    2.87582338e+00      -2.37847148e+00     1.86354505e+00      
O    1.35801940e+00      -2.44832076e-01     -2.21050164e+00     
H    1.44130819e+00      1.94416959e-01      -3.06180274e+00     
H    1.55546422e+00      -1.17218796e+00     -2.37443978e+00     
14
1822.695097
N    -5.62159629e-02     1.80061110e-01      5.76484832e-02      
H    3.90137424e-01      8.06966793e-02      -8.88097689e-01     
H    -5.64516081e-01     1.06053897e+00      1.23075519e-01      
H    -7.08051150e-01     -6.01642977e-01     1.43886942e-01      
C    9.92156846e-01      8.61751061e-02      1.10799333e+00      
H    1.76210307e+00      8.26958770e-01      9.07342949e-01      
H    5.58977728e-01      2.80512934e-01      2.08733550e+00      
C    1.55163018e+00      -1.33079776e+00     1.02660642e+00      
O    1.13582359e+00      -2.15176497e+00     2.85067908e-01      
O    2.54780257e+00      -1.46143041e+00     1.91654612e+00      
H    2.86575614e+00      -2.38202444e+00     1.85247729e+00      
O    1.35810728e+00      -2.44813092e-01     -2.21078740e+00     
H    1.44072899e+00      1.96507383e-01      -3.06099226e+00     
H    1.55418432e+00      -1.17292002e+00     -2.37019908e+00     
14
1822.695097
N    -5.62708397e-02     1.80042229e-01      5.75945763e-02      
H    3.91074620e-01      7.84620920e-02      -8.87466004e-01     
H    -5.63391284e-01     1.06106434e+00      1.24970326e-01      
H    -7.06525364e-01     -6.02839532e-01     1.43601341e-01      
C    9.92085009e-01      8.67171776e-02      1.10812977e+00      
H    1.76110778e+00      8.28593991e-01      9.07932021e-01      
H    5.58815947e-01      2.82333209e-01      2.08720404e+00      
C    1.54818410e+00      -1.33693899e+00     1.02072715e+00      
O    1.13773181e+00      -2.14782494e+00     2.88555846e-01      
O    2.54859441e+00      -1.46115801e+00     1.91741005e+00      
H    2.86323932e+00      -2.38291267e+00     1.84971035e+00      
O    1.35812925e+00      -2.44808346e-01     -2.21085884e+00     
H    1.44058419e+00      1.97029989e-01      -3.06078965e+00     
H    1.55386435e+00      -1.17310303e+00     -2.36913891e+00     
14
1822.695097
N    -5.63257166e-02     1.80023348e-01      5.75406695e-02      
H    3.92011817e-01      7.62275048e-02      -8.86834320e-01     
H    -5.62266488e-01     1.06158971e+00      1.26865134e-01      
H    -7.04999578e-01     -6.04036086e-01     1.43315741e-01      
C    9.92013173e-01      8.72592491e-02      1.10826621e+00      
H    1.76011249e+00      8.30229212e-01      9.08521094e-01      
H    5.58654167e-01      2.84153483e-01      2.08707258e+00      
C    1.54473803e+00      -1.34308022e+00     1.01484789e+00      
O    1.13964003e+00      -2.14388492e+00     2.92043784e-01      
O    2.54938625e+00      -1.46088561e+00     1.91827398e+00      
H    2.86072251e+00      -2.38380091e+00     1.84694342e+00      
O    1.35815122e+00      -2.44803599e-01     -2.21093028e+00     
H    1.44043939e+00      1.97552595e-01      -3.06058703e+00     
H    1.55354437e+00      -1.17328604e+00     -2.36807873e+00     
14
1822.695097
N    -5.64354703e-02     1.79985585e-01      5.74328558e-02      
H    3.93886210e-01      7.17583304e-02      -8.85570950e-01     
H    -5.60016894e-01     1.06264045e+00      1.30654750e-01      
H    -7.01948006e-01     -6.06429194e-01     1.42744540e-01      
C    9.91869500e-01      8.83433921e-02      1.10853910e+00      
H    1.75812192e+00      8.33499654e-01      9.09699240e-01      
H    5.58330605e-01      2.87794033e-01      2.08680967e+00      
C    1.53784587e+00      -1.35536269e+00     1.00308937e+00      
O    1.14345647e+00      -2.13600488e+00     2.99019659e-01      
O    2.55096992e+00      -1.46034081e+00     1.92000183e+00      
H    2.85568889e+00      -2.38557739e+00     1.84140954e+00      
O    1.35819517e+00      -2.44794107e-01     -2.21107316e+00     
H    1.44014979e+00      1.98597807e-01      -3.06018179e+00     
H    1.55290443e+00      -1.17365207e+00     -2.36595838e+00     
14
1822.695097
N    -5.65452240e-02     1.79947822e-01      5.73250421e-02      
H    3.95760602e-01      6.72891560e-02      -8.84307580e-01     
H    -5.57767300e-01     1.06369118e+00      1.34444365e-01      
H    -6.98896433e-01     -6.08822302e-01     1.42173338e-01      
C    9.91725826e-01      8.94275351e-02      1.10881198e+00      
H    1.75613134e+00      8.36770097e-01      9.10877385e-01      
H    5.58007044e-01      2.91434582e-01      2.08654675e+00      
C    1.53095371e+00      -1.36764516e+00     9.91330841e-01      
O    1.14727291e+00      -2.12812483e+00     3.05995534e-01      
O    2.55255360e+00      -1.45979601e+00     1.92172968e+00      
H    2.85065526e+00      -2.38735386e+00     1.83587566e+00      
O    1.35823911e+00      -2.44784615e-01     -2.21121604e+00     
H    1.43986019e+00      1.99643020e-01      -3.05977656e+00     
H    1.55226448e+00      -1.17401809e+00     -2.36383804e+00     
14
1822.695097
N    -5.66549777e-02     1.79910060e-01      5.72172284e-02      
H    3.97634995e-01      6.28199815e-02      -8.83044211e-01     
H    -5.55517706e-01     1.06474192e+00      1.38233981e-01      
H    -6.95844861e-01     -6.11215411e-01     1.41602137e-01      
C    9.91582153e-01      9.05116781e-02      1.10908486e+00      
H    1.75414076e+00      8.40040539e-01      9.12055531e-01      
H    5.57683483e-01      2.95075131e-01      2.08628384e+00      
C    1.52406155e+00      -1.37992762e+00     9.79572317e-01      
O    1.15108935e+00      -2.12024479e+00     3.12971410e-01      
O    2.55413727e+00      -1.45925121e+00     1.92345753e+00      
H    2.84562164e+00      -2.38913034e+00     1.83034179e+00      
O    1.35828305e+00      -2.44775123e-01     -2.21135893e+00     
H    1.43957059e+00      2.00688232e-01      -3.05937132e+00     
H    1.55162453e+00      -1.17438412e+00     -2.36171769e+00     
14
1822.695097
N    -5.67647314e-02     1.79872297e-01      5.71094147e-02      
H    3.99509388e-01      5.83508071e-02      -8.81780841e-01     
H    -5.53268113e-01     1.06579266e+00      1.42023597e-01      
H    -6.92793289e-01     -6.13608519e-01     1.41030936e-01      
C    9.91438480e-01      9.15958211e-02      1.10935774e+00      
H    1.75215018e+00      8.43310981e-01      9.13233676e-01      
H    5.57359922e-01      2.98715680e-01      2.08602092e+00      
C    1.51716940e+00      -1.39221009e+00     9.67813792e-01      
O    1.15490579e+00      -2.11236474e+00     3.19947285e-01      
O    2.55572095e+00      -1.45870641e+00     1.92518539e+00      
H    2.84058801e+00      -2.39090681e+00     1.82480791e+00      
O    1.35832699e+00      -2.44765630e-01     -2.21150181e+00     
H    1.43928099e+00      2.01733444e-01      -3.05896609e+00     
H    1.55098458e+00      -1.17475014e+00     -2.35959734e+00     
14
1822.695097
N    -5.69842388e-02     1.79796772e-01      5.68937873e-02      
H    4.03258174e-01      4.94124582e-02      -8.79254101e-01     
H    -5.48768925e-01     1.06789414e+00      1.49602828e-01      
H    -6.86690145e-01     -6.18394736e-01     1.39888534e-01      
C    9.91151134e-01      9.37641071e-02      1.10990351e+00      
H    1.74816903e+00      8.49851865e-01      9.15589967e-01      
H    5.56712799e-01      3.05996778e-01      2.08549509e+00      
C    1.50338508e+00      -1.41677502e+00     9.44296743e-01      
O    1.16253867e+00      -2.09660465e+00     3.33899036e-01      
O    2.55888830e+00      -1.45761681e+00     1.92864109e+00      
H    2.83052076e+00      -2.39445976e+00     1.81374016e+00      
O    1.35841488e+00      -2.44746646e-01     -2.21178757e+00     
H    1.43870180e+00      2.03823868e-01      -3.05815562e+00     
H    1.54970469e+00      -1.17548219e+00     -2.35535664e+00     
