14
3879.015166
N    -5.61097737e-02     1.79922944e-01      5.78406132e-02      
H    3.89006634e-01      8.44677106e-02      -8.90538175e-01     
H    -5.67577892e-01     1.06099642e+00      1.19281088e-01      
H    -7.10741804e-01     -5.98355761e-01     1.44351092e-01      
C    9.92306720e-01      8.50806563e-02      1.10771826e+00      
H    1.76407393e+00      8.23789480e-01      9.06184538e-01      
H    5.59295390e-01      2.76966258e-01      2.08765583e+00      
C    1.55853645e+00      -1.31846810e+00     1.03839491e+00      
O    1.13200624e+00      -2.15968189e+00     2.78074993e-01      
O    2.54620690e+00      -1.46197849e+00     1.91480281e+00      
H    2.87078998e+00      -2.38021098e+00     1.85808147e+00      
O    1.35945168e+00      -2.57857754e-01     -2.20558290e+00     
H    1.45167802e+00      2.49057546e-01      -3.16780999e+00     
H    1.52187641e+00      -1.01856512e+00     -2.34608347e+00     
14
3879.015166
N    -5.61088826e-02     1.79966927e-01      5.78195341e-02      
H    3.88820733e-01      8.46422463e-02      -8.90243896e-01     
H    -5.67374838e-01     1.06061937e+00      1.19282292e-01      
H    -7.10832033e-01     -5.98579288e-01     1.44377855e-01      
C    9.92305170e-01      8.50832330e-02      1.10771881e+00      
H    1.76407886e+00      8.23764192e-01      9.06179605e-01      
H    5.59296865e-01      2.76942790e-01      2.08764148e+00      
C    1.55853292e+00      -1.31847990e+00     1.03838741e+00      
O    1.13200647e+00      -2.15967267e+00     2.78079253e-01      
O    2.54620990e+00      -1.46197767e+00     1.91480667e+00      
H    2.87078993e+00      -2.38022023e+00     1.85806389e+00      
O    1.35910459e+00      -2.54598961e-01     -2.20684831e+00     
H    1.44901316e+00      2.35658702e-01      -3.14120686e+00     
H    1.53011338e+00      -1.05706234e+00     -2.35264246e+00     
14
3879.015166
N    -5.61084370e-02     1.79988918e-01      5.78089946e-02      
H    3.88727783e-01      8.47295142e-02      -8.90096757e-01     
H    -5.67273311e-01     1.06043085e+00      1.19282894e-01      
H    -7.10877148e-01     -5.98691051e-01     1.44391236e-01      
C    9.92304395e-01      8.50845214e-02      1.10771908e+00      
H    1.76408132e+00      8.23751548e-01      9.06177138e-01      
H    5.59297602e-01      2.76931056e-01      2.08763430e+00      
C    1.55853116e+00      -1.31848580e+00     1.03838367e+00      
O    1.13200658e+00      -2.15966806e+00     2.78081383e-01      
O    2.54621140e+00      -1.46197726e+00     1.91480861e+00      
H    2.87078990e+00      -2.38022485e+00     1.85805511e+00      
O    1.35893105e+00      -2.52969565e-01     -2.20748101e+00     
H    1.44768073e+00      2.28959281e-01      -3.12790530e+00     
H    1.53423186e+00      -1.07631095e+00     -2.35592196e+00     
14
3879.015166
N    -5.61079915e-02     1.80010909e-01      5.77984550e-02      
H    3.88634833e-01      8.48167821e-02      -8.89949617e-01     
H    -5.67171784e-01     1.06024233e+00      1.19283496e-01      
H    -7.10922263e-01     -5.98802815e-01     1.44404618e-01      
C    9.92303620e-01      8.50858097e-02      1.10771936e+00      
H    1.76408379e+00      8.23738904e-01      9.06174671e-01      
H    5.59298339e-01      2.76919321e-01      2.08762712e+00      
C    1.55852940e+00      -1.31849170e+00     1.03837992e+00      
O    1.13200670e+00      -2.15966345e+00     2.78083513e-01      
O    2.54621290e+00      -1.46197685e+00     1.91481054e+00      
H    2.87078987e+00      -2.38022947e+00     1.85804632e+00      
O    1.35875751e+00      -2.51340169e-01     -2.20811371e+00     
H    1.44634830e+00      2.22259859e-01      -3.11460374e+00     
H    1.53835034e+00      -1.09555956e+00     -2.35920145e+00     
14
3879.015166
N    -5.61075459e-02     1.80032900e-01      5.77879155e-02      
H    3.88541882e-01      8.49040500e-02      -8.89802478e-01     
H    -5.67070257e-01     1.06005380e+00      1.19284097e-01      
H    -7.10967378e-01     -5.98914578e-01     1.44417999e-01      
C    9.92302844e-01      8.50870981e-02      1.10771963e+00      
H    1.76408625e+00      8.23726260e-01      9.06172204e-01      
H    5.59299077e-01      2.76907587e-01      2.08761994e+00      
C    1.55852763e+00      -1.31849760e+00     1.03837618e+00      
O    1.13200681e+00      -2.15965884e+00     2.78085643e-01      
O    2.54621440e+00      -1.46197644e+00     1.91481247e+00      
H    2.87078984e+00      -2.38023409e+00     1.85803753e+00      
O    1.35858397e+00      -2.49710773e-01     -2.20874641e+00     
H    1.44501588e+00      2.15560437e-01      -3.10130218e+00     
H    1.54246882e+00      -1.11480817e+00     -2.36248095e+00     
14
3879.015166
N    -5.61071003e-02     1.80054891e-01      5.77773760e-02      
H    3.88448932e-01      8.49913179e-02      -8.89655338e-01     
H    -5.66968729e-01     1.05986528e+00      1.19284699e-01      
H    -7.11012492e-01     -5.99026342e-01     1.44431380e-01      
C    9.92302069e-01      8.50883864e-02      1.10771990e+00      
H    1.76408872e+00      8.23713616e-01      9.06169737e-01      
H    5.59299814e-01      2.76895853e-01      2.08761277e+00      
C    1.55852587e+00      -1.31850349e+00     1.03837243e+00      
O    1.13200692e+00      -2.15965423e+00     2.78087773e-01      
O    2.54621590e+00      -1.46197603e+00     1.91481440e+00      
H    2.87078982e+00      -2.38023872e+00     1.85802874e+00      
O    1.35841042e+00      -2.48081376e-01     -2.20937912e+00     
H    1.44368345e+00      2.08861015e-01      -3.08800062e+00     
H    1.54658731e+00      -1.13405677e+00     -2.36576044e+00     
14
3879.015166
N    -5.61068775e-02     1.80065886e-01      5.77721062e-02      
H    3.88402457e-01      8.50349519e-02      -8.89581768e-01     
H    -5.66917966e-01     1.05977102e+00      1.19285000e-01      
H    -7.11035050e-01     -5.99082224e-01     1.44438071e-01      
C    9.92301682e-01      8.50890306e-02      1.10772004e+00      
H    1.76408995e+00      8.23707294e-01      9.06168503e-01      
H    5.59300183e-01      2.76889986e-01      2.08760918e+00      
C    1.55852499e+00      -1.31850644e+00     1.03837056e+00      
O    1.13200698e+00      -2.15965193e+00     2.78088838e-01      
O    2.54621665e+00      -1.46197583e+00     1.91481537e+00      
H    2.87078980e+00      -2.38024103e+00     1.85802435e+00      
O    1.35832365e+00      -2.47266678e-01     -2.20969547e+00     
H    1.44301723e+00      2.05511304e-01      -3.08134984e+00     
H    1.54864655e+00      -1.14368108e+00     -2.36740019e+00     
14
3879.015166
N    -5.61066548e-02     1.80076882e-01      5.77668364e-02      
H    3.88355981e-01      8.50785858e-02      -8.89508199e-01     
H    -5.66867202e-01     1.05967675e+00      1.19285301e-01      
H    -7.11057607e-01     -5.99138105e-01     1.44444762e-01      
C    9.92301294e-01      8.50896748e-02      1.10772018e+00      
H    1.76409118e+00      8.23700972e-01      9.06167270e-01      
H    5.59300552e-01      2.76884119e-01      2.08760559e+00      
C    1.55852410e+00      -1.31850939e+00     1.03836869e+00      
O    1.13200704e+00      -2.15964962e+00     2.78089903e-01      
O    2.54621740e+00      -1.46197562e+00     1.91481634e+00      
H    2.87078979e+00      -2.38024334e+00     1.85801996e+00      
O    1.35823688e+00      -2.46451980e-01     -2.21001182e+00     
H    1.44235102e+00      2.02161593e-01      -3.07469906e+00     
H    1.55070579e+00      -1.15330538e+00     -2.36903994e+00     
14
3879.015166
N    -5.61057636e-02     1.80120864e-01      5.77457574e-02      
H    3.88170081e-01      8.52531216e-02      -8.89213919e-01     
H    -5.66664148e-01     1.05929971e+00      1.19286505e-01      
H    -7.11147837e-01     -5.99361633e-01     1.44471524e-01      
C    9.92299744e-01      8.50922514e-02      1.10772072e+00      
H    1.76409612e+00      8.23675684e-01      9.06162336e-01      
H    5.59302026e-01      2.76860651e-01      2.08759123e+00      
C    1.55852058e+00      -1.31852119e+00     1.03836119e+00      
O    1.13200726e+00      -2.15964040e+00     2.78094163e-01      
O    2.54622040e+00      -1.46197480e+00     1.91482020e+00      
H    2.87078973e+00      -2.38025258e+00     1.85800238e+00      
O    1.35788980e+00      -2.43193188e-01     -2.21127722e+00     
H    1.43968616e+00      1.88762749e-01      -3.04809594e+00     
H    1.55894275e+00      -1.19180260e+00     -2.37559892e+00     
14
3879.015166
N    -5.61055409e-02     1.80131860e-01      5.77404876e-02      
H    3.88123605e-01      8.52967555e-02      -8.89140350e-01     
H    -5.66613384e-01     1.05920544e+00      1.19286806e-01      
H    -7.11170394e-01     -5.99417514e-01     1.44478215e-01      
C    9.92299356e-01      8.50928956e-02      1.10772086e+00      
H    1.76409735e+00      8.23669362e-01      9.06161103e-01      
H    5.59302395e-01      2.76854784e-01      2.08758764e+00      
C    1.55851969e+00      -1.31852414e+00     1.03835932e+00      
O    1.13200732e+00      -2.15963809e+00     2.78095228e-01      
O    2.54622115e+00      -1.46197459e+00     1.91482117e+00      
H    2.87078972e+00      -2.38025489e+00     1.85799799e+00      
O    1.35780303e+00      -2.42378490e-01     -2.21159357e+00     
H    1.43901995e+00      1.85413038e-01      -3.04144516e+00     
H    1.56100199e+00      -1.20142690e+00     -2.37723867e+00     
14
3879.015166
N    -5.61053181e-02     1.80142855e-01      5.77352178e-02      
H    3.88077130e-01      8.53403895e-02      -8.89066780e-01     
H    -5.66562621e-01     1.05911118e+00      1.19287107e-01      
H    -7.11192952e-01     -5.99473396e-01     1.44484906e-01      
C    9.92298969e-01      8.50935398e-02      1.10772100e+00      
H    1.76409858e+00      8.23663040e-01      9.06159869e-01      
H    5.59302764e-01      2.76848917e-01      2.08758405e+00      
C    1.55851881e+00      -1.31852709e+00     1.03835745e+00      
O    1.13200738e+00      -2.15963579e+00     2.78096293e-01      
O    2.54622190e+00      -1.46197439e+00     1.91482214e+00      
H    2.87078970e+00      -2.38025720e+00     1.85799360e+00      
O    1.35771626e+00      -2.41563792e-01     -2.21190992e+00     
H    1.43835373e+00      1.82063327e-01      -3.03479438e+00     
H    1.56306123e+00      -1.21105121e+00     -2.37887842e+00     
14
3879.015166
N    -5.61048725e-02     1.80164846e-01      5.77246783e-02      
H    3.87984180e-01      8.54276574e-02      -8.88919640e-01     
H    -5.66461093e-01     1.05892266e+00      1.19287709e-01      
H    -7.11238066e-01     -5.99585160e-01     1.44498287e-01      
C    9.92298194e-01      8.50948281e-02      1.10772127e+00      
H    1.76410105e+00      8.23650396e-01      9.06157402e-01      
H    5.59303501e-01      2.76837183e-01      2.08757688e+00      
C    1.55851705e+00      -1.31853298e+00     1.03835370e+00      
O    1.13200749e+00      -2.15963118e+00     2.78098423e-01      
O    2.54622340e+00      -1.46197398e+00     1.91482407e+00      
H    2.87078968e+00      -2.38026183e+00     1.85798481e+00      
O    1.35754271e+00      -2.39934395e-01     -2.21254263e+00     
H    1.43702130e+00      1.75363905e-01      -3.02149282e+00     
H    1.56717972e+00      -1.23029981e+00     -2.38215791e+00     
14
3879.015166
N    -5.61044269e-02     1.80186837e-01      5.77141388e-02      
H    3.87891229e-01      8.55149253e-02      -8.88772501e-01     
H    -5.66359566e-01     1.05873413e+00      1.19288310e-01      
H    -7.11283181e-01     -5.99696923e-01     1.44511668e-01      
C    9.92297418e-01      8.50961165e-02      1.10772154e+00      
H    1.76410351e+00      8.23637752e-01      9.06154935e-01      
H    5.59304239e-01      2.76825449e-01      2.08756970e+00      
C    1.55851528e+00      -1.31853888e+00     1.03834996e+00      
O    1.13200760e+00      -2.15962657e+00     2.78100553e-01      
O    2.54622490e+00      -1.46197357e+00     1.91482600e+00      
H    2.87078965e+00      -2.38026645e+00     1.85797602e+00      
O    1.35736917e+00      -2.38304999e-01     -2.21317533e+00     
H    1.43568888e+00      1.68664483e-01      -3.00819126e+00     
H    1.57129820e+00      -1.24954842e+00     -2.38543741e+00     
14
3879.015166
N    -5.61039814e-02     1.80208828e-01      5.77035992e-02      
H    3.87798279e-01      8.56021932e-02      -8.88625361e-01     
H    -5.66258039e-01     1.05854561e+00      1.19288912e-01      
H    -7.11328296e-01     -5.99808687e-01     1.44525050e-01      
C    9.92296643e-01      8.50974048e-02      1.10772182e+00      
H    1.76410598e+00      8.23625108e-01      9.06152468e-01      
H    5.59304976e-01      2.76813714e-01      2.08756252e+00      
C    1.55851352e+00      -1.31854478e+00     1.03834621e+00      
O    1.13200772e+00      -2.15962196e+00     2.78102683e-01      
O    2.54622640e+00      -1.46197316e+00     1.91482793e+00      
H    2.87078962e+00      -2.38027107e+00     1.85796723e+00      
O    1.35719563e+00      -2.36675603e-01     -2.21380803e+00     
H    1.43435645e+00      1.61965061e-01      -2.99488970e+00     
H    1.57541668e+00      -1.26879703e+00     -2.38871690e+00     
14
3879.015166
N    -5.61035358e-02     1.80230819e-01      5.76930597e-02      
H    3.87705329e-01      8.56894611e-02      -8.88478222e-01     
H    -5.66156512e-01     1.05835709e+00      1.19289514e-01      
H    -7.11373411e-01     -5.99920450e-01     1.44538431e-01      
C    9.92295868e-01      8.50986932e-02      1.10772209e+00      
H    1.76410844e+00      8.23612464e-01      9.06150001e-01      
H    5.59305713e-01      2.76801980e-01      2.08755534e+00      
C    1.55851176e+00      -1.31855068e+00     1.03834247e+00      
O    1.13200783e+00      -2.15961735e+00     2.78104813e-01      
O    2.54622790e+00      -1.46197275e+00     1.91482987e+00      
H    2.87078959e+00      -2.38027569e+00     1.85795845e+00      
O    1.35702209e+00      -2.35046207e-01     -2.21444073e+00     
H    1.43302402e+00      1.55265640e-01      -2.98158814e+00     
H    1.57953516e+00      -1.28804564e+00     -2.39199640e+00     
14
3879.015166
N    -5.61026447e-02     1.80274802e-01      5.76719806e-02      
H    3.87519428e-01      8.58639968e-02      -8.88183943e-01     
H    -5.65953458e-01     1.05798004e+00      1.19290718e-01      
H    -7.11463640e-01     -6.00143977e-01     1.44565194e-01      
C    9.92294318e-01      8.51012699e-02      1.10772264e+00      
H    1.76411337e+00      8.23587176e-01      9.06145068e-01      
H    5.59307188e-01      2.76778512e-01      2.08754099e+00      
C    1.55850823e+00      -1.31856248e+00     1.03833497e+00      
O    1.13200806e+00      -2.15960813e+00     2.78109073e-01      
O    2.54623090e+00      -1.46197193e+00     1.91483373e+00      
H    2.87078954e+00      -2.38028494e+00     1.85794087e+00      
O    1.35667500e+00      -2.31787414e-01     -2.21570614e+00     
H    1.43035916e+00      1.41866796e-01      -2.95498501e+00     
H    1.58777213e+00      -1.32654286e+00     -2.39855539e+00     
