14
3791.765550
N    -5.60322438e-02     1.79996320e-01      5.76117060e-02      
H    3.87280405e-01      8.56852042e-02      -8.85786670e-01     
H    -5.67223322e-01     1.06048882e+00      1.19190240e-01      
H    -7.10862092e-01     -5.99034897e-01     1.44325182e-01      
C    9.92266173e-01      8.50772174e-02      1.10773526e+00      
H    1.76439660e+00      8.24006328e-01      9.06154882e-01      
H    5.59427172e-01      2.76865626e-01      2.08742983e+00      
C    1.55853873e+00      -1.31853350e+00     1.03840911e+00      
O    1.13200599e+00      -2.15963925e+00     2.78094720e-01      
O    2.54618810e+00      -1.46192711e+00     1.91480496e+00      
H    2.87107685e+00      -2.38099571e+00     1.85799349e+00      
O    1.35577158e+00      -2.42497805e-01     -2.20134500e+00     
H    1.45344382e+00      2.75737073e-01      -3.19830172e+00     
H    1.57894803e+00      -1.29007268e+00     -2.38467966e+00     
14
3791.765550
N    -5.60507352e-02     1.80021958e-01      5.76478537e-02      
H    3.87526062e-01      8.55553666e-02      -8.86680267e-01     
H    -5.67108910e-01     1.06023867e+00      1.19214156e-01      
H    -7.10922249e-01     -5.99088640e-01     1.44358422e-01      
C    9.92274759e-01      8.50806538e-02      1.10773156e+00      
H    1.76432086e+00      8.23926828e-01      9.06157362e-01      
H    5.59395701e-01      2.76867316e-01      2.08747197e+00      
C    1.55853463e+00      -1.31852895e+00     1.03839807e+00      
O    1.13200628e+00      -2.15964069e+00     2.78094048e-01      
O    2.54619580e+00      -1.46193913e+00     1.91480829e+00      
H    2.87100508e+00      -2.38080877e+00     1.85799791e+00      
O    1.35634452e+00      -2.43078999e-01     -2.20366988e+00     
H    1.45033751e+00      2.55668347e-01      -3.16407566e+00     
H    1.57291709e+00      -1.26069301e+00     -2.38158960e+00     
14
3791.765550
N    -5.60599808e-02     1.80034778e-01      5.76659276e-02      
H    3.87648890e-01      8.54904478e-02      -8.87127066e-01     
H    -5.67051704e-01     1.06011360e+00      1.19226114e-01      
H    -7.10952328e-01     -5.99115512e-01     1.44375042e-01      
C    9.92279053e-01      8.50823720e-02      1.10772971e+00      
H    1.76428299e+00      8.23887078e-01      9.06158602e-01      
H    5.59379966e-01      2.76868161e-01      2.08749305e+00      
C    1.55853258e+00      -1.31852667e+00     1.03839255e+00      
O    1.13200642e+00      -2.15964141e+00     2.78093713e-01      
O    2.54619965e+00      -1.46194515e+00     1.91480995e+00      
H    2.87096919e+00      -2.38071530e+00     1.85800012e+00      
O    1.35663099e+00      -2.43369597e-01     -2.20483232e+00     
H    1.44878436e+00      2.45633984e-01      -3.14696264e+00     
H    1.56990162e+00      -1.24600317e+00     -2.38004458e+00     
14
3791.765550
N    -5.60692265e-02     1.80047597e-01      5.76840014e-02      
H    3.87771718e-01      8.54255290e-02      -8.87573865e-01     
H    -5.66994498e-01     1.05998852e+00      1.19238072e-01      
H    -7.10982407e-01     -5.99142383e-01     1.44391662e-01      
C    9.92283346e-01      8.50840902e-02      1.10772786e+00      
H    1.76424512e+00      8.23847328e-01      9.06159843e-01      
H    5.59364230e-01      2.76869006e-01      2.08751412e+00      
C    1.55853053e+00      -1.31852440e+00     1.03838703e+00      
O    1.13200657e+00      -2.15964213e+00     2.78093377e-01      
O    2.54620350e+00      -1.46195116e+00     1.91481161e+00      
H    2.87093331e+00      -2.38062184e+00     1.85800233e+00      
O    1.35691746e+00      -2.43660194e-01     -2.20599476e+00     
H    1.44723120e+00      2.35599622e-01      -3.12984961e+00     
H    1.56688615e+00      -1.23131334e+00     -2.37849955e+00     
14
3791.765550
N    -5.60784722e-02     1.80060416e-01      5.77020753e-02      
H    3.87894546e-01      8.53606101e-02      -8.88020663e-01     
H    -5.66937293e-01     1.05986345e+00      1.19250029e-01      
H    -7.11012486e-01     -5.99169255e-01     1.44408282e-01      
C    9.92287639e-01      8.50858085e-02      1.10772600e+00      
H    1.76420726e+00      8.23807578e-01      9.06161083e-01      
H    5.59348495e-01      2.76869850e-01      2.08753519e+00      
C    1.55852848e+00      -1.31852212e+00     1.03838150e+00      
O    1.13200671e+00      -2.15964285e+00     2.78093041e-01      
O    2.54620735e+00      -1.46195717e+00     1.91481328e+00      
H    2.87089742e+00      -2.38052837e+00     1.85800454e+00      
O    1.35720393e+00      -2.43950792e-01     -2.20715720e+00     
H    1.44567805e+00      2.25565259e-01      -3.11273658e+00     
H    1.56387068e+00      -1.21662350e+00     -2.37695452e+00     
14
3791.765550
N    -5.60877179e-02     1.80073235e-01      5.77201492e-02      
H    3.88017375e-01      8.52956913e-02      -8.88467462e-01     
H    -5.66880087e-01     1.05973838e+00      1.19261987e-01      
H    -7.11042564e-01     -5.99196126e-01     1.44424903e-01      
C    9.92291932e-01      8.50875267e-02      1.10772415e+00      
H    1.76416939e+00      8.23767828e-01      9.06162323e-01      
H    5.59332760e-01      2.76870695e-01      2.08755626e+00      
C    1.55852644e+00      -1.31851984e+00     1.03837598e+00      
O    1.13200686e+00      -2.15964357e+00     2.78092705e-01      
O    2.54621120e+00      -1.46196318e+00     1.91481494e+00      
H    2.87086153e+00      -2.38043490e+00     1.85800675e+00      
O    1.35749040e+00      -2.44241389e-01     -2.20831964e+00     
H    1.44412490e+00      2.15530896e-01      -3.09562355e+00     
H    1.56085521e+00      -1.20193366e+00     -2.37540949e+00     
14
3791.765550
N    -5.60923407e-02     1.80079644e-01      5.77291861e-02      
H    3.88078789e-01      8.52632319e-02      -8.88690861e-01     
H    -5.66851484e-01     1.05967584e+00      1.19267966e-01      
H    -7.11057604e-01     -5.99209562e-01     1.44433213e-01      
C    9.92294079e-01      8.50883858e-02      1.10772323e+00      
H    1.76415045e+00      8.23747953e-01      9.06162943e-01      
H    5.59324892e-01      2.76871118e-01      2.08756680e+00      
C    1.55852541e+00      -1.31851870e+00     1.03837322e+00      
O    1.13200693e+00      -2.15964393e+00     2.78092537e-01      
O    2.54621312e+00      -1.46196619e+00     1.91481577e+00      
H    2.87084359e+00      -2.38038816e+00     1.85800785e+00      
O    1.35763364e+00      -2.44386688e-01     -2.20890086e+00     
H    1.44334832e+00      2.10513715e-01      -3.08706704e+00     
H    1.55934747e+00      -1.19458874e+00     -2.37463697e+00     
14
3791.765550
N    -5.60969635e-02     1.80086054e-01      5.77382230e-02      
H    3.88140203e-01      8.52307725e-02      -8.88914260e-01     
H    -5.66822881e-01     1.05961330e+00      1.19273945e-01      
H    -7.11072643e-01     -5.99222998e-01     1.44441523e-01      
C    9.92296226e-01      8.50892449e-02      1.10772230e+00      
H    1.76413152e+00      8.23728078e-01      9.06163563e-01      
H    5.59317024e-01      2.76871540e-01      2.08757734e+00      
C    1.55852439e+00      -1.31851757e+00     1.03837046e+00      
O    1.13200700e+00      -2.15964429e+00     2.78092369e-01      
O    2.54621505e+00      -1.46196920e+00     1.91481661e+00      
H    2.87082565e+00      -2.38034143e+00     1.85800896e+00      
O    1.35777687e+00      -2.44531987e-01     -2.20948208e+00     
H    1.44257174e+00      2.05496534e-01      -3.07851053e+00     
H    1.55783974e+00      -1.18724383e+00     -2.37386446e+00     
14
3791.765550
N    -5.61154549e-02     1.80111692e-01      5.77743708e-02      
H    3.88385859e-01      8.51009349e-02      -8.89807858e-01     
H    -5.66708469e-01     1.05936316e+00      1.19297861e-01      
H    -7.11132801e-01     -5.99276740e-01     1.44474763e-01      
C    9.92304812e-01      8.50926813e-02      1.10771860e+00      
H    1.76405578e+00      8.23648578e-01      9.06166043e-01      
H    5.59285554e-01      2.76873230e-01      2.08761948e+00      
C    1.55852029e+00      -1.31851301e+00     1.03835942e+00      
O    1.13200730e+00      -2.15964573e+00     2.78091697e-01      
O    2.54622275e+00      -1.46198122e+00     1.91481993e+00      
H    2.87075387e+00      -2.38015449e+00     1.85801338e+00      
O    1.35834981e+00      -2.45113181e-01     -2.21180696e+00     
H    1.43946544e+00      1.85427808e-01      -3.04428447e+00     
H    1.55180880e+00      -1.15786415e+00     -2.37077440e+00     
14
3791.765550
N    -5.61200777e-02     1.80118102e-01      5.77834077e-02      
H    3.88447273e-01      8.50684755e-02      -8.90031257e-01     
H    -5.66679866e-01     1.05930062e+00      1.19303840e-01      
H    -7.11147840e-01     -5.99290176e-01     1.44483073e-01      
C    9.92306959e-01      8.50935404e-02      1.10771767e+00      
H    1.76403685e+00      8.23628703e-01      9.06166663e-01      
H    5.59277686e-01      2.76873652e-01      2.08763002e+00      
C    1.55851927e+00      -1.31851188e+00     1.03835666e+00      
O    1.13200737e+00      -2.15964609e+00     2.78091529e-01      
O    2.54622468e+00      -1.46198423e+00     1.91482077e+00      
H    2.87073593e+00      -2.38010776e+00     1.85801449e+00      
O    1.35849304e+00      -2.45258480e-01     -2.21238818e+00     
H    1.43868886e+00      1.80410627e-01      -3.03572796e+00     
H    1.55030107e+00      -1.15051924e+00     -2.37000189e+00     
14
3791.765550
N    -5.61247005e-02     1.80124511e-01      5.77924446e-02      
H    3.88508687e-01      8.50360161e-02      -8.90254656e-01     
H    -5.66651263e-01     1.05923808e+00      1.19309819e-01      
H    -7.11162880e-01     -5.99303612e-01     1.44491383e-01      
C    9.92309106e-01      8.50943995e-02      1.10771675e+00      
H    1.76401791e+00      8.23608828e-01      9.06167283e-01      
H    5.59269818e-01      2.76874075e-01      2.08764056e+00      
C    1.55851824e+00      -1.31851074e+00     1.03835390e+00      
O    1.13200744e+00      -2.15964645e+00     2.78091361e-01      
O    2.54622660e+00      -1.46198724e+00     1.91482160e+00      
H    2.87071799e+00      -2.38006102e+00     1.85801559e+00      
O    1.35863628e+00      -2.45403779e-01     -2.21296940e+00     
H    1.43791228e+00      1.75393446e-01      -3.02717145e+00     
H    1.54879333e+00      -1.14317432e+00     -2.36922937e+00     
14
3791.765550
N    -5.61339462e-02     1.80137330e-01      5.78105185e-02      
H    3.88631516e-01      8.49710973e-02      -8.90701455e-01     
H    -5.66594057e-01     1.05911301e+00      1.19321777e-01      
H    -7.11192958e-01     -5.99330483e-01     1.44508004e-01      
C    9.92313399e-01      8.50961177e-02      1.10771490e+00      
H    1.76398004e+00      8.23569078e-01      9.06168523e-01      
H    5.59254083e-01      2.76874920e-01      2.08766163e+00      
C    1.55851620e+00      -1.31850846e+00     1.03834838e+00      
O    1.13200759e+00      -2.15964717e+00     2.78091025e-01      
O    2.54623045e+00      -1.46199325e+00     1.91482326e+00      
H    2.87068210e+00      -2.37996755e+00     1.85801780e+00      
O    1.35892275e+00      -2.45694376e-01     -2.21413184e+00     
H    1.43635913e+00      1.65359083e-01      -3.01005842e+00     
H    1.54577786e+00      -1.12848448e+00     -2.36768434e+00     
14
3791.765550
N    -5.61431919e-02     1.80150149e-01      5.78285924e-02      
H    3.88754344e-01      8.49061784e-02      -8.91148253e-01     
H    -5.66536852e-01     1.05898794e+00      1.19333734e-01      
H    -7.11223037e-01     -5.99357355e-01     1.44524624e-01      
C    9.92317692e-01      8.50978360e-02      1.10771304e+00      
H    1.76394218e+00      8.23529328e-01      9.06169763e-01      
H    5.59238348e-01      2.76875764e-01      2.08768270e+00      
C    1.55851415e+00      -1.31850618e+00     1.03834285e+00      
O    1.13200773e+00      -2.15964789e+00     2.78090689e-01      
O    2.54623430e+00      -1.46199926e+00     1.91482493e+00      
H    2.87064621e+00      -2.37987408e+00     1.85802001e+00      
O    1.35920922e+00      -2.45984974e-01     -2.21529428e+00     
H    1.43480598e+00      1.55324720e-01      -2.99294539e+00     
H    1.54276239e+00      -1.11379464e+00     -2.36613931e+00     
14
3791.765550
N    -5.61524376e-02     1.80162968e-01      5.78466662e-02      
H    3.88877172e-01      8.48412596e-02      -8.91595052e-01     
H    -5.66479646e-01     1.05886286e+00      1.19345692e-01      
H    -7.11253116e-01     -5.99384226e-01     1.44541244e-01      
C    9.92321985e-01      8.50995542e-02      1.10771119e+00      
H    1.76390431e+00      8.23489578e-01      9.06171004e-01      
H    5.59222612e-01      2.76876609e-01      2.08770377e+00      
C    1.55851210e+00      -1.31850391e+00     1.03833733e+00      
O    1.13200788e+00      -2.15964861e+00     2.78090353e-01      
O    2.54623815e+00      -1.46200527e+00     1.91482659e+00      
H    2.87061033e+00      -2.37978062e+00     1.85802222e+00      
O    1.35949569e+00      -2.46275571e-01     -2.21645672e+00     
H    1.43325282e+00      1.45290358e-01      -2.97583236e+00     
H    1.53974692e+00      -1.09910481e+00     -2.36459428e+00     
14
3791.765550
N    -5.61616832e-02     1.80175788e-01      5.78647401e-02      
H    3.89000000e-01      8.47763408e-02      -8.92041851e-01     
H    -5.66422440e-01     1.05873779e+00      1.19357650e-01      
H    -7.11283195e-01     -5.99411098e-01     1.44557864e-01      
C    9.92326279e-01      8.51012724e-02      1.10770934e+00      
H    1.76386644e+00      8.23449828e-01      9.06172244e-01      
H    5.59206877e-01      2.76877454e-01      2.08772485e+00      
C    1.55851005e+00      -1.31850163e+00     1.03833181e+00      
O    1.13200802e+00      -2.15964933e+00     2.78090018e-01      
O    2.54624200e+00      -1.46201129e+00     1.91482825e+00      
H    2.87057444e+00      -2.37968715e+00     1.85802443e+00      
O    1.35978216e+00      -2.46566169e-01     -2.21761916e+00     
H    1.43169967e+00      1.35255995e-01      -2.95871934e+00     
H    1.53673145e+00      -1.08441497e+00     -2.36304926e+00     
14
3791.765550
N    -5.61801746e-02     1.80201426e-01      5.79008878e-02      
H    3.89245657e-01      8.46465032e-02      -8.92935448e-01     
H    -5.66308028e-01     1.05848764e+00      1.19381566e-01      
H    -7.11343352e-01     -5.99464841e-01     1.44591104e-01      
C    9.92334865e-01      8.51047088e-02      1.10770564e+00      
H    1.76379070e+00      8.23370328e-01      9.06174724e-01      
H    5.59175406e-01      2.76879144e-01      2.08776699e+00      
C    1.55850595e+00      -1.31849708e+00     1.03832077e+00      
O    1.13200831e+00      -2.15965077e+00     2.78089346e-01      
O    2.54624970e+00      -1.46202331e+00     1.91483158e+00      
H    2.87050267e+00      -2.37950021e+00     1.85802885e+00      
O    1.36035510e+00      -2.47147363e-01     -2.21994404e+00     
H    1.42859336e+00      1.15187269e-01      -2.92449328e+00     
H    1.53070051e+00      -1.05503530e+00     -2.35995920e+00     
